LAMMPS (29 Aug 2024)
# LAMMPS输入文件示例：使用Martini 3粗粒化力场计算PDMS的均方回转半径
# -----------------------------------------------------
# 1. 初始化设置
# -----------------------------------------------------
units               real
dimension           3
boundary            p p p
atom_style          full

# 读取包含PDMS分子结构的data文件
read_data           bad_pdms_250_box.data
Reading data file ...
  orthogonal box = (-2.524496 -2.210001 -2.483001) to (241.0155 241.26999 240.987)
  4 by 2 by 2 MPI processor grid
  reading atoms ...
  45000 atoms
  scanning bonds ...
  1 = max bonds/atom
  scanning angles ...
  1 = max angles/atom
  scanning dihedrals ...
  1 = max dihedrals/atom
  orthogonal box = (-2.524496 -2.210001 -2.483001) to (241.0155 241.26999 240.987)
  4 by 2 by 2 MPI processor grid
  reading bonds ...
  44820 bonds
  reading angles ...
  44640 angles
  reading dihedrals ...
  44460 dihedrals
Finding 1-2 1-3 1-4 neighbors ...
  special bond factors lj:    0        0        0       
  special bond factors coul:  0        0        0       
     2 = max # of 1-2 neighbors
     2 = max # of 1-3 neighbors
     4 = max # of 1-4 neighbors
     6 = max # of special neighbors
  special bonds CPU = 0.004 seconds
  read_data CPU = 0.313 seconds

# -----------------------------------------------------
# 2. 力场参数设置（Martini 3参数）
# -----------------------------------------------------
# 定义非键相互作用（示例：Lennard-Jones势，截断距离可参考Martini 3常用取值）
pair_style lj/cut   12.0
special_bonds       lj 0.0 0.0 0.5
Finding 1-2 1-3 1-4 neighbors ...
  special bond factors lj:    0        0        0.5     
  special bond factors coul:  0        0        0       
     2 = max # of 1-2 neighbors
     2 = max # of 1-3 neighbors
     4 = max # of 1-4 neighbors
     6 = max # of special neighbors
  special bonds CPU = 0.002 seconds
pair_coeff          1 1 0.7337 5.1
# 定义键、角、二面角势（示例参数，实际参数请参考相关文献）
bond_style          harmonic
bond_coeff          1 13.243 4.48
angle_style         harmonic
angle_coeff         1 5.48 86.0
dihedral_style      harmonic
dihedral_coeff      1 0.3346  1  1
# -----------------------------------------------------
# 3. 邻域列表设置
# -----------------------------------------------------
neigh_modify    one 1000
neighbor        1 bin
neigh_modify    delay 0 every 1 check yes

# -----------------------------------------------------
# 4. 能量最小化与预平衡
# -----------------------------------------------------
minimize        1.0e-4 1.0e-6 1000 10000

CITE-CITE-CITE-CITE-CITE-CITE-CITE-CITE-CITE-CITE-CITE-CITE-CITE

Your simulation uses code contributions which should be cited:

- Type Label Framework: https://doi.org/10.1021/acs.jpcb.3c08419

@Article{Gissinger24,
 author = {Jacob R. Gissinger, Ilia Nikiforov, Yaser Afshar, Brendon Waters, Moon-ki Choi, Daniel S. Karls, Alexander Stukowski, Wonpil Im, Hendrik Heinz, Axel Kohlmeyer, and Ellad B. Tadmor},
 title = {Type Label Framework for Bonded Force Fields in LAMMPS},
 journal = {J. Phys. Chem. B},
 year =    2024,
 volume =  128,
 number =  13,
 pages =   {3282–-3297}
}

CITE-CITE-CITE-CITE-CITE-CITE-CITE-CITE-CITE-CITE-CITE-CITE-CITE

Generated 0 of 0 mixed pair_coeff terms from geometric mixing rule
Neighbor list info ...
  update: every = 1 steps, delay = 0 steps, check = yes
  max neighbors/atom: 1000, page size: 100000
  master list distance cutoff = 13
  ghost atom cutoff = 13
  binsize = 6.5, bins = 38 38 38
  1 neighbor lists, perpetual/occasional/extra = 1 0 0
  (1) pair lj/cut, perpetual
      attributes: half, newton on
      pair build: half/bin/newton
      stencil: half/bin/3d
      bin: standard
Per MPI rank memory allocation (min/avg/max) = 8.658 | 8.74 | 9.125 Mbytes
   Step          Temp          E_pair         E_mol          TotEng         Press     
         0   0              1.2577438e+12  133332.57      1.2577439e+12  2.3894919e+10
       935   0             -133018.19      37130.182     -95888.012     -90.405037    
Loop time of 2.1896 on 16 procs for 935 steps with 45000 atoms

97.3% CPU use with 16 MPI tasks x no OpenMP threads

Minimization stats:
  Stopping criterion = energy tolerance
  Energy initial, next-to-last, final = 
      1257743934833.77  -95878.7118419265  -95888.0119730322
  Force two-norm initial, final = 1.717759e+12 40.748413
  Force max component initial, final = 9.1109908e+10 13.062578
  Final line search alpha, max atom move = 0.0071054503 0.092815502
  Iterations, force evaluations = 935 937

MPI task timing breakdown:
Section |  min time  |  avg time  |  max time  |%varavg| %total
---------------------------------------------------------------
Pair    | 0.48961    | 0.74009    | 1.0852     |  19.1 | 33.80
Bond    | 0.16093    | 0.24211    | 0.31519    |   8.4 | 11.06
Neigh   | 0.47641    | 0.47977    | 0.48296    |   0.4 | 21.91
Comm    | 0.24811    | 0.59124    | 0.95472    |  24.2 | 27.00
Output  | 0          | 0          | 0          |   0.0 |  0.00
Modify  | 0          | 0          | 0          |   0.0 |  0.00
Other   |            | 0.1364     |            |       |  6.23

Nlocal:         2812.5 ave        3557 max        1965 min
Histogram: 1 1 1 2 2 3 2 1 1 2
Nghost:        2418.06 ave        2989 max        1715 min
Histogram: 4 1 0 0 2 1 0 1 3 4
Neighs:        65570.5 ave       91452 max       43752 min
Histogram: 2 2 1 1 5 1 0 1 2 1

Total # of neighbors = 1049128
Ave neighs/atom = 23.313956
Ave special neighs/atom = 5.952
Neighbor list builds = 128
Dangerous builds = 0
fix             1 all npt temp 900.0 900.0 100.0 iso 1.0 1.0 1000
timestep        1
thermo_style    custom step temp press density vol
thermo          10000
run             500000
Generated 0 of 0 mixed pair_coeff terms from geometric mixing rule
Per MPI rank memory allocation (min/avg/max) = 7.534 | 7.616 | 8.001 Mbytes
   Step          Temp          Press         Density         Volume    
       935   0             -90.405037      0.37266194     14437069     
     10000   900.40351     -4.6025904      0.33588597     16017776     
     20000   899.53446      4.6842491      0.35399192     15198500     
     30000   902.80466      20.907771      0.36611919     14695067     
     40000   905.9084       8.4594673      0.37298806     14424446     
     50000   901.48144      6.5119845      0.37903649     14194270     
     60000   907.43298      5.4771119      0.39598386     13586781     
     70000   896.88571      7.0179774      0.4133251      13016742     
     80000   898.52363     -16.093719      0.42527859     12650875     
     90000   898.66983      11.005155      0.44222668     12166037     
    100000   903.72333      4.0928246      0.45625419     11791993     
    110000   899.53304     -25.617484      0.47330837     11367105     
    120000   897.50398     -8.1212865      0.48732186     11040231     
    130000   908.65061     -0.76809643     0.50249768     10706808     
    140000   896.2503       2.1241493      0.51479661     10451013     
    150000   896.59177      0.20656552     0.52562696     10235674     
    160000   895.54061     -24.972888      0.54241945     9918792.8    
    170000   897.51677     -8.9208716      0.55170963     9751771.2    
    180000   902.89821      0.47902393     0.55887533     9626737.6    
    190000   900.88855      38.392231      0.57381738     9376059.8    
    200000   900.30264      32.797648      0.58562001     9187094.1    
    210000   894.17698      20.956677      0.59821528     8993662.1    
    220000   900.39732      4.4102119      0.59971368     8971191.2    
    230000   902.53676      6.1529325      0.60959393     8825786.8    
    240000   902.48754     -4.2274414      0.61590306     8735378      
    250000   902.66095      15.009184      0.62541173     8602566.6    
    260000   898.64765     -36.934002      0.62882799     8555831.1    
    270000   901.551       -8.2455557      0.6340251      8485698.9    
    280000   894.5327       2.3096272      0.63549399     8466084.9    
    290000   900.17262     -0.30093527     0.63200871     8512772.1    
    300000   909.60519      23.908601      0.63513081     8470926      
    310000   901.02863     -9.8573311      0.63617693     8456996.5    
    320000   901.42868      27.337424      0.63314583     8497483.3    
    330000   896.88717     -21.991781      0.63628527     8455556.6    
    340000   903.91211      12.404374      0.63523867     8469487.7    
    350000   901.2326       11.494457      0.63782374     8435161.2    
    360000   906.73711      15.556447      0.63572342     8463029.6    
    370000   897.39635      35.912213      0.63653877     8452189.1    
    380000   899.93973     -1.8411294      0.63553245     8465572.6    
    390000   901.65194     -15.752996      0.63907149     8418692.1    
    400000   897.9338       0.68520918     0.63812944     8431120.3    
    410000   906.05724      23.721536      0.6394883      8413204.8    
    420000   901.83024      18.586763      0.63435762     8481250.8    
    430000   901.06197     -20.302932      0.63285169     8501432.8    
    440000   902.06246     -19.102587      0.63834978     8428210.2    
    450000   904.77282     -9.0169648      0.63577755     8462309.1    
    460000   893.76807     -28.997973      0.63202751     8512518.9    
    470000   897.96463     -8.6397596      0.63648868     8452854.3    
    480000   896.40335     -31.970498      0.63728165     8442336.5    
    490000   901.14342     -21.733019      0.63619373     8456773.3    
    500000   903.39117      1.7279896      0.6353005      8468663.4    
    500935   897.32909      11.552447      0.6374981      8439470      
Loop time of 771.744 on 16 procs for 500000 steps with 45000 atoms

Performance: 55.977 ns/day, 0.429 hours/ns, 647.883 timesteps/s, 29.155 Matom-step/s
98.4% CPU use with 16 MPI tasks x no OpenMP threads

MPI task timing breakdown:
Section |  min time  |  avg time  |  max time  |%varavg| %total
---------------------------------------------------------------
Pair    | 247.85     | 294.4      | 358.96     | 186.4 | 38.15
Bond    | 140.01     | 160        | 188.59     | 109.4 | 20.73
Neigh   | 63.687     | 63.849     | 63.976     |   1.3 |  8.27
Comm    | 93.044     | 175.83     | 248.15     | 307.0 | 22.78
Output  | 0.0022834  | 0.0024197  | 0.0037844  |   0.7 |  0.00
Modify  | 55.904     | 66.251     | 91.386     | 174.4 |  8.58
Other   |            | 11.41      |            |       |  1.48

Nlocal:         2812.5 ave        2866 max        2747 min
Histogram: 2 0 1 0 2 4 4 0 2 1
Nghost:        3846.75 ave        3901 max        3769 min
Histogram: 1 0 0 4 1 2 3 0 3 2
Neighs:        63180.2 ave       65673 max       60414 min
Histogram: 2 0 1 0 3 4 4 0 0 2

Total # of neighbors = 1010884
Ave neighs/atom = 22.464089
Ave special neighs/atom = 5.952
Neighbor list builds = 16434
Dangerous builds = 0
unfix           1

# variable        lambda equal ramp(0.8,1.0)
# fix             2 all adapt 1 pair lj/cut/soft lambda * * v_lambda

# fix             3 all npt temp 900.0 900.0 100.0 iso 1.0 1.0 1000
# timestep        1
# thermo_style    custom step temp press density vol
# thermo          10000
# run             50000
# unfix           3

# -----------------------------------------------------
# 5. 计算均方回转半径
# -----------------------------------------------------
# 使用compute gyration命令计算整个体系的回转半径
fix             equil all npt temp 900.0 900.0 100.0 iso 1.0 1.0 1000
group           pdms1 id <= 250
250 atoms in group pdms1
group           pdms2 id 251:500
250 atoms in group pdms2
group           pdms3 id 501:750
250 atoms in group pdms3
group           pdms4 id 751:1000
250 atoms in group pdms4
group           pdms5 id 1001:1250
250 atoms in group pdms5
group           pdms6 id 1251:1500
250 atoms in group pdms6
group           pdms7 id 1501:1750
250 atoms in group pdms7
group           pdms8 id 1751:2000
250 atoms in group pdms8
group           pdms9 id 2001:2250
250 atoms in group pdms9
group           pdms10 id 2251:2500
250 atoms in group pdms10
# variable        d_end equal "sqrt((x[1]-x[10])^2 + (y[1]-y[10])^2 + (z[1]-z[10])^2)"
compute         rg1 pdms1 gyration
compute         rg2 pdms2 gyration
compute         rg3 pdms3 gyration
compute         rg4 pdms4 gyration
compute         rg5 pdms5 gyration
compute         rg6 pdms6 gyration
compute         rg7 pdms7 gyration
compute         rg8 pdms8 gyration
compute         rg9 pdms9 gyration
compute         rg10 pdms10 gyration
variable        d_end equal "sqrt((x[1]-x[250])^2 + (y[1]-y[250])^2 + (z[1]-z[250])^2)"
# fix             avg pdms ave/time 1000 800 1000000 c_rg v_d_end file avg.txt
# 输出热力学信息及回转半径数据，每隔1000步输出一次
thermo_style    custom step temp pe ke etotal c_rg1 c_rg2 c_rg3 c_rg4 c_rg5 c_rg6 c_rg7 c_rg8 c_rg9 c_rg10 press density vol
thermo          10000
# 输出轨迹文件，便于后续可视化与分析
dump            traj all custom 1000 dump.pdms.lammpstrj id type x y z
# 运行模拟，记录回转半径数据（后续可统计分析均值与波动）
run             1000000
Generated 0 of 0 mixed pair_coeff terms from geometric mixing rule
Per MPI rank memory allocation (min/avg/max) = 7.564 | 7.644 | 8.007 Mbytes
   Step          Temp          PotEng         KinEng         TotEng         c_rg1          c_rg2          c_rg3          c_rg4          c_rg5          c_rg6          c_rg7          c_rg8          c_rg9          c_rg10         Press         Density         Volume    
    500935   897.32909      524.29438      120361.87      120886.16      36.225045      39.046915      33.760246      46.598888      34.981333      36.542062      36.381664      33.332117      36.435246      23.643769      11.552447      0.6374981      8439470      
    510000   895.20684     -458.7591       120077.2       119618.44      36.43803       38.980491      34.154274      45.724776      34.021767      35.067217      36.814211      33.948504      36.611047      25.121667     -13.514621      0.63746195     8439948.6    
    520000   901.55459     -180.23809      120928.65      120748.41      37.18868       39.911293      33.222485      46.412214      33.580375      35.737505      36.341927      34.247105      37.762408      24.605781      7.4798259      0.63631313     8455186.4    
    530000   901.78217     -359.30629      120959.17      120599.87      37.265119      39.866637      33.215383      46.606462      34.122451      33.535403      38.615753      33.124477      37.528606      24.865108     -0.6247538      0.6391484      8417679.1    
    540000   900.11603     -601.78253      120735.69      120133.9       36.842894      40.801271      34.029746      48.190027      35.711915      33.117676      39.567682      32.317316      37.765143      24.463716      3.9958283      0.63685035     8448053.9    
    550000   899.35812     -1019.2828      120634.03      119614.74      37.779268      40.659242      34.51213       48.965265      34.821386      33.177509      38.804101      33.697386      36.8093        25.017863     -3.1742371      0.63814468     8430919      
    560000   904.11304      8.8446267      121271.82      121280.66      38.729037      40.0735        35.068642      48.623983      36.073408      31.593359      39.85391       33.172193      36.29894       27.811394      23.345104      0.63510454     8471276.4    
    570000   902.73871      49.898328      121087.48      121137.38      39.92526       39.333572      34.393692      47.508563      37.999428      31.324237      40.546651      32.468445      35.032524      27.795424      16.835779      0.6357922      8462114      
    580000   897.56802      37.781972      120393.91      120431.7       39.816307      37.980142      35.459523      46.728553      38.946015      31.737622      40.698871      31.515487      34.318324      28.249566      21.139727      0.63697335     8446422.6    
    590000   901.68105      176.6061       120945.61      121122.22      39.182155      36.927135      35.072976      46.04822       39.792191      31.801059      41.288783      32.319742      33.6701        27.777883      8.4973129      0.6346341      8477556      
    600000   904.70471     -1314.5689      121351.18      120036.62      39.939287      36.756144      35.549031      47.224548      38.908257      32.595445      39.834111      31.672323      34.606307      27.944877      23.03378       0.63926008     8416208.4    
    610000   890.56563      438.91021      119454.66      119893.57      40.01559       38.836907      35.200861      46.534413      38.883175      32.602486      40.144062      31.623595      36.142327      26.782729      1.1102365      0.63499105     8472790.4    
    620000   900.81738     -678.55265      120829.76      120151.21      40.010043      39.194838      35.700836      48.542349      39.532689      32.271292      40.318973      32.312104      36.220248      27.436851     -4.9307156      0.63844931     8426896.2    
    630000   897.96833      601.11711      120447.61      121048.73      39.294679      41.229277      35.670032      48.765067      40.604636      31.714095      40.625133      32.160032      34.487213      28.739604     -32.933933      0.63007484     8538900.1    
    640000   895.5967       1622.0983      120129.49      121751.59      38.219505      42.40707       35.419848      49.152655      39.820125      32.6094        40.883947      32.750378      35.289025      28.546144      1.299191       0.62753892     8573406.3    
    650000   903.07066      975.2824       121132         122107.29      37.388594      41.06039       35.115868      48.872115      38.82537       32.723046      39.703298      33.540417      36.250307      26.209778     -41.738771      0.63369603     8490105.5    
    660000   901.23439     -240.54611      120885.7       120645.15      38.12449       40.893746      35.581387      49.963591      39.201333      32.789978      40.544553      34.014001      34.541746      26.706197     -13.815242      0.63688858     8447546.9    
    670000   898.17835     -223.58577      120475.78      120252.19      38.873566      43.20188       34.295293      50.451727      39.174101      32.544051      40.325947      33.65172       33.655598      26.164844      9.8923811      0.63891032     8420815.7    
    680000   900.07485      838.97125      120730.16      121569.14      37.503572      43.915529      33.261018      51.614972      37.903819      32.209958      40.148776      34.766323      35.025794      27.756513     -36.971914      0.63387206     8487747.7    
    690000   899.8087       388.66351      120694.46      121083.13      35.593562      44.239596      33.797736      51.914275      37.614875      34.42036       39.679547      35.234462      34.807681      28.341757      43.005826      0.63461979     8477747.1    
    700000   900.98531     -139.12552      120852.29      120713.16      36.471304      45.680615      34.385911      53.046296      38.125948      35.199838      39.590647      34.879152      34.69747       28.234854     -11.708424      0.63519216     8470107.8    
    710000   894.01194      548.29503      119916.92      120465.22      36.945736      43.608042      35.1932        53.113764      37.988584      34.918738      40.478772      35.435182      34.876065      26.727083      2.2816059      0.63415448     8483967.6    
    720000   898.82838     -468.6718       120562.97      120094.3       36.965106      42.392554      35.728351      53.780023      37.153638      34.200328      40.311798      34.07147       34.678108      26.979948     -4.9239709      0.63680953     8448595.4    
    730000   904.33838      776.24594      121302.05      122078.29      37.349138      42.663123      36.121618      53.822825      36.791937      34.835771      39.867252      33.618605      34.920137      26.789519      2.3959251      0.63357033     8491789.9    
    740000   901.64232     -425.5622       120940.41      120514.85      38.690166      43.522928      36.456423      53.757562      33.696604      34.846546      38.351291      33.250571      33.68558       26.376571      6.8846118      0.64121516     8390547.3    
    750000   894.56618     -57.953003      119991.27      119933.31      38.354209      43.385948      34.645074      51.535117      33.844366      35.079984      39.621133      35.088749      33.782553      25.77569      -5.2231461      0.63542245     8467038.2    
    760000   902.24058      141.60641      121020.66      121162.27      37.834359      43.116155      33.29577       52.092544      34.396499      34.884375      40.161457      33.943655      32.264096      26.229527     -3.7982179      0.6350987      8471354.3    
    770000   903.99429     -84.975463      121255.89      121170.92      36.000993      42.287072      34.559117      50.909908      35.168633      32.719095      39.708999      35.822564      31.94154       28.18296       0.76775077     0.63502676     8472314      
    780000   899.86751      680.85881      120702.35      121383.21      36.639419      43.454214      35.895357      51.242948      33.968845      31.49193       39.225754      35.381911      32.457764      26.823654      13.862768      0.63315995     8497293.8    
    790000   901.34989      404.51541      120901.19      121305.7       36.763375      44.809524      36.048757      50.56775       32.857836      32.468281      38.364964      35.074618      31.562336      24.894799     -32.394419      0.63673467     8449588.8    
    800000   900.27926     -449.97186      120757.58      120307.61      36.7744        43.637085      37.016121      49.35767       33.965741      34.108875      37.898153      34.518445      30.472899      25.580452      6.0842099      0.64148416     8387028.7    
    810000   900.16562      205.78334      120742.34      120948.12      38.450421      43.41993       36.304278      47.668098      33.120592      35.653891      36.308669      34.008698      32.226909      26.028702     -22.381072      0.63733337     8441651.4    
    820000   898.71354      1606.6889      120547.57      122154.26      38.66579       43.735636      36.903191      48.690738      32.924942      36.493169      37.516381      34.096967      33.580217      26.528314      10.825231      0.62961885     8545084.3    
    830000   898.61291      779.33406      120534.07      121313.4       39.154191      44.497086      36.927977      49.739591      32.616983      35.723744      37.894736      34.552757      32.636565      26.049415     -24.066999      0.63357762     8491692.2    
    840000   899.27883      371.22469      120623.39      120994.62      38.61024       45.263221      38.050852      50.356568      32.997173      36.335925      38.008314      35.194337      31.05841       27.178785     -3.0731399      0.63476523     8475804.7    
    850000   907.42308      573.7275       121715.81      122289.54      37.610348      45.320038      38.355245      50.925989      33.145063      36.109316      38.336576      33.998693      29.846716      26.83621       33.665397      0.63464296     8477437.6    
    860000   896.86474      887.4053       120299.58      121186.99      36.173277      46.390951      37.712284      49.629546      33.549542      35.568871      38.779272      34.319361      29.717547      26.404855      0.23927597     0.63447939     8479623.1    
    870000   904.59856      317.47195      121336.95      121654.42      35.325643      46.712293      37.16958       47.908441      31.825408      35.524208      38.48145       32.808678      28.612851      27.658958      40.114519      0.63487564     8474330.6    
    880000   901.9281      -764.04319      120978.75      120214.7       36.789631      46.776021      36.964336      46.195028      32.008063      35.780644      38.097663      32.118495      26.557612      28.470223      4.9867753      0.63962411     8411418.6    
    890000   899.98948     -155.22327      120718.71      120563.49      35.444613      46.724321      37.808374      46.34139       32.212693      36.167508      37.430786      33.869058      27.738572      28.371775     -35.646627      0.6379097      8434024.6    
    900000   898.00525     -216.96163      120452.56      120235.6       34.415528      46.513688      39.498086      46.301374      33.365832      37.240467      38.086894      33.415823      27.648609      28.512068      18.546723      0.63674712     8449423.5    
    910000   900.20456     -542.15         120747.56      120205.41      34.780336      44.865862      38.811349      45.573351      34.811139      37.185956      37.907909      32.921282      26.627139      28.006072      32.39989       0.63987095     8408173.7    
    920000   900.45817      251.08719      120781.58      121032.67      34.963192      43.760374      38.812776      45.69908       35.77955       37.153358      36.836079      32.618901      26.659844      28.451652      12.885616      0.63514205     8470776.1    
    930000   901.66408     -701.84354      120943.33      120241.49      33.363157      43.793961      37.757494      47.458098      35.868694      36.240534      35.541295      33.116578      25.997916      28.792768      10.308778      0.63780469     8435413.2    
    940000   898.68522      135.31353      120543.77      120679.08      33.38678       43.90738       37.444817      48.943723      36.694538      35.228949      36.353505      33.157401      26.16014       29.509497      25.746229      0.63729771     8442123.7    
    950000   899.64202      235.71313      120672.11      120907.82      32.975673      44.564138      37.666884      48.937728      35.526152      34.927843      36.659397      34.288699      27.152486      30.092452     -3.825097       0.6363281      8454987.4    
    960000   902.43678      1528.2409      121046.98      122575.22      33.844725      45.69727       36.434971      47.675418      36.480592      34.430271      36.707363      35.288697      27.823198      31.406761      38.065843      0.63003984     8539374.5    
    970000   901.7867       687.43625      120959.78      121647.22      34.320007      47.119663      36.153578      46.756318      36.682795      33.598155      37.632726      36.452728      27.779907      31.761852     -5.6138648      0.6340264      8485681.5    
    980000   902.19764      1339.7743      121014.9       122354.68      33.657777      45.746087      36.13832       45.398697      37.34568       35.585384      38.676215      36.677829      26.201753      31.096701     -5.4415558      0.63015979     8537749      
    990000   905.1017       193.10461      121404.43      121597.54      34.401855      45.808436      36.769205      44.926683      37.947002      35.505191      39.001769      37.090671      26.15404       30.832364      31.134144      0.6341842      8483570.1    
   1000000   896.684       -259.37047      120275.34      120015.97      35.736254      46.373987      36.032544      46.547837      37.997066      34.629639      39.166248      36.390012      25.543383      31.70936       17.112359      0.64032806     8402171.4    
   1010000   900.76804     -305.93137      120823.14      120517.21      36.458515      46.609596      35.361535      47.088558      37.338464      34.385717      39.877431      35.968727      26.21048       31.141336     -16.197602      0.63470051     8476668.9    
   1020000   895.339       -632.64674      120094.93      119462.28      35.997945      45.658568      36.638937      45.777149      36.047351      32.17008       40.986526      35.337561      26.599065      29.314056     -10.691751      0.64074449     8396710.6    
   1030000   895.52242      1288.5359      120119.53      121408.07      35.570963      46.507286      37.980622      45.700783      37.225802      33.709617      42.678699      34.927533      26.400067      29.585685     -12.011683      0.63165748     8517505.6    
   1040000   896.69329      603.56039      120276.58      120880.14      35.901308      47.020278      38.981352      45.130413      36.794248      35.136452      41.802823      33.664895      27.729363      28.826621      24.048265      0.63782488     8435146.2    
   1050000   901.77203     -170.92016      120957.81      120786.89      36.415455      48.068998      40.115985      44.420889      38.449693      36.585621      41.783339      33.685917      26.56493       28.182228      13.880921      0.63558262     8464904.4    
   1060000   896.58099     -107.65126      120261.52      120153.87      35.161503      48.542251      38.504894      43.897586      39.116957      36.477686      40.883377      33.79584       26.24748       28.561036     -18.873232      0.63658505     8451574.7    
   1070000   900.28363      1030.2172      120758.17      121788.39      35.27294       48.301809      38.475948      44.91381       40.440605      36.38765       40.953193      34.251574      26.304938      28.816538     -11.358997      0.63351591     8492519.4    
   1080000   899.55304     -147.59678      120660.17      120512.58      33.843981      47.61713       38.55169       44.725504      41.726887      36.222248      40.189387      33.856403      26.063001      29.362246      0.42391526     0.63394083     8486827      
   1090000   893.71243      481.13505      119876.75      120357.89      34.02231       48.008714      37.107859      44.973404      41.009291      35.43487       41.327719      33.6871        25.905977      30.247783     -8.2052744      0.63332087     8495134.7    
   1100000   903.05675      320.69895      121130.14      121450.84      34.578661      48.668041      35.439934      44.080036      40.480029      35.120379      40.506801      33.783981      25.244999      30.519483      7.7155729      0.6357396      8462814.2    
   1110000   898.55374     -641.44129      120526.13      119884.69      34.665133      49.570837      37.126193      44.67955       40.587962      35.873288      40.170112      32.786799      25.366754      29.318719     -20.658569      0.63819057     8430312.7    
   1120000   898.6517      -291.13769      120539.27      120248.13      33.263355      48.295028      36.361867      44.933874      41.480766      36.055391      39.887123      32.526829      23.970898      29.438248      24.522161      0.6408354      8395519.5    
   1130000   899.79792      270.79797      120693.02      120963.82      33.535395      47.934946      37.187791      45.869037      41.472969      33.795931      38.44811       32.507668      24.219947      29.894465      4.9811634      0.63537311     8467695.7    
   1140000   902.51142     -1426.6484      121056.99      119630.34      33.056365      47.43961       36.543223      46.23441       40.616936      34.2403        37.610805      32.651493      24.802738      28.302314      18.710077      0.64180868     8382788      
   1150000   902.001       -1014.8297      120988.53      119973.7       33.155874      47.564813      36.209259      46.647268      39.752935      34.869314      38.571934      33.666021      24.275131      26.75126       33.08366       0.64001845     8406235.9    
   1160000   902.97682     -114.19402      121119.42      121005.22      34.470476      47.681956      35.374772      46.435379      39.27269       32.549522      38.029166      34.026681      25.769358      27.643583      39.312497      0.6398594      8408325.5    
   1170000   906.40378     -1212.4558      121579.09      120366.63      35.127775      49.000716      35.217557      46.406772      40.194005      33.169226      36.683555      35.345963      26.2963        28.73849      -11.178426      0.63820413     8430133.7    
   1180000   905.23522     -470.86719      121422.34      120951.48      34.709082      49.87471       35.281016      45.994433      40.44151       32.949091      36.62166       33.976119      26.994636      28.814438     -16.099104      0.63860235     8424876.8    
   1190000   900.344        135.13486      120766.27      120901.4       33.686793      50.404022      36.703066      44.418337      40.62951       33.183167      36.572996      35.409787      27.101397      29.146936     -6.0320322      0.63413826     8484184.6    
   1200000   897.66245     -336.03726      120406.58      120070.54      34.331005      51.157962      37.501951      42.771592      39.379851      33.861125      36.683313      35.096592      28.26591       28.849364     -4.9454566      0.63618511     8456887.9    
   1210000   899.92607     -176.53553      120710.21      120533.67      34.493218      51.432073      37.676964      42.468589      40.1237        34.76546       37.181262      35.789003      27.96976       28.447084     -20.625504      0.63328958     8495554.4    
   1220000   901.8374       681.85186      120966.58      121648.43      33.669019      52.103072      39.010245      42.933467      38.369984      33.598388      37.434591      34.44194       27.652936      27.160445     -6.0008689      0.63090338     8527686.3    
   1230000   900.49467      583.92887      120786.48      121370.41      33.520514      52.507492      38.765555      43.296385      40.106621      34.048644      38.029536      33.673173      28.619143      25.481445     -0.60805252     0.63116731     8524120.4    
   1240000   904.12288     -1307.4273      121273.14      119965.71      33.509797      52.039276      39.450684      42.914378      38.870503      34.110003      38.270966      33.120898      26.99357       25.596718     -39.986418      0.64522008     8338466.6    
   1250000   899.77401     -572.14308      120689.81      120117.67      32.492471      49.704163      38.977164      42.559918      36.537382      35.320765      37.448249      32.466808      24.945875      26.232879     -16.374366      0.63718911     8443562.6    
   1260000   898.44281     -525.22136      120511.25      119986.03      33.53714       50.134287      37.123309      43.161721      35.753238      35.001176      38.380899      32.862049      25.530409      26.090556      21.724437      0.63798982     8432965.4    
   1270000   899.03962     -946.88146      120591.31      119644.42      35.406008      49.663578      37.886942      44.976256      36.63757       35.288272      37.053126      32.807179      25.381592      24.995998     -7.9117953      0.63908083     8418569.1    
   1280000   899.68395      1138.3976      120677.73      121816.13      36.323265      49.380221      39.4026        42.510219      38.937684      34.333343      36.226563      33.869635      26.751063      24.692883      2.5479301      0.63116615     8524136      
   1290000   902.54946     -549.08123      121062.09      120513.01      34.887842      48.586846      40.972185      43.522139      38.571112      34.500483      35.105605      33.937692      27.074176      24.5197        10.134187      0.63786071     8434672.4    
   1300000   895.04048     -606.24158      120054.89      119448.65      33.998547      49.6903        41.713341      43.556903      39.754294      35.908179      34.519647      34.662226      26.846538      25.17164      -46.420521      0.64275367     8370463.5    
   1310000   897.7473      -668.99842      120417.96      119748.96      32.326621      49.1365        41.833852      43.206589      39.776378      37.7339        35.211654      34.983259      26.726228      23.985246     -50.778136      0.64227327     8376724.2    
   1320000   896.12777     -669.32046      120200.73      119531.41      32.624092      49.163533      43.157057      42.334288      39.388436      37.252862      34.478153      36.289312      27.670783      25.186694      10.149059      0.64129126     8389551.6    
   1330000   901.50172     -529.12864      120921.56      120392.43      33.333459      50.878677      42.93652       42.581819      38.486526      36.254442      34.762371      36.535917      28.046861      23.346982     -46.877341      0.63761749     8437889.8    
   1340000   900.94248     -336.54822      120846.54      120509.99      32.194818      50.139873      42.616541      42.792836      38.629772      35.098844      35.610309      38.580342      27.501544      23.161039      21.846369      0.63658785     8451537.5    
   1350000   905.04284     -100.06121      121396.54      121296.48      30.611486      48.944008      42.994165      42.811207      38.165032      34.147627      35.930018      36.776234      27.810215      23.100795      27.751066      0.6365366      8452218      
   1360000   901.76941     -862.33717      120957.46      120095.12      30.997936      47.281159      41.574583      42.873314      38.170827      33.151255      35.233617      36.246649      26.201956      22.407157      29.124043      0.63736139     8441280.2    
   1370000   897.44001     -528.77415      120376.74      119847.97      31.001491      47.33757       40.43168       43.294278      37.123254      34.328189      36.181425      36.427859      27.25691       23.539144      9.227263       0.63620898     8456570.5    
   1380000   900.12556      1661.6928      120736.97      122398.66      31.572673      47.093743      39.29124       42.698503      38.857978      34.3692        36.734033      38.144524      26.474224      24.521919     -12.816856      0.6305427      8532564.3    
   1390000   902.32026      451.57429      121031.35      121482.92      31.406848      48.279815      38.46246       41.687224      39.019625      34.136134      35.948356      38.331991      27.645738      24.148488      1.02828        0.63336302     8494569.3    
   1400000   900.66498      93.697049      120809.32      120903.02      31.311291      49.187527      38.162472      41.054739      39.300805      34.550049      34.565088      38.412983      27.121156      24.025419      8.5606521      0.63505693     8471911.4    
   1410000   892.43567      627.46976      119705.49      120332.96      30.977152      49.295607      38.904205      41.080558      37.272         35.178545      33.127052      35.917831      26.305882      23.273605     -0.92293217     0.63680175     8448698.7    
   1420000   897.23981      34.916524      120349.89      120384.81      30.780966      49.360965      37.912393      40.98323       36.838817      32.371408      33.733261      37.296445      26.710376      23.556331     -44.516226      0.63572277     8463038.2    
   1430000   899.06873      401.10003      120595.21      120996.31      31.52006       48.348833      37.984432      41.421575      36.450115      32.248893      33.522076      37.836391      27.375952      24.897104     -20.575276      0.63761779     8437885.8    
   1440000   900.25336      647.18234      120754.11      121401.29      30.872552      48.084898      37.46838       42.215136      36.651852      31.94876       34.136052      39.10413       27.473526      25.069211     -24.99519       0.63377217     8489085.5    
   1450000   898.92821      972.87987      120576.36      121549.24      31.155939      49.48507       38.682323      42.150053      36.64769       32.322305      35.383655      38.712591      28.155665      25.082449      4.768581       0.63081717     8528851.7    
   1460000   899.99162      510.61393      120719         121229.61      31.32823       49.436067      40.2801        41.395446      35.723441      32.053332      35.089885      39.412358      27.905937      25.189361     -32.056455      0.63294395     8500193.5    
   1470000   901.13252     -465.64594      120872.03      120406.39      31.027655      49.620474      40.786506      41.168026      34.277768      30.541343      37.001761      39.708299      28.246143      23.644098      9.3450571      0.63886487     8421414.9    
   1480000   897.19609      144.94141      120344.03      120488.97      30.663134      50.898309      41.173933      39.671599      34.471509      30.895848      36.602783      40.873636      27.670402      23.556084     -38.044942      0.63697522     8446397.8    
   1490000   900.2252      -482.56291      120750.33      120267.77      30.998325      51.373416      41.684068      38.784587      33.639634      30.199076      36.033166      39.625361      27.400436      23.387968     -3.4385035      0.64053877     8399407.4    
   1500000   905.30338     -344.43634      121431.49      121087.05      30.716982      50.064508      41.890215      39.182619      34.136822      32.651923      35.503734      40.086868      26.381041      24.155947      15.055901      0.636559       8451920.6    
   1500935   895.11523      197.11504      120064.91      120262.03      30.417884      49.769254      41.762716      39.471408      33.689294      33.114364      35.273882      40.113604      26.567074      24.266301      24.660873      0.63796495     8433294.2    
Loop time of 1455.61 on 16 procs for 1000000 steps with 45000 atoms

Performance: 59.356 ns/day, 0.404 hours/ns, 686.996 timesteps/s, 30.915 Matom-step/s
98.8% CPU use with 16 MPI tasks x no OpenMP threads

MPI task timing breakdown:
Section |  min time  |  avg time  |  max time  |%varavg| %total
---------------------------------------------------------------
Pair    | 596.16     | 612.85     | 640.36     |  41.6 | 42.10
Bond    | 315.04     | 322.23     | 340.06     |  31.2 | 22.14
Neigh   | 118.65     | 118.71     | 118.76     |   0.2 |  8.16
Comm    | 217.42     | 263.86     | 290.45     |  98.9 | 18.13
Output  | 3.247      | 4.2444     | 5.2444     |  29.9 |  0.29
Modify  | 111.05     | 114.1      | 118.04     |  16.4 |  7.84
Other   |            | 19.63      |            |       |  1.35

Nlocal:         2812.5 ave        2874 max        2748 min
Histogram: 1 1 1 2 2 3 3 1 1 1
Nghost:        3842.81 ave        3909 max        3781 min
Histogram: 3 1 2 0 0 5 0 3 1 1
Neighs:        63224.8 ave       65842 max       60920 min
Histogram: 2 1 0 2 5 2 2 0 0 2

Total # of neighbors = 1011597
Ave neighs/atom = 22.479933
Ave special neighs/atom = 5.952
Neighbor list builds = 32566
Dangerous builds = 0
unfix           equil
# -----------------------------------------------------
# 6. 数据输出
# -----------------------------------------------------


# # 写出最终体系数据文件
# write_data      pdms_out.data
Total wall time: 0:37:10
