LAMMPS (29 Aug 2024)
# LAMMPS输入文件示例：使用Martini 3粗粒化力场计算PDMS的均方回转半径
# -----------------------------------------------------
# 1. 初始化设置
# -----------------------------------------------------
units               real
dimension           3
boundary            p p p
atom_style          full

# 读取包含PDMS分子结构的data文件
read_data           martini_water_box.data
Reading data file ...
  orthogonal box = (212.80499 2.795999 17.821499) to (287.20499 77.196001 92.221501)
  2 by 2 by 4 MPI processor grid
  reading atoms ...
  20848 atoms
Finding 1-2 1-3 1-4 neighbors ...
  special bond factors lj:    0        0        0       
  special bond factors coul:  0        0        0       
     0 = max # of 1-2 neighbors
     0 = max # of 1-3 neighbors
     0 = max # of 1-4 neighbors
     1 = max # of special neighbors
  special bonds CPU = 0.003 seconds
  read_data CPU = 0.042 seconds

# -----------------------------------------------------
# 2. 力场参数设置（Martini 3参数）
# -----------------------------------------------------
# 定义非键相互作用（示例：Lennard-Jones势，截断距离可参考Martini 3常用取值）
pair_style          lj/cut   12.0
pair_coeff          1 1 1.1071 4.7
# pair_coeff          1 2 0.8929 4.4
# pair_coeff          1 3 0.8095 4.1
# pair_coeff          2 2 0.7619 4.1
# pair_coeff          2 3 0.7024 3.8
# pair_coeff          3 3 0.6667 3.5
# # 定义键、角、二面角势（示例参数，实际参数请参考相关文献）
# bond_style          harmonic
# bond_coeff          1 13.243 4.48
# angle_style         harmonic
# angle_coeff         1 5.48 86.0
# dihedral_style      harmonic
# dihedral_coeff      1 0.3346  1  1
# -----------------------------------------------------
# 3. 邻域列表设置
# -----------------------------------------------------
neigh_modify    one 2000
neighbor        1 bin
neigh_modify    delay 0 every 1 check yes

# -----------------------------------------------------
# 4. 能量最小化与预平衡
# -----------------------------------------------------
minimize        1.0e-4 1.0e-6 1000 10000

CITE-CITE-CITE-CITE-CITE-CITE-CITE-CITE-CITE-CITE-CITE-CITE-CITE

Your simulation uses code contributions which should be cited:

- Type Label Framework: https://doi.org/10.1021/acs.jpcb.3c08419

@Article{Gissinger24,
 author = {Jacob R. Gissinger, Ilia Nikiforov, Yaser Afshar, Brendon Waters, Moon-ki Choi, Daniel S. Karls, Alexander Stukowski, Wonpil Im, Hendrik Heinz, Axel Kohlmeyer, and Ellad B. Tadmor},
 title = {Type Label Framework for Bonded Force Fields in LAMMPS},
 journal = {J. Phys. Chem. B},
 year =    2024,
 volume =  128,
 number =  13,
 pages =   {3282–-3297}
}

CITE-CITE-CITE-CITE-CITE-CITE-CITE-CITE-CITE-CITE-CITE-CITE-CITE

Generated 0 of 0 mixed pair_coeff terms from geometric mixing rule
Neighbor list info ...
  update: every = 1 steps, delay = 0 steps, check = yes
  max neighbors/atom: 2000, page size: 100000
  master list distance cutoff = 13
  ghost atom cutoff = 13
  binsize = 6.5, bins = 12 12 12
  1 neighbor lists, perpetual/occasional/extra = 1 0 0
  (1) pair lj/cut, perpetual
      attributes: half, newton on
      pair build: half/bin/newton
      stencil: half/bin/3d
      bin: standard
Per MPI rank memory allocation (min/avg/max) = 8.523 | 8.816 | 8.967 Mbytes
   Step          Temp          E_pair         E_mol          TotEng         Press     
         0   0              9.3716486e+08  0              9.3716486e+08  6.3027468e+08
       445   0              1.1553378e+08  0              1.1553378e+08  80088611     
Loop time of 3.54742 on 16 procs for 445 steps with 20848 atoms

98.7% CPU use with 16 MPI tasks x no OpenMP threads

Minimization stats:
  Stopping criterion = energy tolerance
  Energy initial, next-to-last, final = 
       937164858.85702   115544704.046466    115533780.29457
  Force two-norm initial, final = 27108853 34203.285
  Force max component initial, final = 567503.29 2882.401
  Final line search alpha, max atom move = 1.1251619e-05 0.032431679
  Iterations, force evaluations = 445 478

MPI task timing breakdown:
Section |  min time  |  avg time  |  max time  |%varavg| %total
---------------------------------------------------------------
Pair    | 2.3435     | 2.5818     | 2.8713     |  10.9 | 72.78
Bond    | 4.1971e-05 | 5.035e-05  | 5.9697e-05 |   0.0 |  0.00
Neigh   | 0.28776    | 0.32395    | 0.37089    |   4.0 |  9.13
Comm    | 0.23181    | 0.54838    | 0.81946    |  23.4 | 15.46
Output  | 0          | 0          | 0          |   0.0 |  0.00
Modify  | 0          | 0          | 0          |   0.0 |  0.00
Other   |            | 0.09323    |            |       |  2.63

Nlocal:           1303 ave        1315 max        1285 min
Histogram: 2 0 0 0 2 3 3 2 1 3
Nghost:        7712.44 ave        7732 max        7678 min
Histogram: 1 0 2 0 0 3 2 4 1 3
Neighs:         304354 ave      311931 max      295048 min
Histogram: 2 1 1 0 3 1 2 1 3 2

Total # of neighbors = 4869663
Ave neighs/atom = 233.57938
Ave special neighs/atom = 0
Neighbor list builds = 45
Dangerous builds = 0
fix             1 all nvt temp 300.0 300.0 100.0
timestep        1
thermo_style    custom step temp press density vol
thermo          1
run             50000
Generated 0 of 0 mixed pair_coeff terms from geometric mixing rule
Per MPI rank memory allocation (min/avg/max) = 7.784 | 7.814 | 7.843 Mbytes
   Step          Temp          Press         Density         Volume    
       445   0              80088611       6.0523929      411830.82    
       446   41.257385      80086924       6.0523929      411830.82    
       447   100.68305      80084688       6.0523929      411830.82    
       448   128.56888      80083910       6.0523929      411830.82    
       449   170.9013       80082471       6.0523929      411830.82    
       450   243.13247      80079862       6.0523929      411830.82    
       451   318.99669      80077217       6.0523929      411830.82    
       452   391.78439      80074719       6.0523929      411830.82    
       453   469.82293      80072012       6.0523929      411830.82    
       454   554.05836      80069055       6.0523929      411830.82    
       455   638.13763      80066145       6.0523929      411830.82    
       456   725.58163      80063106       6.0523929      411830.82    
       457   818.12102      80059846       6.0523929      411830.82    
       458   909.24689      80056674       6.0523929      411830.82    
       459   1005.2232      80053324       6.0523929      411830.82    
       460   1114.3356      80049417       6.0523929      411830.82    
       461   1223.1637      80045473       6.0523929      411830.82    
       462   1315.8528      80042186       6.0523929      411830.82    
       463   1410.7361      80038827       6.0523929      411830.82    
       464   1529.833       80034435       6.0523929      411830.82    
       465   1648.4592      80030051       6.0523929      411830.82    
       466   1743.5702      80026639       6.0523929      411830.82    
       467   1836.5288      80023230       6.0523929      411830.82    
       468   1938.7135      80019365       6.0523929      411830.82    
       469   2032.0811      80015822       6.0523929      411830.82    
       470   2109.4796      80012846       6.0523929      411830.82    
       471   2179.2326      80010089       6.0523929      411830.82    
       472   2246.0608      80007386       6.0523929      411830.82    
       473   2309.1645      80004798       6.0523929      411830.82    
       474   2369.4333      80002279       6.0523929      411830.82    
       475   2427.8637      79999790       6.0523929      411830.82    
       476   2483.8807      79997364       6.0523929      411830.82    
       477   2538.351       79994961       6.0523929      411830.82    
       478   2591.1489      79992583       6.0523929      411830.82    
       479   2640.4867      79990311       6.0523929      411830.82    
       480   2687.4699      79988096       6.0523929      411830.82    
       481   2733.8571      79985873       6.0523929      411830.82    
       482   2780.4147      79983611       6.0523929      411830.82    
       483   2824.9521      79981381       6.0523929      411830.82    
       484   2863.0324      79979382       6.0523929      411830.82    
       485   2898.8985      79977456       6.0523929      411830.82    
       486   2939.8216      79975282       6.0523929      411830.82    
       487   2981.2635      79973078       6.0523929      411830.82    
       488   3020.6862      79970954       6.0523929      411830.82    
       489   3063.4455      79968654       6.0523929      411830.82    
       490   3107.5395      79966282       6.0523929      411830.82    
       491   3150.4839      79963946       6.0523929      411830.82    
       492   3194.142       79961531       6.0523929      411830.82    
       493   3235.0522      79959198       6.0523929      411830.82    
       494   3272.2719      79956985       6.0523929      411830.82    
       495   3309.03        79954741       6.0523929      411830.82    
       496   3344.7052      79952519       6.052392