LAMMPS (29 Aug 2024)
# LAMMPS输入文件示例：使用Martini 3粗粒化力场计算PDMS的均方回转半径
# -----------------------------------------------------
# 1. 初始化设置
# -----------------------------------------------------
units               real
dimension           3
boundary            p p p
atom_style          full

# 读取包含PDMS分子结构的data文件
read_data           bad_pdms_10_box.data
Reading data file ...
  orthogonal box = (-2.108001 -1.1785 -1.396996) to (151.022 150.1315 150.413)
  4 by 2 by 2 MPI processor grid
  reading atoms ...
  26130 atoms
  scanning bonds ...
  1 = max bonds/atom
  scanning angles ...
  1 = max angles/atom
  scanning dihedrals ...
  1 = max dihedrals/atom
  orthogonal box = (-2.108001 -1.1785 -1.396996) to (151.022 150.1315 150.413)
  4 by 2 by 2 MPI processor grid
  reading bonds ...
  23517 bonds
  reading angles ...
  20904 angles
  reading dihedrals ...
  18291 dihedrals
Finding 1-2 1-3 1-4 neighbors ...
  special bond factors lj:    0        0        0       
  special bond factors coul:  0        0        0       
     2 = max # of 1-2 neighbors
     2 = max # of 1-3 neighbors
     4 = max # of 1-4 neighbors
     6 = max # of special neighbors
  special bonds CPU = 0.003 seconds
  read_data CPU = 0.165 seconds

# -----------------------------------------------------
# 2. 力场参数设置（Martini 3参数）
# -----------------------------------------------------
# 定义非键相互作用（示例：Lennard-Jones势，截断距离可参考Martini 3常用取值）
pair_style lj/cut   12.0
special_bonds       lj 0.0 0.0 0.5
Finding 1-2 1-3 1-4 neighbors ...
  special bond factors lj:    0        0        0.5     
  special bond factors coul:  0        0        0       
     2 = max # of 1-2 neighbors
     2 = max # of 1-3 neighbors
     4 = max # of 1-4 neighbors
     6 = max # of special neighbors
  special bonds CPU = 0.001 seconds
pair_coeff          1 1 0.7337 5.1
# 定义键、角、二面角势（示例参数，实际参数请参考相关文献）
bond_style          harmonic
bond_coeff          1 13.243 4.48
angle_style         harmonic
angle_coeff         1 5.48 86.0
dihedral_style      harmonic
dihedral_coeff      1 0.3346  1  1
# -----------------------------------------------------
# 3. 邻域列表设置
# -----------------------------------------------------
neigh_modify        one 1000
neighbor            1 bin
neigh_modify        delay 0 every 1 check yes

# -----------------------------------------------------
# 4. 能量最小化与预平衡
# -----------------------------------------------------
minimize            1.0e-4 1.0e-6 1000 10000

CITE-CITE-CITE-CITE-CITE-CITE-CITE-CITE-CITE-CITE-CITE-CITE-CITE

Your simulation uses code contributions which should be cited:

- Type Label Framework: https://doi.org/10.1021/acs.jpcb.3c08419

@Article{Gissinger24,
 author = {Jacob R. Gissinger, Ilia Nikiforov, Yaser Afshar, Brendon Waters, Moon-ki Choi, Daniel S. Karls, Alexander Stukowski, Wonpil Im, Hendrik Heinz, Axel Kohlmeyer, and Ellad B. Tadmor},
 title = {Type Label Framework for Bonded Force Fields in LAMMPS},
 journal = {J. Phys. Chem. B},
 year =    2024,
 volume =  128,
 number =  13,
 pages =   {3282–-3297}
}

CITE-CITE-CITE-CITE-CITE-CITE-CITE-CITE-CITE-CITE-CITE-CITE-CITE

Generated 0 of 0 mixed pair_coeff terms from geometric mixing rule
Neighbor list info ...
  update: every = 1 steps, delay = 0 steps, check = yes
  max neighbors/atom: 1000, page size: 100000
  master list distance cutoff = 13
  ghost atom cutoff = 13
  binsize = 6.5, bins = 24 24 24
  1 neighbor lists, perpetual/occasional/extra = 1 0 0
  (1) pair lj/cut, perpetual
      attributes: half, newton on
      pair build: half/bin/newton
      stencil: half/bin/3d
      bin: standard
Per MPI rank memory allocation (min/avg/max) = 8.445 | 8.505 | 8.881 Mbytes
   Step          Temp          E_pair         E_mol          TotEng         Press     
         0   0              3.1012118e+08  127107.56      3.1024828e+08  24330864     
       854   0             -115265.35      34103.802     -81161.548      417.34372    
Loop time of 1.78785 on 16 procs for 854 steps with 26130 atoms

97.1% CPU use with 16 MPI tasks x no OpenMP threads

Minimization stats:
  Stopping criterion = energy tolerance
  Energy initial, next-to-last, final = 
      310248284.586559  -81154.6006204582  -81161.5476823733
  Force two-norm initial, final = 28680001 46.207236
  Force max component initial, final = 1094020.9 12.773188
  Final line search alpha, max atom move = 0.0057625333 0.073605923
  Iterations, force evaluations = 854 855

MPI task timing breakdown:
Section |  min time  |  avg time  |  max time  |%varavg| %total
---------------------------------------------------------------
Pair    | 0.44347    | 0.6592     | 0.94818    |  20.8 | 36.87
Bond    | 0.078903   | 0.099198   | 0.12353    |   4.7 |  5.55
Neigh   | 0.38293    | 0.3875     | 0.39248    |   0.5 | 21.67
Comm    | 0.24581    | 0.51634    | 0.76464    |  20.3 | 28.88
Output  | 0          | 0          | 0          |   0.0 |  0.00
Modify  | 0          | 0          | 0          |   0.0 |  0.00
Other   |            | 0.1256     |            |       |  7.03

Nlocal:        1633.12 ave        1943 max        1303 min
Histogram: 2 2 3 1 0 0 1 1 4 2
Nghost:        2952.31 ave        3558 max        2358 min
Histogram: 5 3 0 0 0 0 0 1 3 4
Neighs:        58566.7 ave       78958 max       42519 min
Histogram: 4 2 2 0 1 1 1 1 3 1

Total # of neighbors = 937067
Ave neighs/atom = 35.86173
Ave special neighs/atom = 4.8
Neighbor list builds = 118
Dangerous builds = 0
# npt系综下驰豫
fix    1 all npt temp 300 300 50 iso 0 0 1000 drag 2
thermo_style  custom step temp press epair ebond eangle edihed pxx pyy pzz lx ly lz
thermo          1000
run    50000
Generated 0 of 0 mixed pair_coeff terms from geometric mixing rule
Per MPI rank memory allocation (min/avg/max) = 7.322 | 7.406 | 7.808 Mbytes
   Step          Temp          Press          E_pair         E_bond        E_angle        E_dihed          Pxx            Pyy            Pzz             Lx             Ly             Lz      
       854   0              417.34372     -115265.35      1018.1521      28584.254      4501.3959      414.29083      391.06707      446.67326      153.13001      151.31         151.81       
      1000   2.1402139      10.928808     -115072.25      945.30287      28387.132      4499.7183      9.3685332     -14.258009      37.675901      153.90073      152.07156      152.57408    
      2000   113.13264      70.432065     -107966.46      896.00389      20999.473      4466.8959      93.081247      47.472858      70.742089      156.50922      154.64905      155.16008    
      3000   254.86666      54.87773      -95278.104      1797.5918      15909.605      4371.658       61.007698      69.932099      33.693392      160.23949      158.33499      158.8582     
      4000   297.29206     -1.5601498     -87723.155      3060.5068      12508.201      4231.1829      17.688546     -6.0425849     -16.326411      162.45712      160.52626      161.05671    
      5000   298.80119     -27.678243     -86089.547      4244.1499      10983.055      4145.0753     -30.317452     -50.874084     -1.8431924      162.09988      160.17327      160.70255    
      6000   300.59982     -18.574721     -86513.284      4931.3916      10335.957      4077.5321     -29.016573     -45.13883       18.431239      160.88757      158.97536      159.50069    
      7000   299.51308     -6.1537326     -87189.793      5555.4584      10032.529      4009.8425     -9.6567256     -23.79491       14.990438      159.69888      157.8008       158.32224    
      8000   301.80728     -9.1835363     -88512.141      5819.6248      9802.1048      3971.0784      2.4789082     -47.465835      17.436317      158.36073      156.47856      156.99564    
      9000   301.74471     -24.218545     -90147.037      6223.7433      9706.6607      3916.0976     -38.916023     -38.214124      4.4745112      157.18988      155.32162      155.83488    
     10000   301.85385     -13.522318     -90990.833      6459.4365      9363.6519      3896.1048     -20.258213     -30.444936      10.136194      156.30173      154.44402      154.95438    
     11000   301.164       -5.144581      -91936.213      6591.0447      9387.8855      3864.1964     -25.856281      5.0298546      5.3926831      155.43034      153.58299      154.0905     
     12000   301.24536      10.580862     -92691.052      6719.3567      9347.1664      3804.7174     -2.5301659     -7.6999392      41.972691      154.69848      152.85983      153.36495    
     13000   301.54378      2.1110008     -93280.255      6945.2198      9152.7994      3788.9424     -36.689031      33.519445      9.5025877      154.25412      152.42075      152.92442    
     14000   300.11594      7.1083598     -93729.137      6998.0497      9140.8915      3794.0837      3.9692985      2.4455696      14.910211      153.83186      152.00351      152.5058     
     15000   300.43193      6.7714735     -94234.88       7070.5059      9103.6676      3783.9138      18.394206     -19.172556      21.092771      153.45695      151.63306      152.13413    
     16000   301.49053      3.7461699     -94621.036      7101.397       9092.0693      3771.6073     -13.523008      10.321177      14.440341      153.20173      151.38087      151.88111    
     17000   299.69435     -1.4566655     -94982.008      7234.7644      9059.195       3761.2763     -17.868008     -10.14807       23.646082      152.97161      151.15348      151.65297    
     18000   299.92466     -13.990143     -95317.844      7240.2719      8946.076       3734.3864     -9.3584346     -22.184157     -10.427837      152.80844      150.99225      151.4912     
     19000   300.50937     -15.921892     -95367.278      7311.9699      8961.0763      3713.1813     -18.755355     -17.517223     -11.493098      152.71244      150.8974       151.39603    
     20000   299.8426      -9.4026218     -95466.164      7192.4966      8940.019       3694.2118     -68.754163      15.095611      25.450686      152.59439      150.78075      151.279      
     21000   301.43061     -14.388687     -95691.992      7206.9203      8778.9279      3692.5792     -18.097897     -16.808237     -8.2599282      152.45132      150.63938      151.13717    
     22000   300.21859      6.3281156     -95872.845      7257.4326      9073.5821      3661.4769      33.857139     -6.6242329     -8.2485597      152.30801      150.49778      150.99509    
     23000   300.17419     -11.613328     -95823.598      7353.4903      8848.7941      3633.4523     -14.325679      2.2270326     -22.741338      152.2987       150.48857      150.98586    
     24000   300.66862      0.55269187    -95955.444      7352.2284      8709.5172      3648.9334     -16.025347      34.278709     -16.595286      152.16079      150.3523       150.84913    
     25000   299.13807      7.5935617     -96210.209      7397.7485      8742.1787      3637.4675      3.841572       9.9265516      9.0125616      152.04429      150.23719      150.73365    
     26000   300.98297     -0.8038971     -96367.192      7303.4819      8855.586       3612.6865     -17.954485     -11.429481      26.972275      152.01948      150.21267      150.70904    
     27000   299.01235     -15.644208     -96139.577      7413.25        8791.7504      3616.5022     -63.166383      10.981474      5.2522855      152.03902      150.23198      150.72842    
     28000   300.04461      13.498976     -96414.855      7326.0949      8800.5479      3616.8599     -17.920822      5.0082311      53.409518      151.92568      150.11998      150.61605    
     29000   299.5404      -9.0396466     -96565.202      7344.6316      8717.5667      3607.5791     -18.226049     -9.2411566      0.34826569     151.86055      150.05563      150.55148    
     30000   299.08536     -11.666838     -96463.638      7389.4248      8703.8106      3607.6102      5.2794804     -12.705458     -27.574535      151.8814       150.07623      150.57215    
     31000   300.14345     -4.8068292     -96348.581      7357.8352      8574.2019      3602.9504      11.803676     -16.120561     -10.103603      151.88293      150.07775      150.57368    
     32000   300.01412      12.251863     -96594.543      7377.4171      8611.331       3576.0992      13.910555      6.3339434      16.511089      151.6824       149.87959      150.37487    
     33000   299.84054     -9.0665245     -96805.776      7370.5522      8721.7314      3612.0507      8.3751021     -23.761847     -11.812829      151.63092      149.82873      150.32384    
     34000   301.0116       18.83442      -96559.795      7317.6001      8618.3307      3572.0108      54.402055     -29.214076      31.315281      151.6594       149.85687      150.35207    
     35000   299.98659      4.8888829     -96635.864      7318.2871      8664.873       3550.0751      10.579857     -10.837954      14.924745      151.60609      149.8042       150.29922    
     36000   300.3592      -5.4524785     -96641.565      7310.0285      8619.374       3549.0239     -18.066765     -0.64915937     2.3584891      151.62999      149.82781      150.32291    
     37000   299.42023     -2.5479759     -96522.189      7367.6889      8603.5678      3537.6053      24.372064     -34.345257      2.3292647      151.66863      149.86599      150.36122    
     38000   299.41186     -3.9485003     -96457.759      7385.9958      8421.6045      3534.9007      30.643352     -40.040734     -2.4481185      151.66897      149.86633      150.36156    
     39000   300.26291     -6.9822595     -96701.596      7350.2386      8616.2332      3553.0666      22.741075     -13.378782     -30.309071      151.54806      149.74685      150.24169    
     40000   299.52815     -14.734429     -96935.483      7375.2134      8723.3124      3527.2565     -29.792975     -33.208937      18.798625      151.51142      149.71065      150.20537    
     41000   298.74939      5.9515712     -96815.726      7394.3251      8728.9317      3537.1379      2.6289227     -10.572006      25.797797      151.45807      149.65794      150.15248    
     42000   298.73034      7.0551993     -96799.627      7434.2174      8700.5361      3530.5644      13.514989     -6.9865036      14.637113      151.47508      149.67474      150.16934    
     43000   300.76421      6.0998598     -97107.094      7405.326       8677.9353      3532.5331     -4.6427958      38.787968     -15.845593      151.40223      149.60276      150.09712    
     44000   299.55278      18.922474     -97018.438      7275.7939      8756.8796      3517.918       33.545426     -7.722909       30.944905      151.35144      149.55258      150.04677    
     45000   299.22229     -2.5647557     -96815.366      7421.6573      8661.8915      3510.0789      1.1764868      1.0360689     -9.9068228      151.47195      149.67165      150.16623    
     46000   300.14536      15.52194      -96754.706      7321.5277      8509.5614      3508.4107     -7.0023912      26.623549      26.944661      151.45939      149.65924      150.15378    
     47000   300.1088       0.54956109    -97116.527      7275.5268      8610.2196      3489.8741      26.663953     -6.3219158     -18.693354      151.35988      149.56091      150.05513    
     48000   300.5657       5.7207406     -97098.669      7400.0866      8587.7106      3488.7527      43.271432     -27.35245       1.2432399      151.36106      149.56208      150.0563     
     49000   301.62934     -11.117705     -97040.641      7328.9596      8664.7187      3488.3637      2.4203704     -36.824429      1.0509446      151.41465      149.61503      150.10943    
     50000   300.3574       17.180548     -97132.796      7436.0333      8617.4493      3487.6466      30.347871      6.7785875      14.415186      151.33201      149.53338      150.02751    
     50854   300.73714     -8.3394762     -96993.701      7429.4461      8506.2229      3491.6615      18.831643     -34.195561     -9.6545114      151.40885      149.6093       150.10368    
Loop time of 45.7832 on 16 procs for 50000 steps with 26130 atoms

Performance: 94.358 ns/day, 0.254 hours/ns, 1092.104 timesteps/s, 28.537 Matom-step/s
98.0% CPU use with 16 MPI tasks x no OpenMP threads

MPI task timing breakdown:
Section |  min time  |  avg time  |  max time  |%varavg| %total
---------------------------------------------------------------
Pair    | 19.382     | 20.74      | 21.869     |  21.2 | 45.30
Bond    | 6.0524     | 6.3613     | 6.6681     |   8.5 | 13.89
Neigh   | 2.3858     | 2.3922     | 2.3995     |   0.3 |  5.23
Comm    | 10.338     | 11.382     | 12.584     |  25.6 | 24.86
Output  | 0.0038368  | 0.0039784  | 0.0056949  |   0.7 |  0.01
Modify  | 3.5962     | 3.9269     | 4.3363     |  15.3 |  8.58
Other   |            | 0.9769     |            |       |  2.13

Nlocal:        1633.12 ave        1650 max        1614 min
Histogram: 2 1 1 1 2 2 2 1 2 2
Nghost:        3361.44 ave        3421 max        3322 min
Histogram: 1 3 3 2 2 1 2 1 0 1
Neighs:        53687.3 ave       54484 max       52605 min
Histogram: 3 1 1 0 0 2 1 2 3 3

Total # of neighbors = 858997
Ave neighs/atom = 32.873976
Ave special neighs/atom = 4.8
Neighbor list builds = 954
Dangerous builds = 0
#取消设置
unfix 1

# -----------------------------------------------------
# 5. npt下拉伸
# -----------------------------------------------------
# 计算应力
reset_timestep      0
compute             1 all stress/atom NULL
compute             2 all reduce sum c_1[1] c_1[2]
variable            CorVol equal ly*lx*lz
variable            sigmaxx equal c_2[1]/(v_CorVol*10000)
variable            px equal -pxx/10000
# 计算应变值
variable            tmp equal "lx"
variable            L0 equal ${tmp}
variable            L0 equal 151.408848122392
variable            strain equal "(lx - v_L0)/v_L0"
#dump输出
dump                1 all custom 10000 dump.pdms.lammpstrj id type x y z vx vy vz
#设置npt系综
fix                 1 all npt temp 300 300 50 y 0 0 1000 z 0 0 1000 drag 2
#deform拉伸，x方向
fix                 2 all deform 1 x erate 1e-7 units box remap x
#热力学输出
fix                 ave_sxx all ave/time 100 100 10000 v_px file stress_profile.dat ave one
thermo_style        custom step temp v_strain v_sigmaxx pxx pyy pzz lx ly lz epair ebond eangle edihed
thermo              1000

#启动模拟，20万步
run                 1000000
Generated 0 of 0 mixed pair_coeff terms from geometric mixing rule
Per MPI rank memory allocation (min/avg/max) = 10.34 | 10.41 | 10.81 Mbytes
   Step          Temp         v_strain      v_sigmaxx         Pxx            Pyy            Pzz             Lx             Ly             Lz           E_pair         E_bond        E_angle        E_dihed    
         0   300.73714      3.1911547e-15 -0.0018831643   18.831643     -34.195561     -9.6545114      151.40885      149.6093       150.10368     -96993.701      7429.4461      8506.2229      3491.6615    
      1000   301.18926      0.0001        -0.0032378254   32.378254     -37.139971      2.0317517      151.42399      149.44414      150.04052     -97263.769      7440.9805      8707.5427      3475.7418    
      2000   299.93136      0.0002         0.0012638526  -12.638526     -25.872181     -7.3964098      151.43913      149.19236      150.41599     -97043.311      7398.5978      8744.0422      3464.3158    
      3000   299.50857      0.0003        -0.0051263827   51.263827      24.211568     -9.0690793      151.45427      149.04655      150.3349      -97135.511      7404.634       8670.4772      3477.2126    
      4000   301.12461      0.0004         0.0011454591  -11.454591      35.267265     -8.9766583      151.46941      148.96393      150.21111     -97335.157      7296.5006      8783.8126      3468.4476    
      5000   299.20642      0.0005         0.00352026    -35.2026       -9.8428272      13.256027      151.48455      149.00866      150.36986     -97088.726      7351.0734      8846.2851      3451.7872    
      6000   299.35299      0.0006         0.00088040643 -8.8040643     -23.686248      6.2947421      151.49969      149.35752      150.14426     -97110.767      7440.4326      8743.1941      3469.3941    
      7000   299.353        0.0007        -0.002726262    27.26262       14.220369     -9.2685296      151.51483      149.09662      150.39578     -96966.353      7418.2525      8628.1214      3459.5428    
      8000   301.02932      0.0008        -0.0007314482   7.314482      -3.1674128     -10.31971       151.52998      149.01822      149.97023     -97530.499      7328.0803      8844.515       3462.1778    
      9000   299.85495      0.0009         0.002061705   -20.61705       12.527146      35.458434      151.54512      149.37044      149.78526     -97212.301      7307.9882      8713.0604      3463.3426    
     10000   298.98956      0.001          0.0026504197  -26.504197     -11.660766      18.316907      151.56026      149.44215      149.84546     -97125.79       7369.8478      8590.3866      3461.2068    
     11000   299.57587      0.0011         0.0018572833  -18.572833      6.7272056     -13.577023      151.5754       149.27951      149.89704     -97176.074      7252.1232      8675.8309      3455.6084    
     12000   300.21521      0.0012         0.00030919411 -3.0919411     -15.957714     -22.556416      151.59054      149.38927      150.09696     -97000.474      7352.1954      8656.9472      3438.5298    
     13000   300.17418      0.0013         0.00067270351 -6.7270351     -36.605477      7.8386175      151.60568      149.76225      149.70918     -96955.269      7314.0132      8576.8406      3418.8739    
     14000   300.02933      0.0014        -0.0011795752   11.795752     -7.2382035      10.659804      151.62082      149.48156      149.88128     -97086.573      7440.4487      8517.1593      3420.2787    
     15000   299.84704      0.0015        -0.00031324697  3.1324697      4.5773418     -1.31805        151.63596      149.74448      149.81566     -96896.078      7421.5542      8467.9016      3433.8905    
     16000   300.86361      0.0016         0.0018050248  -18.050248     -30.901478     -10.598011      151.6511       149.42101      150.01526     -97025.363      7392.9361      8619.9869      3446.2989    
     17000   299.93458      0.0017         0.0054970062  -54.970062     -17.111402     -38.558054      151.66624      149.5305       150.08462     -96843.488      7324.0748      8725.4135      3415.5131    
     18000   300.35044      0.0018        -0.00063455524  6.3455524      7.8988442      19.50974       151.68138      149.67979      149.66998     -96897.803      7334.6227      8574.2457      3414.6489    
     19000   301.10061      0.0019         0.00020357859 -2.0357859     -27.68894      -45.894117      151.69652      149.4071       149.97987     -97037.489      7330.0975      8655.6166      3417.9232    
     20000   299.35337      0.002          0.0091321311  -91.321311     -38.601722      14.78186       151.71167      149.27264      149.80905     -97289.015      7381.5208      8676.6375      3427.1858    
     21000   300.19865      0.0021         0.0054395728  -54.395728     -10.634403      22.712037      151.72681      149.2367       149.93035     -97163.644      7432.9001      8583.9997      3423.3824    
     22000   300.90987      0.0022        -0.00037925819  3.7925819      24.517893     -0.41859812     151.74195      149.00533      150.20366     -97004.986      7403.9998      8447.7035      3414.034     
     23000   299.23796      0.0023         0.00026894858 -2.6894858      0.20991163    -11.309886      151.75709      149.05103      150.40219     -96904.592      7472.3467      8498.9491      3417.8985    
     24000   300.44777      0.0024         0.0074796865  -74.796865     -7.1033999     -10.241478      151.77223      149.08262      150.3275      -96950.441      7395.3219      8396.472       3424.9226    
     25000   299.44069      0.0025         0.0046994176  -46.994176     -1.7260335      27.944365      151.78737      149.0993       150.16833     -97005.285      7406.04        8417.4816      3443.5245    
     26000   300.80188      0.0026         0.0042259995  -42.259995      8.3366365     -0.11982095     151.80251      148.80651      150.24433     -97221.602      7353.5168      8551.7185      3436.4352    
     27000   300.95603      0.0027         0.00025758714 -2.5758714      5.2261868     -7.9908847      151.81765      148.88622      150.13277     -97231.584      7384.337       8428.9134      3422.5755    
     28000   299.43842      0.0028        -0.0034997325   34.997325     -9.6724492     -36.874541      151.83279      148.73492      150.29818     -96981.625      7411.07        8529.2079      3436.5826    
     29000   298.89536      0.0029         0.0058806997  -58.806997     -31.0595        16.770942      151.84793      149.1195       149.92677     -97169.557      7351.0247      8616.452       3438.0251    
     30000   299.94074      0.003         -0.00027294057  2.7294057      13.443685     -32.458559      151.86307      148.56564      150.48836     -97020.408      7421.589       8642.9005      3421.8456    
     31000   300.50559      0.0031        -0.0047942239   47.942239      2.5893346      11.204013      151.87822      148.39963      150.33204     -97311.103      7385.2342      8493.1433      3408.8443    
     32000   301.61702      0.0032        -0.00026059055  2.6059055      8.5804645     -11.094637      151.89336      148.36404      150.44906     -97223.704      7277.5777      8628.6386      3422.2553    
     33000   297.84673      0.0033        -0.0056449583   56.449583      1.0333873      34.285399      151.9085       148.65233      150.28574     -97079.027      7369.8527      8635.1903      3410.3141    
     34000   300.23766      0.0034         0.0023398048  -23.398048     -7.828138       7.03854        151.92364      148.30064      150.45463     -97298.518      7338.7263      8719.9955      3385.4895    
     35000   298.39549      0.0035        -0.00047306172  4.7306172      4.0248123     -17.410218      151.93878      148.30404      150.39957     -97281.188      7388.0493      8795.3028      3409.4487    
     36000   299.94108      0.0036        -0.00034624227  3.4624227      4.3937044     -4.2009723      151.95392      148.30058      150.59179     -97068.039      7379.7878      8571.2534      3420.5686    
     37000   298.42531      0.0037         0.0046610486  -46.610486     -19.091         16.834929      151.96906      148.27484      150.74341     -97082.624      7446.5824      8573.5776      3439.4299    
     38000   299.95513      0.0038        -0.0022357165   22.357165     -5.8779167     -0.8239595      151.9842       148.08685      150.87316     -97002.912      7375.885       8514.2727      3424.2247    
     39000   300.35324      0.0039         0.0013972862  -13.972862      36.111847      11.605271      151.99934      147.78438      150.78717     -97270.413      7325.7944      8542.8839      3419.9887    
     40000   299.90634      0.004          0.00085678    -8.5678        -3.4880737     -2.7171936      152.01448      148.2033       150.59952     -97142.133      7418.4049      8534.0019      3426.0395    
     41000   300.33748      0.0041        -0.00013417904  1.3417904      18.005174      6.1640254      152.02962      147.97514      150.76475     -97235.602      7490.4564      8729.4413      3414.253     
     42000   298.97278      0.0042        -0.0025288395   25.288395      16.893237     -8.6879739      152.04477      147.85134      150.63545     -97400.077      7504.3175      8704.5689      3425.7178    
     43000   300.00055      0.0043        -0.0072241801   72.241801      31.839465     -54.7113        152.05991      148.11812      150.64913     -97184.792      7406.5035      8625.3905      3408.7483    
     44000   299.39172      0.0044        -0.0021099207   21.099207     -7.0838902      29.222457      152.07505      148.03669      150.3207      -97438.756      7442.574       8759.5557      3428.5072    
     45000   300.28581      0.0045         0.0025452826  -25.452826     -6.3338112      2.8883152      152.09019      148.30583      150.18764     -97316.388      7328.948       8558.5458      3412.5357    
     46000   300.42185      0.0046        -0.0006596723   6.596723       14.637404     -53.344701      152.10533      148.19102      150.3416      -97312.847      7335.2387      8672.7422      3418.6245    
     47000   298.36379      0.0047        -0.0014481812   14.481812      10.682769      18.748373      152.12047      148.14574      150.45964     -97143.928      7482.8266      8669.6511      3429.6868    
     48000   301.34518      0.0048         0.0034394081  -34.394081      26.979416     -27.607947      152.13561      148.12881      150.45133     -97344.956      7337.0499      8594.3203      3413.5017    
     49000   301.45397      0.0049         0.0031916919  -31.916919      6.017423       3.6274881      152.15075      148.16498      150.41348     -97257.129      7327.3068      8681.2288      3406.5274    
     50000   299.06599      0.005          0.0048672764  -48.672764      12.621114     -42.570887      152.16589      147.94011      150.4743      -97400.037      7438.2664      8609.473       3403.5532    
     51000   299.81557      0.0051         0.0021917506  -21.917506      39.492305      1.8151288      152.18103      147.96708      150.33653     -97438.842      7430.9674      8584.08        3418.4864    
     52000   299.81095      0.0052         0.00056464491 -5.6464491      44.595275     -27.555342      152.19617      147.95641      150.2312      -97497.522      7478.1833      8810.2513      3414.2394    
     53000   300.65886      0.0053        -0.0015140799   15.140799      30.775973     -19.996545      152.21132      148.23501      150.15868     -97348.174      7397.1535      8577.8566      3410.2129    
     54000   299.72266      0.0054        -0.0018694365   18.694365      20.466834      25.697908      152.22646      148.17051      150.14365     -97351.349      7444.7641      8595.7975      3423.6353    
     55000   299.8005       0.0055         0.0031041847  -31.041847      7.525588       2.2066801      152.2416       148.35511      150.14784     -97234.308      7429.6121      8534.9283      3411.4784    
     56000   299.78362      0.0056        -0.0010539613   10.539613      4.3862602     -20.951382      152.25674      148.30077      150.17182     -97243.941      7408.7523      8589.4154      3410.1989    
     57000   299.80305      0.0057        -0.00032773712  3.2773712      18.301773      0.28312643     152.27188      148.35276      150.09602     -97317.652      7449.5665      8561.377       3398.9667    
     58000   298.98662      0.0058         0.0015604978  -15.604978      18.327617      1.8136055      152.28702      148.27495      150.29228     -97112.668      7379.6372      8599.5211      3401.2331    
     59000   299.28767      0.0059         0.00071054701 -7.1054701      18.527592      2.1277009      152.30216      148.33319      150.05312     -97226.815      7406.5968      8652.5979      3409.4007    
     60000   300.7435       0.006          0.0026876122  -26.876122     -27.156247      12.003198      152.3173       148.53696      150.03702     -97127.745      7379.8782      8504.1151      3404.4879    
     61000   299.27274      0.0061         0.0015247477  -15.247477     -1.8426401     -14.294986      152.33244      148.45641      150.01154     -97214.08       7465.2844      8588.3784      3416.251     
     62000   299.44779      0.0062        -0.00098155734  9.8155734     -11.784266      32.496208      152.34758      148.53278      150.15103     -96857.663      7319.9761      8541.7919      3387.5532    
     63000   299.58722      0.0063        -0.0055909627   55.909627      21.138886     -0.68088522     152.36272      148.22827      150.15884     -97040.525      7399.6126      8585.0499      3377.0439    
     64000   299.68441      0.0064        -0.00198523     19.8523       -5.8987024     -25.875642      152.37786      148.24617      150.27296     -97006.169      7371.6589      8577.9747      3398.8149    
     65000   299.97901      0.0065        -0.00071784886  7.1784886     -8.2911027      12.859392      152.39301      148.26637      150.03088     -97059.68       7194.3495      8641.4411      3396.5489    
     66000   299.57408      0.0066         0.0025603335  -25.603335      49.877359      8.7409525      152.40815      148.4203       149.88636     -97089.251      7395.311       8589.3665      3397.1606    
     67000   300.39235      0.0067        -0.0030991389   30.991389     -9.2659931      11.822142      152.42329      148.3856       149.92629     -97303.047      7455.5283      8541.3668      3388.597     
     68000   299.91277      0.0068        -0.0038922469   38.922469      0.67459823    -19.164931      152.43843      148.64053      149.55283     -97334.08       7441.6799      8605.1385      3401.5095    
     69000   299.64812      0.0069        -0.0014633385   14.633385     -13.862262      31.54918       152.45357      148.86585      149.39846     -97287.4        7429.1645      8642.0148      3421.8031    
     70000   299.23353      0.007         -0.0031638276   31.638276      27.281323      14.736084      152.46871      148.57879      149.42999     -97399.462      7445.1783      8742.5512      3396.5778    
     71000   300.72704      0.0071        -0.00043006613  4.3006613     -1.257581      -11.462727      152.48385      148.79214      149.40428     -97344.824      7330.089       8678.9969      3387.4597    
     72000   298.28089      0.0072         0.0034203449  -34.203449     -15.255256     -31.885319      152.49899      148.69212      149.57527     -97200.721      7333.5088      8665.7861      3397.9239    
     73000   298.76234      0.0073         0.0023298901  -23.298901      30.154739      27.541534      152.51413      148.98932      149.20048     -97111.139      7343.5919      8636.1661      3413.9324    
     74000   300.91115      0.0074         0.0057033467  -57.033467     -3.5450907     -29.633789      152.52927      148.96093      149.25382     -97261.431      7315.5745      8723.4805      3412.735     
     75000   299.00268      0.0075         0.0028603     -28.603         8.6470614      16.730637      152.54441      148.68547      149.37081     -97290.101      7438.7398      8678.8275      3411.8       
     76000   299.25993      0.0076         0.0029604279  -29.604279      16.041908      23.170684      152.55956      148.83889      149.53787     -96961.438      7402.8825      8549.8053      3413.3955    
     77000   299.76684      0.0077         0.0003943602  -3.943602      -12.838227      26.129906      152.5747       148.97447      149.4911      -96895.566      7312.8049      8567.2093      3428.5014    
     78000   300.57648      0.0078        -0.00098827216  9.8827216      0.44968725    -3.7290816      152.58984      148.70428      149.32028     -97190.792      7293.5107      8606.5251      3418.3035    
     79000   299.53006      0.0079         0.0040349204  -40.349204      23.496847      29.597774      152.60498      148.66253      149.25479     -97336.854      7325.7604      8770.8473      3426.7722    
     80000   300.01965      0.008          0.0013736569  -13.736569      5.7193115     -15.392924      152.62012      148.79042      149.53973     -97046.44       7340.6151      8479.4126      3414.6557    
     81000   300.2997       0.0081         0.00058808853 -5.8808853     -18.639223     -17.909518      152.63526      148.92366      149.43468     -97104.527      7263.3134      8702.8022      3422.4346    
     82000   298.9032       0.0082         0.00017694507 -1.7694507      36.683823     -1.8527274      152.6504       148.84297      149.25784     -97099.975      7361.385       8746.6541      3414.9044    
     83000   299.64758      0.0083         0.0015760506  -15.760506      18.75736       18.58315       152.66554      149.15469      149.0298      -97203.77       7456.9592      8710.1266      3410.0984    
     84000   300.24628      0.0084        -0.0026685176   26.685176      7.1096125     -2.5005933      152.68068      149.13408      149.05857     -97029.482      7367.8687      8553.0894      3423.3008    
     85000   299.47412      0.0085        -0.0016532013   16.532013      1.7837001      2.0539647      152.69582      149.09846      149.20372     -97019.09       7379.4882      8504.0044      3425.1651    
     86000   301.06457      0.0086         0.00072034528 -7.2034528     -22.813988     -17.173813      152.71096      149.26486      149.15083     -96906.695      7318.7237      8471.9176      3431.487     
     87000   298.92802      0.0087         0.0015864881  -15.864881      29.254626      21.417231      152.72611      149.03603      149.25108     -96813.833      7388.9188      8584.6007      3423.4056    
     88000   299.41346      0.0088         0.00056412599 -5.6412599      7.9666272      6.2733956      152.74125      148.62211      149.47215     -97053.678      7389.8245      8722.7648      3412.1014    
     89000   299.24926      0.0089         0.001099095   -10.99095       6.0839393      5.9760831      152.75639      148.591        149.58542     -97027.741      7404.8198      8693.61        3404.9153    
     90000   300.0815       0.009         -0.0020174671   20.174671      17.855685      42.409354      152.77153      148.75946      149.1386      -97166.711      7353.4666      8599.0192      3404.718     
     91000   300.30531      0.0091        -0.0018335766   18.335766     -38.359144      24.020041      152.78667      148.83456      149.38249     -96994.5        7246.7265      8458.2723      3407.9042    
     92000   300.07348      0.0092         0.001117833   -11.17833       22.570413     -18.261231      152.80181      148.72695      149.3224      -97047.112      7383.4327      8769.0566      3396.2905    
     93000   300.04357      0.0093        -0.0030214801   30.214801      29.555402     -0.24616131     152.81695      148.74029      149.14131     -97126.382      7330.9027      8622.6207      3393.7347    
     94000   301.53046      0.0094         0.0024775666  -24.775666     -3.5768595      31.408999      152.83209      148.48732      149.3621      -97208.85       7309.971       8664.6484      3401.8968    
     95000   300.42358      0.0095         0.0014454553  -14.454553      1.3883688     -14.252613      152.84723      148.11344      149.68021     -97296.946      7419.8666      8750.0592      3395.3235    
     96000   298.3338       0.0096        -0.0001841968   1.841968       6.6523773      1.0562072      152.86237      148.14672      149.76891     -97205.923      7363.6707      8653.4736      3407.6819    
     97000   301.47048      0.0097         0.0036478273  -36.478273      9.16501       -9.8657606      152.87751      148.37971      149.48403     -97313.043      7282.7528      8644.7395      3390.537     
     98000   298.72959      0.0098        -0.00042905998  4.2905998     -42.656729     -2.7684323      152.89265      148.61328      149.35978     -97111.925      7384.0575      8811.0979      3390.6576    
     99000   299.15587      0.0099        -0.0071019998   71.019998      6.1767892     -23.926606      152.9078       148.46903      149.39492     -97164.038      7358.685       8751.0799      3390.186     
    100000   300.24601      0.01           0.0011294117  -11.294117     -14.495103      14.797541      152.92294      148.41162      149.31481     -97332.435      7294.6072      8618.5581      3414.0009    
    101000   300.58047      0.0101        -0.00034052801  3.4052801     -15.673132      9.2938209      152.93808      148.11652      149.79228     -97115.475      7319.5953      8564.1328      3425.4364    
    102000   301.04464      0.0102        -0.0035556083   35.556083      43.082117     -15.294772      152.95322      148.15379      149.59645     -97230.489      7311.2352      8571.0929      3433.8803    
    103000   299.53419      0.0103         0.00071577991 -7.1577991     -7.9313649      41.193603      152.96836      147.94554      149.76198     -97298.752      7417.5195      8577.3174      3415.2974    
    104000   299.73252      0.0104        -0.0021506618   21.506618      3.0241263      38.540472      152.9835       148.20853      149.4905      -97369.596      7535.4082      8622.5512      3425.6892    
    105000   299.06477      0.0105         0.002764378   -27.64378       28.082851     -0.68036697     152.99864      148.37962      149.25549     -97320.676      7540.8362      8635.1382      3423.3797    
    106000   300.81383      0.0106         0.0007844798  -7.844798       13.979398      21.746817      153.01378      148.36053      149.15687     -97439.603      7471.0457      8701.9437      3405.2832    
    107000   300.84662      0.0107        -0.0024419129   24.419129     -10.942287      3.8680557      153.02892      148.31042      149.21287     -97399.814      7434.2049      8562.1618      3410.3494    
    108000   299.94088      0.0108        -0.0007354975   7.354975       3.284496      -12.598886      153.04406      148.6769       149.16715     -97094.065      7337.797       8504.133       3426.7077    
    109000   302.1902       0.0109        -0.0018198177   18.198177      7.7906133     -16.267235      153.0592       148.64026      149.18442     -97165.492      7276.2473      8414.3197      3407.7037    
    110000   300.1346       0.011          0.0032660662  -32.660662     -15.341681      26.619808      153.07435      148.69057      149.06806     -97226.516      7337.3537      8539.2862      3414.5737    
    111000   299.35372      0.0111        -0.0009356317   9.356317      -8.9828695      2.8121282      153.08949      148.76258      149.17213     -97007.402      7435.3309      8444.7441      3407.6219    
    112000   300.27329      0.0112         0.00053148581 -5.3148581     -22.08376       63.010429      153.10463      148.33588      149.26892     -97176.2        7373.9038      8638.8006      3398.0812    
    113000   299.98719      0.0113        -0.0023271996   23.271996      33.141063     -22.810382      153.11977      148.23717      149.22779     -97335.62       7427.0096      8563.8249      3379.9003    
    114000   300.29938      0.0114        -0.0036127061   36.127061     -19.639805     -3.1078075      153.13491      148.39143      148.99263     -97488.291      7445.0284      8528.0015      3395.6855    
    115000   300.91327      0.0115        -0.0038899405   38.899405      3.3289047      13.372078      153.15005      148.35452      149.11927     -97331.678      7330.4686      8582.4545      3403.7697    
    116000   300.0211       0.0116         0.0020712645  -20.712645      19.293203     -10.544343      153.16519      148.40251      149.24465     -97136.475      7376.879       8644.3584      3410.2986    
    117000   299.87009      0.0117        -0.0015268325   15.268325      25.739538      27.487432      153.18033      148.43304      149.00765     -97199.045      7362.0745      8623.961       3391.4543    
    118000   300.23621      0.0118         0.000180651   -1.80651        5.2395361      11.037506      153.19547      148.58852      149.02072     -97168.055      7360.3764      8524.0445      3413.0382    
    119000   301.34181      0.0119        -0.00072026168  7.2026168     -5.0948509     -1.7228927      153.21061      148.45884      148.84764     -97456.281      7351.4406      8658.6585      3397.7216    
    120000   300.50042      0.012         -0.0017834697   17.834697     -9.5009859     -36.382264      153.22575      148.70808      148.82576     -97191.406      7376.6329      8567.2075      3413.4941    
    121000   298.94751      0.0121        -0.00097703151  9.7703151     -21.669813      20.576722      153.2409       148.99454      148.36939     -97331.06       7433.4434      8683.4798      3397.6442    
    122000   300.44437      0.0122        -0.0014507865   14.507865      7.7996499      1.0952461      153.25604      149.08247      148.40397     -97202.339      7295.2108      8560.0905      3400.3643    
    123000   300.85658      0.0123        -0.0022641441   22.641441     -26.659099     -1.565836       153.27118      149.05743      148.3979      -97231.113      7407.3262      8523.5647      3419.046     
    124000   299.65746      0.0124        -0.0024845474   24.845474     -23.640456     -17.991207      153.28632      149.04472      148.48719     -97212.673      7448.0653      8587.3903      3417.9936    
    125000   300.0203       0.0125         0.0010683251  -10.683251     -8.8887531     -9.0754708      153.30146      149.24209      148.42117     -97068.554      7419.1735      8461.3508      3407.3646    
    126000   299.92894      0.0126         0.0074894935  -74.894935      4.7813644     -25.837728      153.3166       148.96953      148.58461     -97280.017      7433.0147      8533.7765      3433.3832    
    127000   300.31295      0.0127         0.00014025892 -1.4025892      4.3127152      6.4582906      153.33174      148.80716      148.61625     -97243.478      7392.8892      8515.9509      3433.3569    
    128000   300.03987      0.0128         0.00069105964 -6.9105964      43.534643      3.3535002      153.34688      148.51418      148.4744      -97616.233      7356.7217      8596.4493      3420.6916    
    129000   299.55034      0.0129        -0.0003144671   3.144671      -20.587875      20.585424      153.36202      148.74112      148.54569     -97350.836      7453.4182      8579.6615      3409.4158    
    130000   299.455        0.013          0.00051320769 -5.1320769      4.9558137     -12.786288      153.37716      148.65635      148.66137     -97331.423      7374.1217      8409.122       3424.2687    
    131000   299.74868      0.0131        -9.0530588e-06  0.090530588   -18.711751      39.68181       153.3923       148.74814      148.33382     -97404.763      7384.1418      8667.8657      3410.8003    
    132000   298.06777      0.0132        -0.0012780183   12.780183     -0.063797858    8.5363757      153.40744      148.63297      148.71433     -97235.679      7413.6868      8610.0103      3424.425     
    133000   300.72305      0.0133        -0.0022582354   22.582354      7.70398       -60.485361      153.42259      148.59903      148.76895     -97273.236      7327.5672      8508.2245      3413.8227    
    134000   300.80623      0.0134        -0.0023690151   23.690151     -33.23458       23.884651      153.43773      148.82285      148.7421      -97089.86       7449.6586      8429.0759      3419.6407    
    135000   299.66034      0.0135         0.00060957663 -6.0957663     -0.065851152   -15.024869      153.45287      148.60361      148.80358     -97214.743      7409.28        8633.8554      3429.5371    
    136000   299.92906      0.0136        -0.0031428637   31.428637      21.364286      27.537927      153.46801      148.52625      148.66173     -97207.966      7388.6503      8693.1658      3436.611     
    137000   300.37122      0.0137         0.0072415999  -72.415999     -10.08458       22.623918      153.48315      148.55778      148.9447      -97072.668      7314.4599      8605.4085      3427.1282    
    138000   299.44369      0.0138         0.0022938374  -22.938374     -0.62475876    -4.0692723      153.49829      148.50551      148.98271     -96962.604      7381.1065      8505.0622      3460.3007    
    139000   300.75239      0.0139         0.0014148756  -14.148756     -5.1464019     -10.710896      153.51343      148.50383      148.90138     -97134.623      7400.2848      8408.8622      3472.5104    
    140000   299.06008      0.014          0.00022511792 -2.2511792     -15.883718     -2.1805441      153.52857      148.34276      148.81653     -97303.224      7368.2244      8648.6933      3459.2206    
    141000   300.20518      0.0141         0.0050213878  -50.213878     -5.1154188     -18.650751      153.54371      148.48323      148.95913     -97101.729      7294.4095      8567.9066      3442.3673    
    142000   299.28371      0.0142         0.0033212097  -33.212097      6.6238132      12.231382      153.55885      148.3823       149.06447     -97030.82       7363.9095      8578.3611      3436.1108    
    143000   299.49336      0.0143         0.0021965142  -21.965142      33.981356      14.837472      153.57399      148.45415      148.84476     -97062.53       7408.9757      8564.013       3441.6223    
    144000   300.12563      0.0144         0.0063028467  -63.028467      8.3054792     -12.117516      153.58914      148.39052      148.70786     -97317.643      7299.4789      8637.9449      3440.1932    
    145000   299.87819      0.0145        -0.0025060144   25.060144      14.373744      16.83188       153.60428      148.69884      148.62317     -97020.401      7310.8774      8496.5594      3454.468     
    146000   298.56748      0.0146         0.00302361    -30.2361       -51.626838     -13.927004      153.61942      148.55243      148.72447     -97150.08       7345.9002      8626.5634      3462.3485    
    147000   300.37067      0.0147         0.0023922193  -23.922193     -29.790466     -37.162351      153.63456      148.48544      148.93384     -97139.805      7380.3463      8525.4191      3452.2362    
    148000   299.36691      0.0148         0.0018796107  -18.796107      7.2117585      6.0973937      153.6497       148.40515      149.00768     -96997          7453.7474      8533.5204      3430.9928    
    149000   301.21616      0.0149         0.0069273241  -69.273241      9.119041      -26.893225      153.66484      148.49178      149.06276     -96997.289      7371.4872      8479.6164      3429.9756    
    150000   298.90519      0.015          0.0054806106  -54.806106     -7.0856382     -0.98134088     153.67998      148.70735      148.8448      -96790.619      7310.0742      8636.5391      3433.314     
    151000   299.1016       0.0151         0.00032754544 -3.2754544     -26.198043      9.684728       153.69512      148.48841      148.59899     -97222.356      7438.3249      8712.006       3440.5686    
    152000   300.43233      0.0152         0.0060301168  -60.301168      5.8829386     -3.1243311      153.71026      148.50318      148.81394     -97096.605      7344.4194      8676.6919      3420.269     
    153000   300.23861      0.0153        -0.0016422401   16.422401     -1.8657622     -7.1379317      153.7254       148.43552      148.66586     -97173.955      7323.7239      8596.6229      3435.1363    
    154000   299.63109      0.0154        -0.0015701353   15.701353     -1.9407521     -13.332299      153.74054      148.28206      148.76715     -97153.179      7369.0291      8635.5832      3441.7014    
    155000   300.53689      0.0155         0.0013030119  -13.030119     -5.1936982     -17.619825      153.75569      148.33634      148.71138     -97162.609      7231.5969      8648.1963      3449.5395    
    156000   298.99534      0.0156         0.0020142325  -20.142325      18.015915     -31.60694       153.77083      148.48302      148.82493     -96998.971      7383.3322      8539.1394      3435.6737    
    157000   300.76844      0.0157         0.0042910244  -42.910244      4.0997707     -40.39056       153.78597      148.40573      148.67931     -97237.627      7362.3013      8744.2528      3428.7374    
    158000   299.47586      0.0158         0.0033722608  -33.722608     -29.091472     -26.751747      153.80111      148.35343      148.52454     -97333.098      7377.593       8802.9926      3450.8819    
    159000   301.64264      0.0159         0.0020453284  -20.453284      17.748804     -3.96988        153.81625      148.38511      148.49356     -97346.258      7296.5509      8613.0985      3455.5409    
    160000   300.1335       0.016          0.0037528363  -37.528363     -24.154346      2.1185804      153.83139      148.56043      148.52045     -97182.491      7364.3237      8688.6675      3467.5133    
    161000   300.51675      0.0161         0.0037940647  -37.940647     -0.61352556     2.0402476      153.84653      148.78702      148.23127     -97152.16       7397.7785      8659.0444      3456.5025    
    162000   299.17946      0.0162        -0.0012138071   12.138071     -5.1176028     -23.258876      153.86167      148.42318      148.28833     -97331.379      7346.4275      8707.2477      3456.1603    
    163000   299.55821      0.0163        -0.0027321981   27.321981     -6.0357507     -12.730678      153.87681      148.40774      148.29448     -97270.431      7398.6768      8686.2469      3469.4408    
    164000   299.11222      0.0164        -0.0036500477   36.500477     -31.728479     -3.4992508      153.89195      148.44901      148.32229     -97254.295      7275.9471      8688.9007      3443.492     
    165000   299.10825      0.0165         0.0025776594  -25.776594     -3.6229356     -18.575181      153.90709      148.84341      148.2894      -97076.749      7357.511       8528.0996      3458.0481    
    166000   299.93685      0.0166         0.00032256774 -3.2256774     -9.2416739      22.403626      153.92224      148.82505      148.22908     -96952.342      7370.6907      8541.1555      3448.1013    
    167000   300.72274      0.0167         0.0034018926  -34.018926      0.27151944     15.144334      153.93738      148.4153       148.35052     -97216.362      7322.4255      8814.6324      3446.4088    
    168000   299.80569      0.0168         0.0031663473  -31.663473     -9.0521076     -36.254799      153.95252      148.36686      148.50767     -97098.538      7419.3097      8625.3652      3439.0848    
    169000   298.93278      0.0169         0.0032210573  -32.210573     -27.815105      11.726873      153.96766      148.27145      148.54902     -97259.048      7405.6615      8548.2172      3454.0281    
    170000   298.92557      0.017         -0.0030448715   30.448715      16.738037      16.520687      153.9828       148.17171      148.45087     -97258.575      7516.6299      8580.237       3450.9454    
    171000   300.11708      0.0171        -0.003547538    35.47538      -35.429274     -18.067648      153.99794      148.44219      148.35003     -97272.433      7367.1405      8783.3111      3447.2569    
    172000   301.57407      0.0172         0.00084992278 -8.4992278      8.4862555     -18.988206      154.01308      148.41925      148.38817     -97156.979      7282.0161      8602.0972      3465.6485    
    173000   299.00739      0.0173         0.0031184792  -31.184792     -46.492563      13.772772      154.02822      148.57311      148.24562     -97152.265      7431.6748      8610.9023      3465.3795    
    174000   300.39185      0.0174        -0.0035610027   35.610027      14.007536     -11.958084      154.04336      148.48638      148.22732     -97131.492      7395.5591      8556.1402      3462.0976    
    175000   301.08232      0.0175        -0.0020849435   20.849435     -35.566212      43.740587      154.0585       148.42708      148.15238     -97347.895      7312.1003      8661.0358      3444.6636    
    176000   299.82107      0.0176        -0.0004510354   4.510354      -3.4957866     -71.358721      154.07364      148.28591      148.43332     -97316.339      7511.8352      8607.0071      3478.9917    
    177000   299.37984      0.0177         0.00054735662 -5.4735662      30.309215      16.437993      154.08878      148.53313      148.20126     -97026.558      7453.4745      8656.2526      3462.9629    
    178000   301.52799      0.0178        -8.9857088e-05  0.89857088    -24.393774      12.077109      154.10393      148.5483       148.2057      -97114.537      7267.8962      8565.6695      3459.9905    
    179000   300.93182      0.0179        -0.00062514613  6.2514613      24.331419      7.9076902      154.11907      148.21813      148.5571      -97004.319      7287.3931      8512.4769      3466.6268    
    180000   299.39277      0.018         -0.00018853449  1.8853449      12.987175     -33.328445      154.13421      148.33808      148.53143     -96995.623      7331.5439      8548.8672      3463.52      
    181000   299.20097      0.0181         0.0041138336  -41.138336     -15.073327     -16.67617       154.14935      148.17322      148.81385     -96935.862      7375.3073      8522.7431      3457.5578    
    182000   300.53071      0.0182        -0.00089179028  8.9179028     -14.977133      27.076785      154.16449      147.61098      149.12181     -97090.651      7323.1035      8611.9459      3454.3591    
    183000   300.7257       0.0183         0.0014896574  -14.896574     -23.326183     -22.253241      154.17963      147.63733      149.16715     -97024.632      7328.7802      8526.3686      3454.4828    
    184000   301.63595      0.0184        -0.0032304498   32.304498      0.36040312    -10.931177      154.19477      147.40883      148.95192     -97474.097      7340.2737      8672.5404      3451.2235    
    185000   299.89195      0.0185         0.0027500522  -27.500522     -0.98485038    -21.485413      154.20991      147.60325      148.95265     -97329.368      7429.2871      8594.9659      3467.5701    
    186000   300.28065      0.0186         0.0011417487  -11.417487     -24.486341     -8.2759377      154.22505      147.76123      148.89035     -97215.841      7372.547       8710.8011      3455.1859    
    187000   300.06605      0.0187        -0.0035376207   35.376207      12.313106      12.715214      154.24019      147.68492      148.86232     -97159.969      7473.4116      8640.4863      3462.9087    
    188000   301.83746      0.0188         0.00082231021 -8.2231021     -39.069861      14.689656      154.25533      147.91814      148.79651     -97125.749      7378.6838      8502.3998      3458.3511    
    189000   299.20334      0.0189         0.00056417198 -5.6417198      9.9616575      1.8072117      154.27048      147.85499      148.57717     -97145.479      7357.0279      8552.3588      3464.9708    
    190000   300.77751      0.019         -0.0037580587   37.580587     -4.1611776     -8.6799679      154.28562      147.52856      148.74377     -97403.033      7391.0645      8568.4055      3479.0886    
    191000   300.20331      0.0191        -0.0053128641   53.128641     -28.547944      3.3463521      154.30076      147.67383      148.62014     -97381.051      7428.8426      8599.6217      3463.1071    
    192000   300.45938      0.0192        -0.0010605078   10.605078     -10.011323     -16.573443      154.3159       147.77439      148.75221     -97224.429      7377.2436      8477.1075      3452.3377    
    193000   299.34027      0.0193         0.00064378226 -6.4378226     -3.7673178      2.3061649      154.33104      147.51958      148.78698     -97375.858      7427.5156      8575.5176      3459.4959    
    194000   299.68155      0.0194        -0.0025782825   25.782825      22.125726      1.9568417      154.34618      147.73003      148.69945     -97200.603      7460.8117      8473.2794      3451.529     
    195000   299.6956       0.0195         0.00057242603 -5.7242603      6.9782525      46.752194      154.36132      148.02075      148.27348     -97259.197      7394.5989      8443.8317      3445.293     
    196000   300.29841      0.0196         0.00078269418 -7.8269418      11.963159     -3.2149669      154.37646      147.76294      148.61265     -97224.991      7322.988       8433.2744      3480.1481    
    197000   300.27141      0.0197        -0.00025089689  2.5089689     -15.804835      32.750274      154.3916       148.10521      148.40327     -97107.715      7393.3179      8558.6094      3449.1078    
    198000   301.44293      0.0198        -9.0530858e-05  0.90530858     18.523254     -7.2674428      154.40674      148.06012      148.4784      -97100.129      7310.2452      8624.4259      3432.9292    
    199000   299.08095      0.0199        -0.003773165    37.73165       25.76471      -9.517703       154.42188      147.94615      148.45219     -97067.348      7243.0443      8750.746       3426.9588    
    200000   300.221        0.02          -0.0016793081   16.793081      20.244558     -30.278675      154.43703      147.84194      148.56511     -97173.557      7404.8809      8568.139       3417.3785    
    201000   298.09658      0.0201        -0.00035100463  3.5100463     -2.5910187     -0.76410918     154.45217      147.87201      148.42253     -97202.032      7349.9491      8668.8436      3425.0492    
    202000   300.13586      0.0202         0.001418079   -14.18079      -1.379091      -16.139455      154.46731      147.6829       148.66359     -97190.137      7347.1373      8622.9598      3431.2024    
    203000   300.00471      0.0203        -0.001773346    17.73346      -3.592271      -24.765917      154.48245      147.61367      148.78485     -97072.293      7314.9239      8570.1094      3428.029     
    204000   299.72308      0.0204         0.0048882655  -48.882655      4.6010764     -13.114274      154.49759      147.52896      148.77221     -97246.803      7331.4655      8531.7459      3429.4847    
    205000   299.69255      0.0205        -0.0013443828   13.443828     -34.2895       -22.151376      154.51273      147.52258      148.91345     -97166.129      7348.4241      8552.1005      3430.3214    
    206000   299.58627      0.0206         0.0016312867  -16.312867     -5.4542032     -13.824107      154.52787      147.31258      148.94485     -97258.13       7448.0579      8608.4603      3436.7983    
    207000   299.28637      0.0207         0.002032098   -20.32098       1.3797379     -3.4776674      154.54301      147.43525      148.8839      -97054.804      7370.9276      8669.2444      3407.9694    
    208000   299.04262      0.0208        -0.0029283749   29.283749     -15.961867      13.831838      154.55815      147.43035      148.75865     -97177.362      7381.2213      8661.7466      3411.6955    
    209000   300.75722      0.0209         0.0025091101  -25.091101     -8.8172613     -5.2695114      154.57329      147.51421      148.81843     -97230.758      7439.9709      8703.0162      3395.5634    
    210000   299.99633      0.021          0.00229369    -22.9369        0.88218447    -3.1466798      154.58843      147.44982      148.65073     -97334.487      7374.8202      8632.7589      3414.5229    
    211000   300.77302      0.0211         0.00055488641 -5.5488641      4.4605821      6.8868724      154.60357      147.77165      148.65043     -97023.462      7337.7168      8527.8877      3422.8406    
    212000   300.16156      0.0212         0.0054178329  -54.178329      12.139748     -32.104474      154.61872      147.40951      148.88425     -97049.8        7335.0575      8585.2272      3406.8474    
    213000   298.78535      0.0213         0.00086691834 -8.6691834      15.027833     -10.3136        154.63386      147.47168      148.43785     -97357.482      7434.9268      8665.7551      3414.6489    
    214000   301.9386       0.0214         0.0021730153  -21.730153      0.26256727     24.182977      154.649        147.64751      148.60746     -97119.96       7304.8458      8653.416       3402.2785    
    215000   300.6367       0.0215         0.0043193143  -43.193143      21.906663     -15.615413      154.66414      147.63554      148.66884     -97054.676      7382.7133      8658.5379      3404.4305    
    216000   301.06286      0.0216        -0.0021566502   21.566502     -4.6846925     -23.742777      154.67928      147.38814      148.78047     -97230.886      7391.1636      8598.907       3412.3771    
    217000   298.52261      0.0217        -0.004514194    45.14194       41.939284     -26.185742      154.69442      147.30739      148.84976     -97030.61       7476.5243      8615.3867      3399.6377    
    218000   300.69697      0.0218         0.0014619734  -14.619734     -25.240706      7.9649693      154.70956      147.24037      148.85645     -97134.902      7394.615       8644.7515      3404.5561    
    219000   300.57158      0.0219         0.0048996161  -48.996161     -1.193556       11.273322      154.7247       147.34597      148.7588      -97103.773      7405.8312      8638.8138      3416.9       
    220000   300.03261      0.022          0.0033664022  -33.664022      3.0322289     -21.106685      154.73984      147.45405      148.63445     -97130.419      7371.3516      8555.4654      3431.9904    
    221000   300.21271      0.0221        -0.00064249441  6.4249441     -11.237424     -27.928596      154.75498      147.6537       148.44665     -97261.201      7486.6638      8579.0866      3437.8992    
    222000   299.06637      0.0222        -0.00015973275  1.5973275      4.7984837      1.5944262      154.77012      147.68656      148.29828     -97190.711      7353.7107      8665.9484      3442.5191    
    223000   299.6578       0.0223        -0.00090021689  9.0021689      4.3006943     -49.813567      154.78527      147.74149      148.33336     -97191.058      7422.6134      8605.7552      3461.4175    
    224000   299.10241      0.0224        -0.0027629339   27.629339      1.2485038     -5.3984178      154.80041      147.86348      148.04811     -97257.065      7350.6822      8618.8374      3478.8452    
    225000   300.21115      0.0225         0.0011569509  -11.569509     -5.6663628      20.548049      154.81555      147.84417      148.10094     -97180.42       7393.1039      8623.0752      3451.464     
    226000   300.56406      0.0226        -0.0018635573   18.635573     -0.16601337    -10.312355      154.83069      147.54611      148.34675     -97184.498      7407.9464      8636.568       3447.7631    
    227000   299.68832      0.0227        -0.00072798378  7.2798378     -5.1302872      9.0325697      154.84583      147.41073      148.08542     -97514.511      7405.3139      8672.504       3446.0296    
    228000   299.04667      0.0228         0.0028108268  -28.108268      9.9694505     -28.283155      154.86097      147.95734      148.11002     -97121.029      7419.6304      8606.1963      3450.3807    
    229000   299.20973      0.0229         0.00034825175 -3.4825175      31.637205      7.0920689      154.87611      148.22508      147.86204     -97046.182      7472.1519      8499.5427      3466.0599    
    230000   299.23627      0.023         -0.0042765037   42.765037      9.562759       19.215981      154.89125      148.24028      147.84576     -96939.564      7408.0739      8447.8769      3451.2363    
    231000   300.24425      0.0231         0.00042888559 -4.2888559     -46.62345      -19.86297       154.90639      148.38974      147.78114     -96998.371      7277.1485      8500.076       3434.8462    
    232000   298.42285      0.0232         0.0025240493  -25.240493      16.349682      7.5386183      154.92153      148.00411      147.98163     -97066.362      7351.0067      8721.3268      3446.8859    
    233000   299.07825      0.0233         0.00063301949 -6.3301949      4.8500093      13.61482       154.93667      148.2044       148.0319      -96834.701      7343.0209      8525.2476      3427.0469    
    234000   299.67327      0.0234        -0.0021763415   21.763415     -7.9523731      1.5295741      154.95182      148.33322      147.7408      -96891.535      7373.9625      8581.1972      3431.2476    
    235000   299.92123      0.0235        -0.00026653485  2.6653485      1.1610381      24.915908      154.96696      148.52487      147.54892     -96883.01       7299.0235      8404.9643      3444.5796    
    236000   300.06922      0.0236         0.00017991511 -1.7991511     -4.606828      -17.157255      154.9821       148.36313      147.57137     -97063.254      7355.5938      8547.642       3408.1108    
    237000   300.60093      0.0237         0.0022932027  -22.932027     -0.13932169    -24.656681      154.99724      148.03534      147.71214     -97278.919      7314.6259      8707.0001      3403.8773    
    238000   300.53449      0.0238         0.0011607611  -11.607611      21.319235     -18.422856      155.01238      147.866        147.89289     -97248.689      7384.5928      8638.4518      3393.7596    
    239000   301.06758      0.0239         0.0013708567  -13.708567     -2.3640189     -25.813064      155.02752      147.9978       148.11321     -96892.482      7364.0171      8388.0054      3416.8021    
    240000   299.99249      0.024          0.0040179716  -40.179716     -6.2422506     -4.4735208      155.04266      148.16127      147.72768     -97307.347      7376.4162      8638.8149      3420.9996    
    241000   300.69863      0.0241         0.00015448513 -1.5448513     -3.7751015      10.122741      155.0578       148.11105      147.84596     -96985.617      7348.8068      8484.8939      3419.3916    
    242000   299.03738      0.0242        -0.00013162709  1.3162709      25.477782     -38.385689      155.07294      147.74845      148.12313     -97100.532      7397.2999      8616.3331      3419.2009    
    243000   300.55537      0.0243        -0.0012560608   12.560608      1.7449094     -2.8689016      155.08808      147.66432      147.87327     -97284.079      7263.2746      8741.6652      3414.2274    
    244000   299.75706      0.0244         0.0011640593  -11.640593      3.6832619      10.08252       155.10322      148.12934      147.83026     -96882.177      7254.1618      8630.7741      3411.9063    
    245000   299.41729      0.0245         0.0026956644  -26.956644      12.207687     -16.930012      155.11836      148.14284      147.61868     -97149.43       7414.4556      8681.5993      3408.3471    
    246000   299.55897      0.0246        -0.0046039899   46.039899      40.818315      22.754588      155.13351      148.17883      147.34913     -97219.178      7405.7818      8663.2688      3435.7366    
    247000   300.92389      0.0247         0.00047328733 -4.7328733      11.130085      17.597115      155.14865      148.17207      147.55779     -97161.689      7348.1101      8511.0146      3437.8745    
    248000   298.82093      0.0248         0.0044999366  -44.999366      8.2899174      14.422036      155.16379      147.86531      147.76185     -97177.094      7466.8223      8601.9769      3436.2844    
    249000   299.35936      0.0249         0.0045752937  -45.752937     -10.261226     -14.56184       155.17893      147.98201      147.75094     -97244.718      7440.4704      8634.5752      3419.1666    
    250000   299.73086      0.025          0.0026054741  -26.054741     -22.469485     -26.517324      155.19407      148.0287       147.58315     -97285.713      7414.3265      8634.613       3421.0162    
    251000   300.31818      0.0251         0.0016001235  -16.001235      2.309335      -13.715865      155.20921      148.20346      147.53083     -97090.775      7379.7659      8469.2736      3424.8638    
    252000   299.69065      0.0252        -0.0010167433   10.167433      15.075435     -49.592318      155.22435      148.04699      147.79126     -97030.186      7394.3818      8569.9592      3410.1603    
    253000   299.99601      0.0253         0.0053499551  -53.499551      20.365132      5.027467       155.23949      148.22275      147.61426     -97101.883      7373.4156      8409.3867      3433.5665    
    254000   302.16649      0.0254         0.0042421241  -42.421241     -40.960499      10.366952      155.25463      148.06642      147.69109     -97235.042      7329.5247      8640.1167      3442.0707    
    255000   299.6251       0.0255         0.0024102377  -24.102377     -2.1152511     -32.214675      155.26977      148.32492      147.4019      -97103.147      7404.4185      8557.4389      3461.9013    
    256000   299.95143      0.0256        -0.0030710996   30.710996      15.054376     -0.48294712     155.28491      147.81722      147.44287     -97419.087      7414.5964      8586.1865      3455.1477    
    257000   299.66663      0.0257         0.0050053993  -50.053993     -20.176686     -51.193516      155.30006      147.92856      147.84118     -97078.691      7357.6028      8528.1168      3445.6715    
    258000   299.72407      0.0258        -0.0018183177   18.183177     -7.7520452     -7.4067626      155.3152       148.01933      147.64837     -97117.205      7394.3949      8537.9973      3436.1236    
    259000   299.38897      0.0259         0.0058404654  -58.404654      7.4372021     -14.109996      155.33034      147.90137      147.64572     -97182.4        7310.2641      8588.3878      3440.5938    
    260000   301.30285      0.026          0.0059544197  -59.544197      23.960764     -1.8203148      155.34548      147.80433      147.76019     -97160.539      7268.0706      8581.8039      3428.8297    
    261000   299.50017      0.0261         0.0030171254  -30.171254     -0.25708992     18.561312      155.36062      147.53331      147.71488     -97350.11       7329.2643      8731.7162      3423.786     
    262000   299.46343      0.0262         0.0029331675  -29.331675      30.091028     -11.458741      155.37576      147.24321      148.22233     -97209.594      7358.4817      8596.0828      3415.3733    
    263000   299.83749      0.0263         0.0001301154  -1.301154       12.979835     -10.098051      155.3909       147.25665      148.29355     -97182.139      7385.206       8662.6261      3424.3124    
    264000   298.7691       0.0264         0.0011760481  -11.760481     -17.822922     -1.4670467      155.40604      147.47888      148.20965     -96921.642      7396.1066      8535.1856      3429.2538    
    265000   299.80135      0.0265         0.0063293657  -63.293657      17.169442     -0.30967677     155.42118      147.79215      148.13102     -96820.026      7336.9069      8456.5342      3445.9715    
    266000   300.48475      0.0266        -0.0032085976   32.085976      6.9339331      16.762739      155.43632      147.44405      148.07044     -97041.758      7373.136       8410.2617      3440.9394    
    267000   299.503        0.0267         0.0018991629  -18.991629     -19.974666     -9.127599       155.45146      147.35421      148.02639     -97195.864      7355.1578      8604.4832      3403.7197    
    268000   299.26762      0.0268         0.00040620585 -4.0620585      6.0259759     -4.1348357      155.46661      147.25246      148.14368     -97187.012      7331.1963      8644.6381      3415.044     
    269000   300.34073      0.0269         0.00022874661 -2.2874661      7.690539       4.4206917      155.48175      147.45953      147.86994     -97245.585      7342.663       8468.4491      3417.9994    
    270000   300.26715      0.027         -0.00074260686  7.4260686      32.344958     -27.653554      155.49689      147.43838      147.87072     -97278.842      7367.5643      8609.2394      3420.7509    
    271000   299.82789      0.0271        -0.0030948971   30.948971      2.5800919      8.0976923      155.51203      147.69569      147.59424     -97139.661      7328.531       8620.0983      3439.7669    
    272000   300.5093       0.0272        -0.00068992863  6.8992863     -16.990806     -17.369884      155.52717      147.79996      147.54679     -97273.256      7357.7977      8602.7452      3432.6407    
    273000   298.55622      0.0273        -0.0019671621   19.671621     -13.690314      35.481094      155.54231      147.7407       147.81675     -96877.134      7375.4933      8492.1304      3449.2777    
    274000   301.12957      0.0274        -0.0044114958   44.114958     -12.953113     -13.319338      155.55745      147.45382      147.80782     -97237.309      7393.9872      8620.3556      3446.4819    
    275000   298.67621      0.0275         0.0018732676  -18.732676     -10.02115       1.9093839      155.57259      147.52516      147.76835     -97076.887      7360.6697      8657.0932      3468.6631    
    276000   299.74987      0.0276        -0.0019193394   19.193394      24.676483      22.16687       155.58773      147.70872      147.45923     -97195.028      7332.7923      8563.2513      3457.0897    
    277000   299.69633      0.0277        -0.0012408124   12.408124      46.946238      6.9806037      155.60287      147.57533      147.60303     -97081.987      7373.3776      8621.6074      3452.5795    
    278000   299.23405      0.0278         0.0030460439  -30.460439     -13.106701      3.4043891      155.61801      147.6763       147.76        -97063.568      7360.2735      8459.7035      3460.6052    
    279000   300.28516      0.0279         0.0012434252  -12.434252     -6.4995643     -22.458689      155.63315      147.5704       147.85672     -97082.055      7324.4908      8593.8733      3466.4092    
    280000   301.17353      0.028         -0.0011928654   11.928654      6.9657035      39.002531      155.6483       147.44995      147.57778     -97252.973      7315.4999      8721.0336      3451.5552    
    281000   300.71706      0.0281         0.0015915548  -15.915548      9.318568      -30.378592      155.66344      147.57868      147.82776     -97092.163      7397.4487      8559.5168      3472.622     
    282000   299.31221      0.0282        -0.0030418502   30.418502     -14.755937      18.967918      155.67858      147.60366      147.59597     -97179.74       7389.9048      8625.5746      3449.4303    
    283000   301.08495      0.0283         0.00098068914 -9.8068914     -9.1049325     -4.9158189      155.69372      147.82658      147.34257     -97153.288      7304.3873      8617.0211      3444.6306    
    284000   301.00855      0.0284        -0.00032656589  3.2656589     -53.726267      13.850607      155.70886      147.82713      147.3252      -97169.833      7355.21        8662.2112      3446.9988    
    285000   301.14985      0.0285        -0.00085491293  8.5491293     -31.244633     -3.2362063      155.724        147.69633      147.42281     -97314.421      7367.4266      8594.8522      3446.1493    
    286000   299.55314      0.0286         0.0027741084  -27.741084     -47.123245      0.82789638     155.73914      147.73697      147.53124     -97156.498      7400.8401      8572.6927      3450.0231    
    287000   300.08207      0.0287         0.00088445981 -8.8445981     -2.0280268      7.5340786      155.75428      147.77557      147.31815     -97285.858      7476.0383      8634.675       3462.9017    
    288000   300.92007      0.0288         0.0051230873  -51.230873     -8.6382222     -11.311432      155.76942      147.8003       147.33066     -97248.495      7304.1991      8601.9204      3458.6389    
    289000   299.93891      0.0289         0.0079344992  -79.344992      8.5373994     -2.9871269      155.78456      147.94498      147.34586     -97090.262      7375.4751      8486.7199      3463.0174    
    290000   300.79989      0.029          0.0010371538  -10.371538      19.423446      11.365629      155.7997       147.99065      147.11593     -97173.843      7302.1403      8565.8087      3449.3196    
    291000   300.02256      0.0291         0.00089752686 -8.9752686     -16.385932     -5.4279928      155.81485      147.63124      147.35705     -97231.066      7432.4015      8602.8226      3439.5361    
    292000   299.29162      0.0292         0.0030938311  -30.938311      0.38157578     1.9134409      155.82999      147.32314      147.72988     -97180.142      7470.4607      8689.6853      3450.0542    
    293000   298.21709      0.0293        -0.00016278913  1.6278913     -38.040796     -2.3276556      155.84513      147.73366      147.5201      -96957.014      7510.3621      8617.0473      3457.5399    
    294000   300.60511      0.0294         0.0032433979  -32.433979      25.504516      7.5204186      155.86027      147.56845      147.5633      -97063.224      7294.8322      8602.7298      3446.61      
    295000   301.21776      0.0295         0.00077865535 -7.7865535     -2.7931493      1.6874106      155.87541      147.31715      147.91635     -97005.376      7309.8843      8571.49        3446.045     
    296000   298.91976      0.0296        -0.0019273815   19.273815      15.190814      21.043671      155.89055      147.29024      147.77508     -96988.161      7390.9318      8616.3506      3448.4431    
    297000   300.21493      0.0297        -0.00258163     25.8163        6.7722422      9.2357648      155.90569      147.29943      147.86033     -97049.502      7381.8391      8571.3816      3463.6618    
    298000   300.04158      0.0298         0.00068354964 -6.8354964     -4.2663355     -7.145791       155.92083      147.33183      147.72192     -97157          7456.3116      8555.3727      3470.1972    
    299000   299.25901      0.0299        -0.00088711318  8.8711318     -2.2716214     -0.55211602     155.93597      147.1655       147.68622     -97209.525      7388.423       8594.7282      3475.5446    
    300000   300.41595      0.03          -0.00080924834  8.0924834      21.781052      9.1864071      155.95111      147.24761      147.72218     -97129.687      7374.8161      8478.8184      3474.6574    
    301000   301.39097      0.0301         0.0030784286  -30.784286     -36.046791     -26.548852      155.96625      147.35067      147.50731     -97393.887      7296.0003      8566.4043      3465.777     
    302000   299.53095      0.0302         0.0036824474  -36.824474     -6.5348444      5.5207013      155.9814       147.22154      147.5961      -97340.511      7479.8986      8581.3193      3463.0932    
    303000   300.02368      0.0303        -0.00040146208  4.0146208     -4.6184973      14.263919      155.99654      147.16563      147.6506      -97188.053      7381.8362      8662.5378      3443.8219    
    304000   301.03046      0.0304        -0.00059634248  5.9634248      2.7779458     -12.200641      156.01168      147.43         147.50463     -97211.749      7296.5364      8598.8163      3469.7094    
    305000   299.02899      0.0305        -0.001354549    13.54549       19.235508      10.950478      156.02682      147.30093      147.41574     -97227.426      7423.2231      8673.2057      3430.1422    
    306000   299.16785      0.0306         0.0025502233  -25.502233      12.397447     -35.326328      156.04196      147.26788      147.63423     -97249.926      7403.1882      8548.6876      3435.5       
    307000   299.95043      0.0307         0.0026379903  -26.379903     -8.8648357      15.405089      156.0571       147.30112      147.30034     -97435.503      7412.2769      8676.1756      3412.9768    
    308000   300.80553      0.0308        -0.00080894646  8.0894646      19.57081      -12.239649      156.07224      147.3014       147.28813     -97353.292      7273.0076      8594.6736      3422.6183    
    309000   300.58725      0.0309         0.0030756674  -30.756674     -68.389549     -11.057548      156.08738      147.67937      147.58019     -96960.52       7340.3002      8385.8844      3438.576     
    310000   299.91442      0.031          0.00085643062 -8.5643062      25.087861      14.173775      156.10252      147.22991      147.48232     -97254.404      7363.9611      8639.3624      3425.2765    
    311000   299.14617      0.0311         0.00025833503 -2.5833503     -20.909322     -2.4113964      156.11766      147.33872      147.49466     -97086.767      7385.7046      8602.2249      3410.2867    
    312000   299.79549      0.0312        -0.001657529    16.57529      -26.172879      7.6923452      156.1328       147.32345      147.54686     -96992.146      7329.5094      8689.7412      3404.8796    
    313000   302.06119      0.0313        -0.0038390815   38.390815      4.5181579     -10.44489       156.14795      147.10889      147.62982     -97182.04       7400.4881      8502.6178      3418.8083    
    314000   300.03329      0.0314        -0.0024076764   24.076764     -8.7414709     -7.464972       156.16309      147.1177       147.44221     -97339.127      7321.3349      8622.1849      3433.8846    
    315000   300.65869      0.0315         0.00033276419 -3.3276419      25.365056     -2.5048514      156.17823      146.85736      147.63782     -97376.28       7285.7113      8659.6005      3428.3028    
    316000   300.54264      0.0316        -0.00047722305  4.7722305      14.567336     -27.912511      156.19337      147.16571      147.43452     -97315.619      7446.3175      8557.0805      3438.0681    
    317000   300.33302      0.0317        -0.001150251    11.50251       23.950707      6.0533853      156.20851      147.13363      147.43045     -97336.217      7419.883       8480.5156      3409.2574    
    318000   300.17808      0.0318        -0.0034714877   34.714877      25.756842      6.8885635      156.22365      147.00394      147.49874     -97289.899      7358.4547      8527.6812      3414.0414    
    319000   300.64812      0.0319        -0.0041423725   41.423725      31.773026      31.788505      156.23879      146.90841      147.61724     -97294.94       7379.3063      8612.408       3412.7208    
    320000   299.55292      0.032         -0.0056419486   56.419486     -5.7009983      31.325182      156.25393      146.4853       147.88177     -97452.928      7541.716       8626.8145      3433.4231    
    321000   299.52796      0.0321         0.0018672711  -18.672711     -0.15264678    -19.607147      156.26907      146.40958      147.98967     -97491.129      7461.8798      8658.0905      3424.8733    
    322000   298.65106      0.0322        -0.00087813042  8.7813042      15.995862      12.467378      156.28421      146.26811      148.22224     -97250.622      7493.7825      8645.1336      3423.6729    
    323000   300.80435      0.0323         0.0012068485  -12.068485      35.462346      0.76491707     156.29935      146.74767      147.76842     -97204.619      7358.0541      8660.7573      3425.2212    
    324000   299.95868      0.0324         0.0054207777  -54.207777      18.532811     -0.83494485     156.31449      146.78085      147.66435     -97323.813      7270.5166      8713.2145      3431.8306    
    325000   300.55434      0.0325        -0.001233848    12.33848      -34.381592     -7.8668236      156.32964      146.71933      147.80453     -97256.369      7358.3266      8721.0727      3430.1993    
    326000   300.16611      0.0326         0.0048191514  -48.191514     -3.7621983      31.723596      156.34478      146.64028      147.90964     -97111.119      7322.7581      8659.0163      3423.9884    
    327000   299.16351      0.0327        -0.00031016178  3.1016178      22.316582     -11.130555      156.35992      146.44958      148.19939     -97059.722      7341.7514      8559.946       3413.4246    
    328000   301.77636      0.0328         0.00048265162 -4.8265162     -19.266816     -19.323093      156.37506      146.50416      147.94817     -97362.249      7287.2845      8599.5799      3417.8388    
    329000   300.25905      0.0329         0.00044637092 -4.4637092     -12.547224      9.538308       156.3902       146.63517      147.7652      -97321.643      7337.6089      8652.9604      3411.3418    
    330000   300.57086      0.033          0.00011667072 -1.1667072      18.041734     -10.197295      156.40534      146.50968      148.19712     -97113.054      7351.1902      8549.2797      3411.1363    
    331000   300.60417      0.0331        -0.0041299503   41.299503      19.193283      18.597201      156.42048      146.52178      147.89151     -97120.332      7371.7301      8522.1208      3401.1307    
    332000   298.84664      0.0332         4.0315539e-05 -0.40315539    -6.007172       26.181906      156.43562      146.54506      147.93844     -97132.821      7428.0424      8694.7262      3415.2128    
    333000   300.67492      0.0333        -0.0042131765   42.131765      34.598928      22.935495      156.45076      146.53435      147.8087      -97143.573      7339.2173      8652.9206      3402.5573    
    334000   299.71709      0.0334         0.00052188593 -5.2188593     -5.4821898     -10.954586      156.4659       146.29955      148.09613     -97175.161      7332.3676      8571.3601      3412.0513    
    335000   299.52901      0.0335        -0.0013425581   13.425581      24.976667     -6.734298       156.48104      146.37271      148.20844     -97013.309      7458.0757      8517.6738      3415.8258    
    336000   300.13439      0.0336         0.00028513943 -2.8513943     -6.7984856      16.370853      156.49619      146.61774      147.84721     -97101.841      7292.033       8562.8687      3414.9408    
    337000   300.2557       0.0337         0.00062304639 -6.2304639      3.0947478      3.9129103      156.51133      146.41895      147.82302     -97333.211      7311.5346      8691.313       3396.625     
    338000   299.50727      0.0338         0.0028809798  -28.809798      38.832864      5.6477416      156.52647      146.25435      147.98403     -97225.055      7397.3043      8763.5487      3397.7996    
    339000   299.48371      0.0339         0.0013125689  -13.125689     -28.687845      13.103191      156.54161      146.44217      147.99583     -97052.758      7396.5586      8761.1449      3395.4646    
    340000   300.23758      0.034          0.0063856408  -63.856408     -5.6559884     -0.8427754      156.55675      146.45975      147.88503     -97157.438      7292.1257      8679.6861      3410.6159    
    341000   300.55262      0.0341        -0.0014940685   14.940685      41.489832     -31.788079      156.57189      146.18674      148.03723     -97243.642      7422.2077      8706.333       3401.2899    
    342000   299.95667      0.0342         0.0040418703  -40.418703     -31.688609     -4.3503254      156.58703      146.62126      147.86689     -97079.032      7297.0762      8730.6394      3420.2715    
    343000   299.56853      0.0343         0.001529249   -15.29249      -25.522863      0.35126134     156.60217      146.62695      148.01321     -96908.264      7336.3333      8676.5642      3419.7468    
    344000   300.64729      0.0344         0.0031444851  -31.444851      4.8244679      21.572237      156.61731      146.38624      147.94255     -97118.729      7333.9863      8652.0255      3420.0825    
    345000   299.33689      0.0345         0.0031741256  -31.741256      24.331151      12.630585      156.63245      145.9136       148.30593     -97093.499      7332.8717      8531.1796      3418.3548    
    346000   300.64248      0.0346        -0.0034882883   34.882883      8.3425533      6.5143808      156.64759      146.12086      148.2273      -97047.4        7355.222       8590.9135      3416.8471    
    347000   300.28846      0.0347         0.00069955228 -6.9955228      16.115757      9.2157496      156.66274      146.14509      148.32845     -97000.573      7430.8492      8548.0241      3415.4261    
    348000   300.08882      0.0348         0.0013423723  -13.423723      5.7954265     -3.7969436      156.67788      146.07183      148.19008     -97212.167      7427.884       8599.6824      3424.1162    
    349000   299.84994      0.0349         0.0078309623  -78.309623     -5.0004986      10.594981      156.69302      145.96677      148.27489     -97221.595      7350.0587      8601.7029      3410.8202    
    350000   299.97498      0.035          0.0051377794  -51.377794     -30.025017     -24.624254      156.70816      146.06295      148.38364     -97101.278      7395.9382      8592.1383      3429.5595    
    351000   300.81081      0.0351         0.0040814673  -40.814673      16.499436     -5.1077725      156.7233       145.88184      148.39561     -97281.893      7364.3715      8645.0525      3423.8931    
    352000   298.94967      0.0352         0.0025187589  -25.187589      27.328796      19.287217      156.73844      145.97631      148.3372      -97008.089      7318.6001      8602.6073      3430.9545    
    353000   299.2881       0.0353         0.0046801692  -46.801692      13.117492     -8.1963572      156.75358      145.79656      148.55035     -97058.928      7389.4214      8740.3643      3431.7222    
    354000   299.40613      0.0354        -0.00034901534  3.4901534     -0.530747      -37.745248      156.76872      146.12193      148.21031     -97057.357      7458.9754      8737.9109      3431.7502    
    355000   299.54105      0.0355         0.0013708264  -13.708264     -13.367373      3.0722971      156.78386      145.95002      148.17616     -97149.359      7410.3656      8680.7266      3432.4265    
    356000   301.38037      0.0356        -0.0014883014   14.883014     -9.8507351      26.528729      156.799        145.81693      148.18231     -97242.222      7349.8171      8595.139       3432.4366    
    357000   298.95129      0.0357        -0.0025775344   25.775344      13.588497      13.761069      156.81414      145.98865      148.04731     -97142.109      7391.9427      8791.5234      3422.1346    
    358000   300.90387      0.0358         0.0052491176  -52.491176     -23.212126      14.313622      156.82928      146.15632      147.78627     -97401.059      7372.6035      8709.6099      3412.7559    
    359000   300.9146       0.0359         0.001672714   -16.72714       3.0445409      5.9067153      156.84443      146.04702      148.00656     -97193.259      7340.0066      8577.0118      3415.1491    
    360000   301.43494      0.036          0.0048282854  -48.282854      32.022588     -34.264004      156.85957      146.04654      148.1353      -97165.517      7305.579       8536.6447      3412.1683    
    361000   300.65254      0.0361         0.0015557252  -15.557252     -12.629616      3.6606737      156.87471      145.95142      148.18512     -97187.621      7386.8238      8570.4445      3407.9672    
    362000   299.85568      0.0362         0.00030471536 -3.0471536     -1.671772       0.035113395    156.88985      145.99668      148.29955     -96913.218      7309.4487      8768.7819      3394.063     
    363000   299.92862      0.0363         0.0012259186  -12.259186      0.069702862   -37.720633      156.90499      146.3712       147.95995     -96935.291      7341.5395      8555.9588      3396.0498    
    364000   299.46239      0.0364         0.0039194194  -39.194194     -26.654246      13.106143      156.92013      146.14729      147.82483     -97288.071      7473.4046      8833.9989      3403.7768    
    365000   299.64763      0.0365         0.0036960758  -36.960758      6.5937564     -9.3464816      156.93527      146.11783      147.90985     -97202.262      7314.8598      8721.0401      3416.2216    
    366000   300.06703      0.0366         0.00026810078 -2.6810078     -8.4301926      3.7880505      156.95041      146.39137      147.79484     -96986.598      7398.4276      8593.0765      3415.9619    
    367000   300.57044      0.0367        -0.0011168016   11.168016      23.00427       10.601104      156.96555      146.16849      148.07765     -96871.22       7444.511       8571.2021      3436.7914    
    368000   299.73712      0.0368         0.0048335267  -48.335267      23.36624      -24.694117      156.98069      146.04016      148.14585     -96996.632      7388.896       8557.6984      3432.3335    
    369000   299.62118      0.0369        -0.0020586202   20.586202      0.22766576    -14.261307      156.99583      145.84156      148.19833     -97087.338      7386.577       8561.1388      3440.4095    
    370000   299.0162       0.037         -0.0016145291   16.145291     -3.6087055     -20.788155      157.01098      145.94943      148.07094     -97058.656      7430.4171      8511.6965      3459.413     
    371000   299.66999      0.0371        -0.00030613018  3.0613018     -9.2009203     -10.220445      157.02612      145.72641      148.3707      -97029.551      7416.3508      8649.4014      3427.6826    
    372000   300.38096      0.0372        -0.0036148089   36.148089      9.2097803     -15.750133      157.04126      145.83108      148.29097     -96981.105      7385.3248      8462.3214      3451.3631    
    373000   300.51096      0.0373         0.0054173109  -54.173109     -47.850909     -0.2192593      157.0564       146.08463      147.99769     -97136.763      7412.8241      8458.6507      3452.06      
    374000   300.0988       0.0374         0.0028204086  -28.204086      7.3624378     -9.2450738      157.07154      145.95851      147.96793     -97178.003      7376.3432      8501.9487      3445.2753    
    375000   301.10078      0.0375         0.001777327   -17.77327       34.066778      8.676412       157.08668      145.7598       147.99708     -97260.937      7433.0656      8583.8542      3458.0044    
    376000   301.12161      0.0376         0.0028291372  -28.291372     -40.688719     -17.908667      157.10182      145.60964      148.19222     -97310.091      7475.0336      8703.1255      3461.0992    
    377000   300.09857      0.0377        -0.0042958937   42.958937      11.413081     -19.843146      157.11696      145.71581      148.15475     -97128.829      7392.2918      8465.4378      3453.279     
    378000   297.78304      0.0378        -0.0030628309   30.628309     -5.7049334      12.516674      157.1321       145.54106      148.11242     -97179.784      7470.7699      8570.6137      3442.1396    
    379000   299.74568      0.0379        -0.0044251594   44.251594     -4.0302461     -2.1403167      157.14724      145.70215      148.30527     -97024.558      7354.5363      8533.6627      3457.7965    
    380000   299.62999      0.038          0.0019323798  -19.323798      9.0488699      15.270836      157.16238      145.87981      148.08952     -96973.096      7313.957       8468.7816      3456.8293    
    381000   299.93945      0.0381         0.0025404445  -25.404445     -2.6276064     -21.054001      157.17753      145.72173      148.25595     -97013.551      7298.6943      8594.0605      3448.1479    
    382000   300.33299      0.0382        -0.0015808328   15.808328     -4.0179353     -23.712803      157.19267      145.50522      148.15669     -97237.365      7361.607       8728.1275      3431.0812    
    383000   299.15604      0.0383         0.0029917635  -29.917635     -0.46697414    -19.892595      157.20781      145.39642      148.22727     -97340.605      7432.5427      8759.7176      3426.8669    
    384000   299.66032      0.0384         0.0027703102  -27.703102      2.1420902      59.191714      157.22295      145.57762      148.21804     -97018.952      7394.0104      8590.5523      3452.4696    
    385000   300.58434      0.0385        -0.00010956606  1.0956606      29.923669     -40.004762      157.23809      145.54693      148.37258     -96951.921      7348.0608      8467.1522      3454.2123    
    386000   299.95575      0.0386         0.0013850189  -13.850189     -3.9395848     -3.8600532      157.25323      145.69224      148.0731      -97179.822      7417.8323      8577.7446      3450.1022    
    387000   299.21093      0.0387         0.0011901576  -11.901576     -0.81182811     6.7989659      157.26837      145.81002      147.98708     -97006.748      7375.6607      8492.8548      3422.8867    
    388000   299.91571      0.0388         0.0068709662  -68.709662     -13.357272     -10.776149      157.28351      145.80185      147.95085     -97220.083      7442.3063      8649.6454      3435.983     
    389000   299.78674      0.0389         0.0031603983  -31.603983     -4.3822594      23.577016      157.29865      145.61401      147.92861     -97209.755      7314.5302      8666.7614      3463.9613    
    390000   299.68061      0.039         -0.0027648819   27.648819      2.661921      -8.9508624      157.31379      145.60125      148.02512     -97158.492      7385.2014      8557.1271      3445.328     
    391000   299.6406       0.0391         0.00057783103 -5.7783103     -28.821338     -22.884828      157.32893      145.54165      148.2888      -97072.516      7412.4923      8668.0028      3436.884     
    392000   300.58561      0.0392         6.0780578e-06 -0.060780578   -15.149088     -4.098777       157.34407      145.39528      148.18231     -97268.658      7424.6143      8602.9227      3417.7303    
    393000   299.82297      0.0393         0.0020673601  -20.673601     -25.821938      11.573539      157.35922      145.74893      147.68857     -97371.555      7383.4662      8621.8624      3452.5696    
    394000   299.54843      0.0394        -0.0015405344   15.405344     -9.186582      -12.681392      157.37436      145.66436      148.00252     -97260.035      7402.8204      8636.5198      3458.1935    
    395000   298.87545      0.0395        -0.0023222608   23.222608      0.12480811    -5.802417       157.3895       145.47098      147.73415     -97441.907      7404.8035      8756.2705      3455.6345    
    396000   300.96503      0.0396         0.00037308573 -3.7308573     -6.9713442      4.9196267      157.40464      145.58318      147.68932     -97484.064      7396.2478      8549.3467      3457.8751    
    397000   300.87946      0.0397        -0.0028561352   28.561352     -1.4356452      8.6819543      157.41978      145.48053      147.95935     -97229.907      7323.1947      8736.9651      3467.2497    
    398000   300.97454      0.0398        -0.00084086443  8.4086443      9.9021186     -25.888848      157.43492      145.50658      147.87719     -97351.316      7271.4601      8595.8751      3444.9537    
    399000   300.98485      0.0399         0.00042705803 -4.2705803     -7.0649073     -14.089081      157.45006      145.83292      147.77573     -97255.628      7322.7016      8538.3681      3454.8192    
    400000   299.95911      0.04           0.0060999949  -60.999949     -30.182725     -23.622226      157.4652       145.82542      147.72138     -97297.796      7381.9337      8673.4072      3467.0155    
    401000   301.30641      0.0401         0.0060161501  -60.161501     -18.829429     -14.355394      157.48034      145.8743       147.58301     -97306.045      7305.1243      8722.5451      3468.6432    
    402000   299.04217      0.0402         0.0043624706  -43.624706      43.209454      19.490196      157.49548      145.49673      148.05007     -97066.499      7389.1266      8587.0262      3477.5988    
    403000   301.29368      0.0403         0.0027987638  -27.987638      45.152392      5.0307576      157.51062      145.6427       147.92642     -97056.193      7296.291       8663.0457      3463.6879    
    404000   298.64149      0.0404         0.0036217613  -36.217613     -29.807398     -1.749594       157.52577      145.70145      147.92714     -97051.116      7536.1752      8740.7558      3444.1072    
    405000   299.96502      0.0405         0.00077473355 -7.7473355     -1.4566009      34.205497      157.54091      145.4639       147.8143      -97264.966      7344.7134      8692.5813      3446.0081    
    406000   298.91621      0.0406         0.00077423709 -7.7423709      1.1215367     -2.4376081      157.55605      145.39143      148.03131     -97186.936      7305.8314      8645.5931      3459.0848    
    407000   299.20108      0.0407         0.0018821748  -18.821748      13.642861     -10.302063      157.57119      145.12621      148.22298     -97225.705      7446.5946      8711.8722      3459.4654    
    408000   300.63131      0.0408         0.0013077353  -13.077353      5.7749849     -20.105866      157.58633      145.33923      148.30983     -96993.662      7305.4828      8535.0733      3447.0773    
    409000   299.13593      0.0409        -0.00027660702  2.7660702      5.3486796      20.162291      157.60147      145.15658      148.35321     -97094.209      7413.8543      8621.7889      3462.108     
    410000   298.63678      0.041          0.0050127576  -50.127576     -1.4303004     -36.496385      157.61661      145.21239      148.57612     -96846.227      7353.478       8619.5703      3460.3262    
    411000   299.40701      0.0411        -0.00012153659  1.2153659      4.6030558      17.469469      157.63175      145.35569      148.38132     -96839.765      7329.5265      8390.6525      3471.0898    
    412000   301.15099      0.0412        -0.00036998311  3.6998311     -4.9327859     -9.5248852      157.64689      145.08338      148.55257     -96959.56       7263.9651      8529.8302      3463.9928    
    413000   299.79592      0.0413         0.0071441736  -71.441736      0.65399371    -6.9928208      157.66203      145.39543      148.31363     -96828.474      7332.7972      8536.3593      3466.9943    
    414000   299.16276      0.0414         0.0044412425  -44.412425      35.42237      -26.312267      157.67717      145.45287      148.10855     -97047.35       7449.2053      8691.0138      3461.9887    
    415000   300.68972      0.0415         0.0042822682  -42.822682      3.8639637      0.043057609    157.69232      145.68763      147.82491     -97029.173      7294.848       8588.2124      3464.2822    
    416000   300.02697      0.0416        -0.0023228332   23.228332      1.2771559      10.409403      157.70746      145.45193      147.88037     -97102.097      7354.7081      8584.8297      3462.7994    
    417000   300.36378      0.0417         0.0021435879  -21.435879      11.996577     -16.583659      157.7226       145.308        148.03138     -97163.02       7305.6816      8529.3993      3461.0146    
    418000   299.81974      0.0418         0.0072705608  -72.705608     -4.1655178      9.1838525      157.73774      145.24983      148.18352     -97066.176      7365.3172      8604.2354      3463.6657    
    419000   301.29908      0.0419         0.008285093   -82.85093       18.520458     -28.733082      157.75288      145.0377       148.33726     -97176.651      7235.6271      8563.2146      3471.3338    
    420000   300.41699      0.042          0.0065311289  -65.311289     -20.026114      2.0962         157.76802      144.97689      148.50207     -97121.841      7464.9735      8558.9619      3441.4384    
    421000   299.1349       0.0421         0.002370811   -23.70811       40.627925      10.571306      157.78316      144.84215      148.52143     -96993.723      7372.6032      8590.1876      3451.4426    
    422000   300.70913      0.0422         0.0019896729  -19.896729      13.335063      50.59462       157.7983       144.87889      148.27413     -97214.641      7321.3754      8540.5667      3448.2911    
    423000   299.65199      0.0423         0.0068144651  -68.144651     -10.992856     -0.64858302     157.81344      144.86964      148.54486     -96998.667      7350.0307      8401.8901      3457.2825    
    424000   299.16863      0.0424         0.0039807102  -39.807102      2.262188       13.51197       157.82858      144.65213      148.47508     -97169.33       7388.3728      8496.1599      3437.4955    
    425000   300.06284      0.0425         0.0016916034  -16.916034      1.4359082     -22.699152      157.84372      144.71571      148.45733     -97311.717      7397.0714      8663.3105      3449.2006    
    426000   298.79263      0.0426        -0.00028456162  2.8456162      4.880123       36.442494      157.85887      144.79059      148.14402     -97422.585      7445.1994      8628.0584      3451.2709    
    427000   300.82073      0.0427         0.00097497906 -9.7497906      6.8349744     -10.903575      157.87401      144.71575      148.34564     -97356.146      7330.6005      8551.7856      3459.6916    
    428000   298.66541      0.0428         0.00094823637 -9.4823637      0.59366517     3.3389565      157.88915      144.85038      148.29155     -97240.549      7473.9615      8579.2436      3453.7316    
    429000   298.65261      0.0429        -0.0012702892   12.702892     -0.37706033     5.7003273      157.90429      144.70763      148.41227     -97155.956      7450.9282      8500.8992      3454.281     
    430000   299.55603      0.043          0.0026683768  -26.683768     -9.7125921     -3.3673807      157.91943      144.82839      148.28987     -97189.046      7418.8394      8666.9651      3466.3226    
    431000   299.78568      0.0431         0.0053096129  -53.096129     -19.175626      10.092242      157.93457      144.76413      148.5727      -97018.351      7432.9116      8358.5275      3459.3429    
    432000   301.05066      0.0432        -0.00065938007  6.5938007      41.649335      25.407271      157.94971      144.2907       148.44094     -97583.006      7429.9863      8449.7994      3460.8612    
    433000   300.32709      0.0433         0.001722495   -17.22495       8.5923792      13.4511        157.96485      144.39253      148.35221     -97495.239      7360.2425      8565.9297      3439.7635    
    434000   299.21131      0.0434        -0.0040241072   40.241072     -29.210738     -4.3857375      157.97999      144.40508      148.59668     -97263.469      7491.7955      8530.6809      3434.0614    
    435000   300.34943      0.0435        -3.9543263e-05  0.39543263     16.445528      3.617704       157.99513      144.35826      148.64691     -97306.648      7386.0842      8629.7781      3441.0993    
    436000   298.82795      0.0436         0.0026412283  -26.412283     -1.3569061      8.6579748      158.01027      144.27761      148.68016     -97262.876      7473.2627      8577.4698      3442.5893    
    437000   302.00245      0.0437         0.0034921899  -34.921899     -1.1210945      2.1020111      158.02541      144.71662      148.28783     -97267.207      7301.6827      8572.8694      3447.2011    
    438000   300.56604      0.0438         0.0031036369  -31.036369     -20.010486      0.96697563     158.04056      144.90898      148.37012     -97069.888      7365.0069      8504.151       3425.2194    
    439000   298.88335      0.0439         0.0028484422  -28.484422      1.7661696     -8.8221977      158.0557       144.6488       148.44478     -97087.182      7352.305       8491.3572      3442.9827    
    440000   299.54032      0.044          0.0010559245  -10.559245      31.410856      31.599995      158.07084      144.55941      148.17621     -97360.792      7347.4435      8706.7384      3414.4742    
    441000   298.8818       0.0441        -0.0014764291   14.764291     -15.336515      39.623622      158.08598      144.40429      148.29212     -97380.783      7471.8999      8654.5509      3413.0129    
    442000   299.82686      0.0442        -0.0034276948   34.276948      28.24928      -14.259839      158.10112      144.45392      148.38551     -97316.294      7415.547       8574.3243      3412.3126    
    443000   300.72018      0.0443        -0.003988061    39.88061       0.82288134     26.240079      158.11626      144.42418      148.29548     -97366.669      7397.3658      8697.8071      3404.6443    
    444000   299.69642      0.0444         0.0031580664  -31.580664     -1.9681091      0.34086518     158.1314       144.72042      148.24276     -97130.301      7376.4581      8595.9799      3401.3142    
    445000   298.75065      0.0445         0.0041528791  -41.528791     -14.024759      7.657698       158.14654      144.84203      148.2129      -97073.098      7422.6223      8571.2273      3413.2362    
    446000   299.97683      0.0446         0.0026328267  -26.328267     -7.3877495      5.8797839      158.16168      144.74029      148.37079     -96996.477      7397.2788      8619.4092      3402.61      
    447000   298.94334      0.0447         0.001299909   -12.99909       0.55140131    -8.5055268      158.17682      144.69971      148.2908      -97024.101      7336.7669      8590.3068      3433.9467    
    448000   300.6566       0.0448        -0.00086273927  8.6273927      20.088411     -14.842999      158.19196      144.40104      148.43632     -97320.857      7397.936       8607.6274      3425.1694    
    449000   301.62904      0.0449        -0.003502141    35.02141      -12.609132     -0.67378138     158.20711      144.52136      148.42182     -97155.704      7316.3146      8418.7696      3427.9357    
    450000   299.22627      0.045          9.7103274e-05 -0.97103274    -7.8092098      21.946807      158.22225      144.3632       148.52925     -97157.548      7354.4443      8697.784       3411.9366    
    451000   299.9302       0.0451         0.0020218519  -20.218519     -5.4310265      26.417767      158.23739      144.08958      148.54217     -97332.567      7284.1855      8670.3271      3401.9591    
    452000   300.81935      0.0452         0.0015975991  -15.975991      26.452888     -6.3164669      158.25253      144.26722      148.62725     -97073.144      7300.5292      8614.9267      3416.23      
    453000   298.33801      0.0453         0.0011286302  -11.286302      31.976274      3.5824793      158.26767      144.0044       148.66557     -97147.086      7343.1451      8604.4695      3403.9016    
    454000   300.77792      0.0454         0.0043228583  -43.228583      13.331623     -30.212858      158.28281      144.03707      148.78844     -97219.318      7342.8734      8571.294       3418.2793    
    455000   300.45599      0.0455        -0.00079471263  7.9471263     -30.027989      19.503964      158.29795      144.03487      148.7247      -97278.032      7399.7371      8634.7399      3422.4805    
    456000   300.46225      0.0456         0.0066354372  -66.354372     -10.298233      2.5098549      158.31309      144.21525      148.74025     -97056.977      7349.0984      8544.1342      3410.13      
    457000   300.75769      0.0457         0.00070682703 -7.0682703      0.21724582     28.191403      158.32823      144.17961      148.77316     -96955.448      7257.0438      8490.2999      3409.5652    
    458000   300.64415      0.0458        -0.0038289758   38.289758      5.7718801      30.015033      158.34337      143.99413      148.67518     -97203.249      7341.7962      8642.2668      3410.5982    
    459000   299.45866      0.0459         0.0047822224  -47.822224     -0.19845075     16.515241      158.35851      144.23287      148.58455     -97135.148      7364.2603      8747.9783      3425.3432    
    460000   298.15533      0.046         -0.0013872586   13.872586      8.550288       5.08304        158.37366      143.9329       148.75121     -97138.694      7373.1523      8700.6154      3444.1825    
    461000   299.92001      0.0461         0.002438835   -24.38835       15.368821     -19.391784      158.3888       143.69065      148.96859     -97309.436      7458.2689      8753.908       3419.6435    
    462000   298.69856      0.0462         0.0044100445  -44.100445      3.9921853     -16.703069      158.40394      143.80575      148.87945     -97171.211      7456.0776      8613.133       3433.6984    
    463000   300.72957      0.0463         0.0053202767  -53.202767      8.1304004     -14.045187      158.41908      144.07275      148.6815      -97105.476      7403.5302      8547.6601      3438.0454    
    464000   300.33018      0.0464         0.0023024653  -23.024653     -21.122096      5.9628577      158.43422      143.92933      148.84211     -97136.911      7342.6408      8679.7885      3450.2651    
    465000   300.29158      0.0465        -0.00018088591  1.8088591     -6.887076       31.638428      158.44936      143.68449      148.95097     -97012.981      7372.0464      8644.0357      3454.8922    
    466000   299.3195       0.0466         0.00094553281 -9.4553281      0.17155132     16.394104      158.4645       143.843        148.71693     -97211.99       7460.4938      8600.5082      3456.5007    
    467000   299.63284      0.0467        -0.00037269129  3.7269129     -9.7197387     -13.385301      158.47964      143.95176      148.7815      -97116.43       7509.0522      8519.0893      3453.5771    
    468000   298.84954      0.0468        -0.0039942584   39.942584      15.357058     -4.0754064      158.49478      143.75414      148.57199     -97289.983      7430.8668      8651.8217      3432.9403    
    469000   300.04003      0.0469         0.0029704866  -29.704866     -10.482881      1.2928272      158.50992      144.11284      148.48944     -97152.935      7316.8037      8588.8646      3450.4853    
    470000   300.31013      0.047         -0.00032913625  3.2913625     -13.295222      16.801127      158.52506      144.36599      148.21994     -97102.339      7403.297       8591.5367      3462.7156    
    471000   298.67016      0.0471        -0.0056926018   56.926018     -1.7522258      11.750917      158.5402       144.34503      148.16432     -97105.448      7415.0826      8636.0186      3455.2182    
    472000   298.74995      0.0472        -0.0022846477   22.846477      4.75917        11.086878      158.55535      144.29942      148.47129     -96894.631      7391.4792      8555.3032      3442.9386    
    473000   299.41135      0.0473        -0.0011280848   11.280848      12.974011     -19.851537      158.57049      143.99396      148.50858     -97165.593      7492.208       8628.8145      3434.3453    
    474000   301.42969      0.0474        -0.0074753283   74.753283     -4.1295225     -2.2546608      158.58563      144.0493       148.22962     -97262.248      7271.6693      8813.0904      3431.9494    
    475000   301.27896      0.0475        -0.0056657552   56.657552     -28.296031     -1.2195525      158.60077      144.18128      148.03052     -97458.66       7378.787       8712.8022      3420.0517    
    476000   299.64239      0.0476        -0.0025208413   25.208413      8.8562726     -15.939063      158.61591      144.26221      148.34343     -97076.603      7329.72        8571.2307      3422.5991    
    477000   299.55824      0.0477        -0.0029250694   29.250694     -19.112914      35.727834      158.63105      144.43216      147.90495     -97170.764      7386.1986      8643.3244      3419.9875    
    478000   299.02056      0.0478         0.0019754726  -19.754726     -2.3656494     -5.0226934      158.64619      144.6069       147.91051     -97007.973      7381.3125      8648.4226      3421.7108    
    479000   299.00156      0.0479         0.0025793863  -25.793863     -1.4418566      18.811125      158.66133      144.68399      147.85306     -97028.476      7425.8031      8656.6619      3416.0511    
    480000   300.94355      0.048          0.0049653959  -49.653959      22.467653      21.057235      158.67647      144.67801      147.87233     -97061.02       7367.3265      8471.3394      3414.2391    
    481000   301.33074      0.0481         0.004911586   -49.11586       22.420572      7.5952151      158.69161      144.80207      147.94665     -96944.856      7266.1264      8580.7942      3405.7144    
    482000   300.64051      0.0482        -0.0020403711   20.403711      10.294284      27.309189      158.70675      144.78426      147.93285     -96734.301      7351.7745      8523.9542      3401.2606    
    483000   300.46507      0.0483         0.0032675084  -32.675084     -28.330444      21.471593      158.7219       144.74558      147.91383     -96815.183      7396.1031      8585.6092      3389.0673    
    484000   298.85136      0.0484         0.0001928782  -1.928782       6.0209718     -13.477863      158.73704      144.60545      147.80736     -97028.639      7374.192       8770.4116      3393.3149    
    485000   299.58513      0.0485         0.00055778379 -5.5778379      7.0469945      28.948773      158.75218      144.46726      147.80682     -97236.64       7409.4437      8699.7154      3394.3367    
    486000   298.76381      0.0486         0.00044538387 -4.4538387     -5.0506909     -10.687368      158.76732      144.53465      147.90039     -97088.923      7466.3434      8595.2857      3414.6782    
    487000   300.06381      0.0487        -0.0023809368   23.809368     -13.160256      23.537496      158.78246      144.58787      147.61886     -97115.392      7425.5484      8665.8708      3418.6806    
    488000   299.46082      0.0488         0.0032753496  -32.753496     -3.148077      -35.773745      158.7976       144.44443      147.95282     -97183.77       7457.4087      8751.1231      3411.0009    
    489000   300.08454      0.0489         7.5511582e-05 -0.75511582     23.187913     -11.056555      158.81274      144.40055      147.65599     -97352.923      7372.2511      8792.7866      3401.2818    
    490000   300.58746      0.049          0.00077949928 -7.7949928     -42.526236     -12.080214      158.82788      144.44162      148.04432     -97060.282      7344.7836      8678.2579      3412.9067    
    491000   300.87245      0.0491        -0.0024943513   24.943513      22.60586      -9.7583988      158.84302      144.6283       147.53487     -97313.861      7375.2379      8721.6861      3415.5732    
    492000   299.96565      0.0492        -0.0013101247   13.101247      51.840379     -23.088031      158.85816      144.56777      147.36073     -97436.08       7338.0188      8876.772       3412.3183    
    493000   299.55716      0.0493         0.0011472071  -11.472071      12.433598      30.744349      158.8733       144.87853      147.3571      -97144.786      7356.0063      8748.9426      3409.9167    
    494000   299.21284      0.0494         0.0040164761  -40.164761     -36.263674      5.5747876      158.88845      145.00806      147.38342     -96980.642      7432.9019      8536.1306      3417.0591    
    495000   300.26896      0.0495        -0.0010177667   10.177667      9.5491694     -11.302227      158.90359      144.65827      147.61745     -97166.531      7428.8047      8686.2837      3422.3012    
    496000   298.86142      0.0496         0.0027945728  -27.945728     -20.730094      9.0192366      158.91873      144.94535      147.25833     -97209.496      7448.3169      8712.522       3429.8588    
    497000   302.12435      0.0497         0.0023618572  -23.618572     -33.364251      12.610943      158.93387      145.13038      146.8615      -97407.232      7246.2851      8820.9867      3424.9814    
    498000   299.21548      0.0498         0.00069985244 -6.9985244     -6.3013519      6.0833238      158.94901      145.22223      146.98704     -97064.109      7377.5962      8658.2049      3425.1617    
    499000   299.66554      0.0499         0.0080600023  -80.600023     -24.495593     -10.827351      158.96415      145.01001      147.20748     -97187.119      7406.2723      8669.4803      3432.8219    
    500000   300.26695      0.05           0.0026326023  -26.326023     -5.1560723      45.136435      158.97929      145.3672       146.79373     -97100.316      7370.5134      8613.4779      3426.1084    
    501000   298.66811      0.0501         0.0011332656  -11.332656     -7.132177       18.480303      158.99443      145.10709      147.09617     -96989.505      7474.8019      8658.5087      3421.5613    
    502000   299.45482      0.0502        -0.0033998462   33.998462      40.845878      12.728791      159.00957      144.60139      147.39063     -97165.48       7348.3255      8667.3302      3411.5261    
    503000   300.20864      0.0503        -0.00012600059  1.2600059     -39.013874      29.105059      159.02471      144.7142       147.46465     -97088.545      7321.2379      8463.9498      3413.4866    
    504000   299.34368      0.0504         0.0015307137  -15.307137      16.668395      2.7596324      159.03985      144.41002      147.68778     -97092.969      7370.0517      8492.4975      3426.9305    
    505000   300.64087      0.0505        -0.0058002781   58.002781      11.120284     -24.335566      159.05499      144.00865      148.08953     -97179.52       7335.3767      8684.6687      3419.3234    
    506000   298.39601      0.0506        -0.00018782492  1.8782492      21.849941      2.2385454      159.07014      144.26697      147.83192     -97074.244      7342.9463      8531.892       3439.1751    
    507000   298.12082      0.0507        -0.0029303505   29.303505     -9.4521736      9.9494052      159.08528      144.5258       147.67003     -96878.07       7332.5906      8524.2751      3451.0795    
    508000   298.83132      0.0508         0.0013633682  -13.633682     -16.591448     -11.217711      159.10042      144.47036      147.9946      -96830.114      7352.8232      8565.0673      3449.0216    
    509000   299.48244      0.0509         0.0026392539  -26.392539     -6.9816139      18.364721      159.11556      144.21255      147.90123     -96929.967      7280.5642      8578.7606      3466.9579    
    510000   300.8035       0.051          0.0041299511  -41.299511      12.863057     -4.7951989      159.1307       144.31427      147.88151     -96998.318      7296.9228      8645.8807      3470.1531    
    511000   299.90951      0.0511         0.0039828528  -39.828528      9.1239434     -33.491589      159.14584      144.18372      147.94272     -97015.396      7318.72        8573.904       3469.9674    
    512000   300.60397      0.0512        -0.0025478589   25.478589     -13.39971       12.687492      159.16098      144.41236      147.98138     -96703.317      7266.9203      8563.313       3460.1972    
    513000   300.09519      0.0513        -0.0026284527   26.284527      37.956764      29.507757      159.17612      143.94831      148.05144     -96962.031      7360.0907      8604.6534      3440.0079    
    514000   299.03083      0.0514         0.004414482   -44.14482      -15.9073        8.8847365      159.19126      144.12873      148.11255     -96856.152      7370.5401      8520.0259      3446.8878    
    515000   298.54225      0.0515         0.002676671   -26.76671       0.73633981     40.060112      159.2064       143.97403      148.35994     -96764.173      7367.5244      8545.8522      3446.8902    
    516000   300.68483      0.0516         0.0046890574  -46.890574     -8.0076121     -0.55726683     159.22154      143.82691      148.2484      -97023.118      7338.6569      8657.0257      3451.7499    
    517000   300.12247      0.0517        -0.0035925884   35.925884     -9.932483      -0.80795667     159.23669      144.12344      148.0139      -97041.647      7356.0443      8606.9391      3450.4383    
    518000   300.2378       0.0518         0.004483636   -44.83636       23.620343      15.129828      159.25183      144.24263      147.87351     -96939.138      7336.2141      8501.9358      3453.8786    
    519000   299.4193       0.0519         0.0040297287  -40.297287      36.302152     -21.571129      159.26697      144.16121      147.96379     -96850.985      7321.9513      8468.853       3447.4612    
    520000   300.85018      0.052          0.0028308267  -28.308267     -32.004476     -1.0970316      159.28211      144.23184      147.65791     -97229.506      7329.3911      8743.5132      3468.4885    
    521000   300.05584      0.0521        -0.0013106538   13.106538     -35.529596     -2.1459261      159.29725      144.06787      147.64053     -97338.557      7294.131       8763.1123      3480.841     
    522000   300.32488      0.0522         0.00098467347 -9.8467347     -23.34417       6.7936701      159.31239      143.74865      148.04498     -97236.032      7382.3214      8634.8516      3473.4276    
    523000   300.23608      0.0523        -0.0010669206   10.669206      0.0093306789  -0.56253916     159.32753      143.91222      148.01228     -97097.374      7478.9493      8690.8776      3472.0305    
    524000   299.08563      0.0524         0.0044957608  -44.957608     -3.8535554     -13.224351      159.34267      143.88709      148.15735     -96912.578      7348.7017      8547.4403      3465.7958    
    525000   299.83925      0.0525         0.0047235581  -47.235581      12.882186     -42.628057      159.35781      143.8307       148.10128     -97099.772      7402.5467      8565.5046      3499.6776    
    526000   299.95984      0.0526         0.0030715838  -30.715838     -9.2262554      9.6751135      159.37295      143.93471      147.72616     -97309.233      7444.2124      8702.2678      3485.6302    
    527000   298.72283      0.0527         0.0024016337  -24.016337     -2.4619872      6.4724856      159.38809      144.05537      147.70633     -97060.665      7427.3116      8604.2311      3491.7223    
    528000   298.52958      0.0528         0.008518185   -85.18185      -19.087628      16.701835      159.40324      144.0292       147.74921     -97241.775      7467.9909      8648.2197      3504.0495    
    529000   300.72612      0.0529         0.00018876618 -1.8876618      20.617345     -6.5609089      159.41838      144.19732      147.71537     -96932.937      7360.6736      8602.8665      3487.7927    
    530000   300.37892      0.053          0.00038898991 -3.8898991     -6.771845       21.139114      159.43352      144.0026       148.03512     -96866.998      7312.7741      8666.6899      3461.2078    
    531000   300.67753      0.0531         0.00086030351 -8.6030351      36.555302     -2.6322775      159.44866      143.77811      148.27351     -96825.98       7367.7225      8682.1888      3453.2715    
    532000   299.28946      0.0532         0.0038033551  -38.033551     -52.632427      17.556575      159.4638       144.23017      147.80923     -96850.233      7365.9766      8740.4537      3460.6534    
    533000   299.69801      0.0533         0.0028346177  -28.346177     -17.078463      7.1852619      159.47894      144.05534      148.04408     -96794.09       7433.7079      8570.1088      3464.4527    
    534000   299.36353      0.0534        -0.0014844199   14.844199      13.046503      7.1711697      159.49408      144.24503      147.62954     -96982.108      7305.5891      8622.965       3461.2342    
    535000   299.46508      0.0535         0.0048680823  -48.680823     -16.720183     -31.644278      159.50922      144.14104      147.78066     -96938.173      7310.2162      8543.244       3469.1037    
    536000   300.14225      0.0536        -0.0025853507   25.853507     -6.1143542      26.132747      159.52436      144.25982      147.79862     -96688.96       7303.4079      8590.9676      3466.1025    
    537000   299.44165      0.0537        -0.0019499534   19.499534      11.526139      4.7835542      159.5395       143.78419      147.99263     -96859.102      7386.8453      8439.907       3443.6452    
    538000   299.29171      0.0538         0.0041552836  -41.552836     -12.524516      4.2857195      159.55464      143.83085      148.20649     -96791.057      7390.1859      8565.3294      3445.0328    
    539000   298.73755      0.0539        -0.0020613262   20.613262      7.056501      -24.024309      159.56979      143.95563      147.82791     -96913.079      7405.4087      8602.1449      3461.8266    
    540000   300.38012      0.054          0.0014463436  -14.463436      17.410122      6.1225704      159.58493      143.92716      147.6888      -97162.214      7391.4901      8676.4632      3445.7839    
    541000   300.78406      0.0541        -0.001691196    16.91196       18.756646     -5.9990291      159.60007      143.95273      147.6539      -97024.102      7267.8504      8631.4463      3444.3515    
    542000   298.58397      0.0542         0.002501899   -25.01899      -21.40305       2.5829035      159.61521      143.82231      147.72561     -97099.251      7351.4686      8700.309       3453.6223    
    543000   300.33944      0.0543         0.0016282201  -16.282201     -32.825041      0.77510276     159.63035      143.98017      147.42537     -97366.837      7369.2385      8743.5725      3452.4472    
    544000   298.91475      0.0544         0.0040474427  -40.474427      9.04381       -12.574033      159.64549      143.95075      147.72677     -97080.341      7429.9449      8566.1715      3456.7612    
    545000   301.07615      0.0545        -0.0035316119   35.316119     -4.0845161      6.0076278      159.66063      143.80028      147.4558      -97325.292      7350.976       8710.5609      3441.3561    
    546000   297.53438      0.0546         0.001802664   -18.02664       20.033471     -16.803076      159.67577      143.85511      147.74675     -97057.472      7466.9919      8628.1052      3473.2952    
    547000   299.84887      0.0547         0.0031097037  -31.097037     -18.804448      25.350311      159.69091      143.96359      147.67903     -97001.538      7339.0176      8611.6772      3482.4461    
    548000   299.69884      0.0548        -0.0019676635   19.676635      1.2668176      24.370615      159.70605      143.58948      148.0031      -96926.39       7418.5292      8633.9068      3462.5238    
    549000   299.95103      0.0549         0.00075431113 -7.5431113     -3.329505      -1.5294899      159.72119      143.77576      147.94183     -96888.262      7383.984       8554.0663      3470.1268    
    550000   299.77564      0.055          0.0034872912  -34.872912     -13.616397     -17.185368      159.73633      144.0861       147.76489     -96827.519      7420.5468      8553.275       3470.2614    
    551000   301.30093      0.0551         0.0025791832  -25.791832     -21.695911     -0.18968583     159.75148      144.14216      147.44477     -97085.449      7355.5473      8593.5794      3478.5471    
    552000   300.11844      0.0552         0.0040162217  -40.162217      28.385456      2.2276687      159.76662      143.9482       147.3743      -97197.586      7401.0647      8641.2204      3469.8488    
    553000   299.69979      0.0553         0.0047146544  -47.146544     -3.2451467      9.152636       159.78176      143.99896      147.49249     -97037.919      7323.5334      8693.7375      3459.3101    
    554000   300.42301      0.0554         0.0014574649  -14.574649      12.490534      12.367984      159.7969       143.53875      147.68326     -97315.08       7339.7708      8637.1691      3449.6858    
    555000   298.92974      0.0555        -0.0020742701   20.742701      28.719791      23.495371      159.81204      143.89268      147.38156     -97043.514      7466.4364      8654.525       3441.8817    
    556000   299.78494      0.0556         0.0020064353  -20.064353      10.700912     -7.3085431      159.82718      144.04149      147.32997     -96996.784      7346.7821      8729.4862      3447.0001    
    557000   299.00284      0.0557         0.0019496899  -19.496899      4.2242402     -20.0734        159.84232      143.96449      147.42216     -97035.404      7373.4182      8634.3293      3405.7689    
    558000   299.59937      0.0558         0.0078259321  -78.259321     -5.3249663     -22.336204      159.85746      143.98187      147.38883     -97181.567      7413.3432      8784.9887      3418.3159    
    559000   300.64594      0.0559         0.0020707925  -20.707925     -4.5186056     -9.3120178      159.8726       144.13171      147.17161     -97186.371      7224.2047      8752.1264      3417.5804    
    560000   299.76244      0.056          0.0011779344  -11.779344      19.662213      21.605         159.88774      144.31453      147.0537      -96941.511      7350.5599      8529.9315      3400.0942    
    561000   300.67565      0.0561         0.0015947766  -15.947766     -27.903917     -20.694627      159.90288      144.52396      146.94806     -97053.573      7276.5403      8629.6668      3403.5009    
    562000   297.54028      0.0562         0.0034301937  -34.301937     -10.45075       19.900762      159.91803      144.20721      147.15538     -96919.83       7401.0551      8617.2615      3399.4203    
    563000   301.12382      0.0563        -0.0023388943   23.388943      14.754408     -28.303184      159.93317      144.34974      147.15281     -96938.404      7274.471       8586.9056      3401.2665    
    564000   299.35454      0.0564        -0.00027672292  2.7672292      17.192105      8.974661       159.94831      144.27423      146.97812     -97156.111      7425.1243      8751.4544      3395.9132    
    565000   299.69109      0.0565         0.0032383104  -32.383104     -9.393921       28.047995      159.96345      144.7172       146.653       -96928.911      7328.6929      8652.8305      3388.3275    
    566000   299.29689      0.0566         0.0011239753  -11.239753     -25.372849      17.51739       159.97859      144.48281      146.99763     -96885.723      7397.3782      8586.0001      3393.0978    
    567000   300.3034       0.0567         0.003977058   -39.77058      -21.579855     -21.672078      159.99373      144.5217       146.75664     -97123.912      7320.2183      8732.1512      3393.8615    
    568000   299.65047      0.0568        -0.0031078057   31.078057      23.397056      9.603998       160.00887      144.19321      146.92721     -97222.703      7405.6253      8729.2349      3393.563     
    569000   300.9531       0.0569         0.00042765087 -4.2765087      1.3170438      14.678913      160.02401      144.41778      146.71362     -97180.056      7331.3723      8673.0337      3421.0532    
    570000   299.01892      0.057         -0.0040225191   40.225191      1.7650053     -19.065051      160.03915      144.2707       146.97316     -97014.839      7419.9021      8763.1173      3434.1688    
    571000   301.07212      0.0571         0.0042504112  -42.504112     -26.940261     -31.919261      160.05429      144.38772      147.06519     -96981.493      7406.8103      8649.9199      3419.1771    
    572000   300.44653      0.0572         0.000417894   -4.17894        1.9182306      30.903561      160.06943      144.26022      147.20208     -96841.971      7392.4476      8543.2195      3412.5321    
    573000   299.01622      0.0573        -0.00080297994  8.0297994      41.970034      23.910201      160.08458      143.96798      147.13639     -97011.099      7398.4618      8640.0463      3412.5223    
    574000   300.14799      0.0574         0.0023364173  -23.364173     -32.904282      10.179445      160.09972      144.32388      146.97396     -97040.046      7330.3378      8710.0938      3405.6363    
    575000   300.76855      0.0575         0.0057823845  -57.823845     -11.721911      20.651762      160.11486      144.07991      147.16743     -96986.44       7356.9171      8652.3344      3408.5797    
    576000   301.07135      0.0576         0.0051102307  -51.102307     -13.849471     -14.551303      160.13         143.81177      147.35944     -97114.669      7295.2419      8621.4687      3379.5358    
    577000   299.91724      0.0577         0.00080030541 -8.0030541      18.008771     -2.453657       160.14514      143.71986      147.36817     -97096.647      7379.3195      8531.4641      3393.0245    
    578000   298.6232       0.0578        -0.0020112095   20.112095     -13.061264     -7.4055268      160.16028      144.02402      147.24066     -96954.063      7430.4845      8621.3374      3395.7808    
    579000   300.36906      0.0579        -0.0028254703   28.254703     -21.978725     -28.508993      160.17542      143.90402      147.25002     -97112.01       7346.8616      8483.4145      3409.2349    
    580000   300.87943      0.058         -0.0041291672   41.291672      20.057564      17.304762      160.19056      143.62683      147.30763     -97121.394      7346.9871      8586.8262      3432.7914    
    581000   298.96279      0.0581         0.00029112811 -2.9112811     -10.839942      25.769037      160.2057       143.56552      147.35574     -97098.867      7340.3119      8555.1149      3411.9269    
    582000   300.14914      0.0582         0.0014326542  -14.326542     -9.4498458      5.0369621      160.22084      143.70428      147.47976     -96960.172      7452.1609      8582.0855      3408.2578    
    583000   300.69933      0.0583        -0.0013215564   13.215564     -32.3139        4.8026469      160.23598      143.64862      147.51498     -96947.939      7356.0316      8672.6145      3410.614     
    584000   298.89304      0.0584         0.0014655596  -14.655596      18.073088      1.8942253      160.25112      143.39507      147.70514     -97091.266      7455.3241      8637.1142      3407.2682    
    585000   300.21508      0.0585        -0.0004128309   4.128309       42.887796      7.0429252      160.26627      143.21303      147.83484     -96992.625      7389.1013      8435.8637      3399.4009    
    586000   298.60837      0.0586         0.0050711559  -50.711559      13.333171      11.685137      160.28141      143.06769      147.71192     -97369.578      7429.287       8627.9662      3413.0125    
    587000   299.54002      0.0587         0.00049976162 -4.9976162      9.5900355      14.661725      160.29655      143.10138      147.59985     -97321.105      7326.7741      8646.9109      3418.2471    
    588000   300.92213      0.0588        -0.0005783326   5.783326      -4.9361504      11.359973      160.31169      143.21971      147.78334     -97100.292      7237.523       8581.0095      3406.5387    
    589000   299.23809      0.0589         0.00028139183 -2.8139183      60.71592       22.925964      160.32683      142.97287      147.7274      -97269.303      7299.9724      8617.8561      3403.6975    
    590000   299.11815      0.059          0.0031129961  -31.129961      23.388854      3.9440828      160.34197      143.18312      147.8643      -97047.483      7439.2652      8591.2282      3399.4922    
    591000   299.9302       0.0591         0.0014693738  -14.693738      8.700922      -33.659004      160.35711      142.88317      148.1075      -97109.516      7404.7339      8491.8681      3411.0419    
    592000   300.26153      0.0592        -0.0054308637   54.308637      16.780844      10.212236      160.37225      142.92908      147.77883     -97245.873      7412.8113      8567.2571      3411.1259    
    593000   300.50492      0.0593         0.0029967757  -29.967757     -15.957432      3.3210373      160.38739      142.91789      147.82347     -97327.825      7370.3519      8522.4309      3406.4302    
    594000   299.18179      0.0594         0.0069270141  -69.270141     -17.832154     -7.9194967      160.40253      143.02719      147.96165     -97086.028      7407.8339      8480.033       3419.6602    
    595000   299.15798      0.0595         0.0031262466  -31.262466      12.713086      22.933569      160.41767      143.10496      147.5783      -97319.233      7405.6658      8536.3712      3414.6667    
    596000   298.71526      0.0596         0.00080157494 -8.0157494      36.734936     -41.746907      160.43282      143.23355      147.5668      -97279.4        7490.523       8708.3898      3416.0793    
    597000   299.41198      0.0597         0.0044390188  -44.390188     -6.9980803     -8.8334769      160.44796      143.19296      147.44765     -97425.719      7460.9034      8634.4478      3406.4916    
    598000   299.31169      0.0598        -0.000193114    1.93114        5.4789868     -3.8760863      160.4631       143.32161      147.225       -97446.925      7467.7586      8579.5688      3390.3819    
    599000   299.69201      0.0599        -0.0047399845   47.399845      14.460759      26.647733      160.47824      143.3788       147.09492     -97496.987      7462.0038      8607.3022      3391.5499    
    600000   299.60999      0.06           0.002588028   -25.88028      -3.4866602     -0.99689463     160.49338      143.39806      147.26024     -97254.534      7360.7968      8697.9226      3402.0169    
    601000   298.49073      0.0601        -0.0032512905   32.512905      16.902501     -38.534563      160.50852      143.2108       147.35419     -97335.844      7404.11        8683.162       3373.4371    
    602000   299.7075       0.0602         0.00035948138 -3.5948138     -21.340431      16.50595       160.52366      143.14031      147.4367      -97268.631      7399.9497      8732.316       3379.3983    
    603000   300.94858      0.0603        -0.0046426728   46.426728      6.7311472      10.830655      160.5388       143.47089      147.14066     -97186.91       7296.0658      8620.4408      3372.5994    
    604000   300.72846      0.0604        -0.0043192149   43.192149     -35.974706      11.470483      160.55394      143.3642       147.1197      -97320.074      7329.8633      8661.0721      3393.4942    
    605000   298.38691      0.0605        -0.00079336285  7.9336285      0.011795748    5.0007684      160.56908      143.29457      147.16417     -97351.672      7437.6244      8655.6539      3419.9056    
    606000   301.15327      0.0606         0.0019829384  -19.829384     -14.078514      3.2409096      160.58422      143.54372      146.90692     -97465.387      7314.0492      8730.0281      3417.0109    
    607000   300.1043       0.0607         0.0027575233  -27.575233     -28.367319      0.76296517     160.59937      143.46617      147.15943     -97286.918      7371.7406      8746.4474      3414.5695    
    608000   298.53739      0.0608        -0.0027951355   27.951355      0.15973476    -8.844806       160.61451      143.27447      147.43682     -97070.323      7450.3951      8630.2969      3414.2097    
    609000   299.79241      0.0609        -0.0022512431   22.512431      12.723779     -7.3623324      160.62965      143.08619      147.3599      -97286.176      7336.1267      8677.1798      3404.8115    
    610000   298.99407      0.061          0.0032135082  -32.135082     -9.5326229      12.031712      160.64479      143.24202      147.11508     -97208.803      7423.3142      8797.2387      3400.763     
    611000   299.94428      0.0611         0.0018774223  -18.774223      0.5548843      11.867242      160.65993      143.52158      146.98922     -97136.516      7343.9226      8541.1866      3377.9976    
    612000   299.65952      0.0612        -0.0017993616   17.993616     -18.732106     -14.541827      160.67507      143.53352      147.06193     -97122.566      7374.7726      8596.9577      3375.2491    
    613000   301.70029      0.0613         0.0058587159  -58.587159     -10.577471      6.3553239      160.69021      143.45203      147.17367     -97232.654      7238.2733      8547.0385      3387.8568    
    614000   300.08087      0.0614         0.0022178215  -22.178215      13.555401      21.957268      160.70535      143.35644      147.10414     -97215.265      7317.8672      8633.1612      3392.9396    
    615000   300.02432      0.0615         3.4272908e-07 -0.0034272908   6.626813       23.830715      160.72049      143.58091      146.97575     -97095.744      7288.6768      8553.4877      3391.4157    
    616000   298.75617      0.0616         0.0032342925  -32.342925     -29.694705      19.643542      160.73563      143.70746      146.89207     -97155.257      7496.4354      8685.6022      3396.3012    
    617000   300.55189      0.0617         0.002539821   -25.39821      -21.143107      5.6905648      160.75077      143.21683      147.12043     -97287.059      7327.3669      8717.7668      3390.0128    
    618000   299.73522      0.0618         0.00033011239 -3.3011239      14.445635      25.869901      160.76591      143.39831      147.0126      -97156.441      7303.1797      8651.686       3390.6603    
    619000   301.0859       0.0619         0.0022066351  -22.066351     -3.6633392     -0.86603154     160.78106      143.32555      147.16239     -97213.878      7293.0585      8591.1595      3395.7484    
    620000   300.92905      0.062         -0.0020510868   20.510868      15.729109      17.151009      160.7962       143.3357       147.05478     -97226.144      7246.7866      8610.0484      3401.6498    
    621000   300.90875      0.0621        -0.0045680349   45.680349      0.065998986    10.929674      160.81134      143.31197      147.01478     -97201.734      7301.069       8648.3728      3391.1514    
    622000   299.77359      0.0622        -0.0062821103   62.821103      38.347267     -13.108753      160.82648      143.06116      147.17349     -97325.764      7368.8258      8698.8281      3384.7049    
    623000   300.28681      0.0623         0.0060347011  -60.347011     -3.3167639      14.37586       160.84162      143.40328      147.02974     -97250.037      7388.2496      8743.2113      3399.7159    
    624000   300.20316      0.0624        -0.003387219    33.87219       22.112395     -2.745201       160.85676      143.10424      147.1674      -97273.065      7349.8491      8666.5783      3396.8225    
    625000   300.00301      0.0625        -0.0015273747   15.273747      25.116705      39.267851      160.8719       143.02625      147.00158     -97322.303      7356.9405      8784.982       3383.4057    
    626000   297.94621      0.0626         0.00025558812 -2.5558812      36.981782     -17.658537      160.88704      143.28715      146.98152     -97204.289      7445.5655      8735.4455      3394.1356    
    627000   299.1323       0.0627         0.00057811024 -5.7811024     -40.977236     -33.146005      160.90218      143.63136      146.92709     -97030.106      7447.4285      8592.0515      3391.7832    
    628000   298.45556      0.0628        -0.0011662312   11.662312      14.474823      33.580477      160.91732      143.60586      146.74677     -97108.89       7448.4464      8495.073       3413.8475    
    629000   300.40447      0.0629         0.0036196316  -36.196316      0.41708902     12.469334      160.93246      143.82057      146.59542     -97193.611      7347.1972      8611.7928      3407.7613    
    630000   300.99296      0.063          0.0026057262  -26.057262      4.8546373     -15.740987      160.94761      143.81862      146.56133     -97060.821      7318.7224      8654.446       3396.2164    
    631000   299.15008      0.0631         0.0075641635  -75.641635      4.0475822      0.63332819     160.96275      143.67691      146.87704     -97095.767      7382.0203      8691.1742      3371.5022    
    632000   300.16767      0.0632        -0.002004877    20.04877      -20.757727      23.488727      160.97789      143.57089      146.79662     -96989.836      7322.9069      8673.447       3379.0424    
    633000   300.38675      0.0633         0.0034223601  -34.223601     -1.0540893     -25.825536      160.99303      143.36997      147.03133     -97094.738      7342.4979      8769.1391      3395.8333    
    634000   299.44587      0.0634        -0.0035606974   35.606974      9.934006       28.617363      161.00817      143.23148      146.92746     -97160.272      7292.8171      8647.5639      3387.7022    
    635000   299.99925      0.0635         0.0010783154  -10.783154     -10.134447     -24.080267      161.02331      143.14259      147.23522     -97174.554      7364.8008      8603.7869      3387.1643    
    636000   297.25706      0.0636         0.003051042   -30.51042       8.473664       19.606528      161.03845      143.12837      147.11416     -97115.36       7478.6099      8671.1616      3386.6651    
    637000   300.78298      0.0637         3.6422287e-06 -0.036422287    17.12056       23.655123      161.05359      143.04045      147.37453     -97061.94       7429.792       8610.2536      3403.4158    
    638000   299.26167      0.0638         0.00083043204 -8.3043204     -13.963033      1.6897025      161.06873      142.83902      147.24261     -97380.938      7422.6786      8717.8939      3410.9753    
    639000   299.0062       0.0639         0.00088973021 -8.8973021     -39.431657     -52.359976      161.08387      143.11121      147.39263     -97006.122      7361.7114      8537.2385      3409.452     
    640000   300.38536      0.064         -0.002260477    22.60477       3.9761483      7.1459876      161.09901      143.3246       147.05074     -97037.342      7364.6039      8524.4875      3403.2288    
    641000   301.57799      0.0641        -0.0063556755   63.556755     -2.2277844      28.326452      161.11416      143.16215      146.89001     -97312.203      7260.0989      8549.9706      3416.9819    
    642000   299.91177      0.0642        -0.0011145643   11.145643     -1.1769984      16.613998      161.1293       143.12846      146.80028     -97480.111      7390.6067      8797.8314      3417.6861    
    643000   300.57757      0.0643        -0.00076852969  7.6852969     -22.704926      2.4391785      161.14444      142.90923      147.34747     -97095.236      7242.0577      8583.8471      3412.6232    
    644000   299.91521      0.0644        -0.00094537789  9.4537789     -3.9220873      6.0784082      161.15958      142.85943      147.2595      -97185.87       7380.1696      8641.7222      3422.3128    
    645000   300.47112      0.0645        -0.0018537306   18.537306     -20.751512     -20.480162      161.17472      143.0484       147.2775      -96962.16       7294.0973      8538.9175      3427.1962    
    646000   300.89887      0.0646         0.00039578778 -3.9578778      36.751533     -2.5489397      161.18986      142.49325      147.48926     -97280.788      7340.0568      8556.6662      3415.7608    
    647000   299.35571      0.0647        -0.0032959832   32.959832      3.2676701      14.456887      161.205        142.62128      147.18358     -97387.998      7424.8699      8686.7424      3405.3869    
    648000   300.8419       0.0648        -0.0025231262   25.231262      9.5473364     -5.1208647      161.22014      142.49326      147.41196     -97414.411      7233.2883      8676.7352      3404.8235    
    649000   298.84491      0.0649        -0.0025387051   25.387051      15.896109      4.539802       161.23528      142.27452      147.6548      -97324.624      7452.8519      8778.4265      3382.5927    
    650000   300.68926      0.065         -0.0014340821   14.340821     -6.3255765     -10.048218      161.25042      142.15302      147.80807     -97195.909      7395.6462      8587.6304      3384.709     
    651000   299.5046       0.0651         0.00047673656 -4.7673656      8.5714198      6.8010219      161.26556      142.35236      147.4984      -97297.205      7354.0291      8744.9639      3384.674     
    652000   299.71626      0.0652         0.00042094423 -4.2094423     -6.1399118      15.299699      161.28071      142.45315      147.58962     -97259.943      7320.5473      8700.3776      3397.212     
    653000   300.26796      0.0653        -0.004010798    40.10798       15.583504      10.541195      161.29585      142.4065       147.60277     -97169.88       7326.6163      8547.1741      3404.6913    
    654000   300.54717      0.0654         0.0055154706  -55.154706     -13.115695      0.9747674      161.31099      142.73699      147.62587     -96926.666      7316.4689      8551.241       3390.5663    
    655000   300.39139      0.0655        -0.00066887338  6.6887338     -17.550784      18.460992      161.32613      142.62926      147.05528     -97482.229      7369.1773      8678.1621      3384.8999    
    656000   301.13681      0.0656         0.004145936   -41.45936       8.6882763     -7.3491358      161.34127      142.50001      147.34896     -97421.348      7341.5036      8693.0186      3395.5298    
    657000   299.84628      0.0657        -0.0025214364   25.214364     -38.2661       -14.23845       161.35641      142.50846      147.43302     -97314.889      7450.2745      8594.1053      3394.9107    
    658000   300.18231      0.0658        -0.00032772007  3.2772007      15.037976     -37.420254      161.37155      142.37766      147.24513     -97402.284      7240.0077      8632.4836      3402.6784    
    659000   299.92073      0.0659         0.0045011247  -45.011247     -33.047959     -5.7656543      161.38669      142.73995      147.38898     -97060.722      7280.6482      8589.6853      3403.3857    
    660000   300.44137      0.066          0.002950964   -29.50964      -9.1052952     -6.43323        161.40183      142.63946      147.37425     -97137.418      7316.7909      8659.2116      3409.911     
    661000   300.6069       0.0661         0.0048209948  -48.209948      0.4948529      26.669591      161.41697      142.55403      147.44791     -97126.448      7290.4983      8650.5266      3401.7294    
    662000   300.72945      0.0662         0.002133932   -21.33932       18.710675     -11.354139      161.43211      142.27902      147.52722     -97156.161      7344.6436      8740.8374      3395.2707    
    663000   299.54745      0.0663         0.0028186149  -28.186149     -39.12329      -12.312972      161.44725      142.71179      147.47759     -96967.395      7374.3116      8371.7151      3415.192     
    664000   299.7941       0.0664         0.0029878259  -29.878259      3.4854566      12.105618      161.4624       142.44614      147.43246     -97117.313      7433.8385      8607.3107      3401.4871    
    665000   298.82468      0.0665         0.004161444   -41.61444      -4.4737522      4.4968531      161.47754      142.59386      147.40459     -96987.896      7462.6562      8557.094       3398.5738    
    666000   301.38306      0.0666         0.0018816465  -18.816465     -27.128159      27.342583      161.49268      142.3455       147.47648     -97254.773      7267.8457      8571.4717      3398.9732    
    667000   298.7449       0.0667        -0.0031453502   31.453502      30.963063      1.5788937      161.50782      142.20946      147.40593     -97274.237      7341.0393      8658.8528      3406.0418    
    668000   299.89123      0.0668         0.00010228235 -1.0228235      10.484631      13.90217       161.52296      142.48153      147.481       -96989.448      7330.7874      8563.3         3413.9335    
    669000   298.73005      0.0669         0.0038964019  -38.964019      6.6777161      25.155506      161.5381       142.10023      147.84403     -96935.504      7304.1706      8595.4161      3409.8692    
    670000   299.75632      0.067         -0.0020787816   20.787816      4.8540654      6.6801402      161.55324      142.16336      147.78773     -97049.04       7361.6777      8593.0511      3416.4534    
    671000   300.68674      0.0671         0.0025796394  -25.796394     -28.53718       20.947799      161.56838      142.35562      147.49366     -97252.102      7327.1329      8511.264       3435.0534    
    672000   299.97083      0.0672         0.00068291615 -6.8291615      11.310297     -5.739843       161.58352      142.3298       147.5403      -97152.155      7426.9063      8652.4343      3418.3796    
    673000   298.19536      0.0673         0.00050488249 -5.0488249     -8.0740015      8.1757612      161.59866      142.49408      147.66101     -96861.462      7448.9062      8647.1697      3412.4232    
    674000   300.2218       0.0674        -0.0025998273   25.998273      13.838236     -25.012468      161.6138       142.46957      147.57522     -96899.119      7351.6519      8521.7472      3413.6502    
    675000   301.46647      0.0675        -0.0011142874   11.142874     -5.646877       0.7529697      161.62895      142.45763      147.46989     -97047.356      7320.6069      8588.9142      3431.145     
    676000   299.7649       0.0676         0.0011573822  -11.573822     -13.959883     -21.661483      161.64409      142.54368      147.5436      -96996.637      7327.5406      8520.5624      3430.1184    
    677000   301.2335       0.0677         0.0029744526  -29.744526     -15.427371      12.645028      161.65923      142.32686      147.58393     -97038.305      7286.1674      8559.2718      3445.4882    
    678000   301.05335      0.0678         0.0047423431  -47.423431     -29.709731     -31.77604       161.67437      142.30049      147.5222      -97285.995      7358.9949      8600.3818      3433.2828    
    679000   299.10555      0.0679         0.0014110884  -14.110884      35.737174     -48.316694      161.68951      142.27136      147.60847     -97087.067      7474.0483      8646.329       3445.4833    
    680000   299.66206      0.068         -0.005603655    56.03655       1.7276121      38.331661      161.70465      142.03418      147.5376      -97201.234      7361.5625      8703.1923      3444.0239    
    681000   300.59484      0.0681        -0.0063819964   63.819964      14.720199      19.923005      161.71979      141.74439      147.8428      -97183.07       7305.3733      8602.0305      3430.7452    
    682000   301.12296      0.0682        -0.0027943732   27.943732      28.168136     -3.1476885      161.73493      141.94006      147.79288     -97070.784      7355.3035      8485.4671      3430.1589    
    683000   300.41124      0.0683         0.0016553519  -16.553519      41.036375     -3.1269087      161.75007      142.03012      147.47591     -97180.761      7393.3247      8713.1318      3409.5711    
    684000   299.35918      0.0684         0.00093675382 -9.3675382     -32.5704        16.291205      161.76521      142.1772       147.35388     -97340.137      7421.9816      8612.2525      3420.1209    
    685000   300.20118      0.0685        -0.0014812793   14.812793     -4.5257621     -1.9603918      161.78035      142.3688       147.47283     -97049.438      7447.7571      8584.6225      3421.6532    
    686000   300.93378      0.0686         0.0042431156  -42.431156     -2.6456852     -15.939048      161.7955       142.36841      147.41623     -97182.912      7382.2241      8697.8995      3445.4062    
    687000   300.12507      0.0687        -0.00022262433  2.2262433     -30.4312        0.6301939      161.81064      142.00285      147.65525     -97209.199      7493.0657      8640.538       3448.8639    
    688000   299.73394      0.0688        -0.0012868299   12.868299      19.405393     -15.46462       161.82578      142.01145      147.56235     -97226.456      7430.7225      8660.6477      3428.325     
    689000   299.48188      0.0689         0.0030947921  -30.947921      5.6035548     -21.47757       161.84092      141.91752      147.7839      -97129.522      7371.7721      8549.0872      3415.2735    
    690000   299.62163      0.069          0.0050419269  -50.419269      25.27867       32.61171       161.85606      141.83238      147.55553     -97255.864      7429.8687      8726.753       3431.7344    
    691000   298.68049      0.0691        -0.0015109665   15.109665     -13.227663      32.035375      161.8712       141.9816       147.55939     -97134.697      7355.2333      8649.1284      3448.9783    
    692000   299.67818      0.0692         0.001498117   -14.98117      -5.5690404      8.8260209      161.88634      142.1361       147.52407     -97095.621      7365.0007      8711.1309      3444.9771    
    693000   299.67259      0.0693        -0.0019413638   19.413638      27.358397     -5.7313928      161.90148      142.18166      147.45264     -97044.98       7327.7324      8667.0114      3432.7301    
    694000   300.0252       0.0694        -0.001765591    17.65591      -15.529029      39.747262      161.91662      141.93702      147.54496     -97063.279      7376.4304      8648.1485      3431.0774    
    695000   301.15724      0.0695         0.0012833265  -12.833265      41.010629     -22.370081      161.93176      141.86732      147.51398     -97229.348      7280.5144      8713.2068      3443.9731    
    696000   299.70564      0.0696         0.0011121052  -11.121052     -6.1640708     -26.188802      161.9469       141.84093      147.73118     -97179.498      7377.4696      8607.0454      3425.2454    
    697000   299.66539      0.0697         0.004248705   -42.48705      -13.870253     -28.180583      161.96204      141.92623      147.64162     -97193.718      7366.2465      8571.3232      3439.5443    
    698000   299.17908      0.0698         0.00238916    -23.8916       -28.95436       9.3697137      161.97719      142.07246      147.3788      -97264.075      7359.6528      8469.7723      3439.0041    
    699000   299.73179      0.0699        -0.0026063776   26.063776     -15.783086      14.740666      161.99233      141.95195      147.61265     -97050.02       7333.3478      8458.7789      3440.336     
    700000   299.13169      0.07           0.0016959233  -16.959233     -14.625256     -11.837013      162.00747      142.13533      147.41221     -97124.007      7430.713       8419.6193      3445.2227    
    701000   299.67998      0.0701         0.0070904752  -70.904752      2.5642273      4.1842616      162.02261      142.02856      147.31656     -97253.437      7334.0864      8552.7651      3446.3814    
    702000   298.99817      0.0702         0.0030460559  -30.460559     -9.740558       2.2643524      162.03775      142.11457      147.53868     -97017.42       7416.6769      8562.8398      3448.3374    
    703000   301.17484      0.0703         0.00057314506 -5.7314506      18.580711      15.061583      162.05289      142.0297       147.13563     -97342.894      7394.229       8755.2631      3430.3136    
    704000   300.17583      0.0704         0.0018129401  -18.129401     -11.989472     -8.2574331      162.06803      141.90237      147.31296     -97390.612      7451.6361      8678.2696      3413.0229    
    705000   300.44504      0.0705         0.0010924089  -10.924089      7.2085916      12.597379      162.08317      141.93193      147.56343     -97126.494      7279.2122      8491.417       3426.0203    
    706000   299.69476      0.0706         0.0019592109  -19.592109     -8.4003179      23.055346      162.09831      141.8351       147.47013     -97109.608      7344.2006      8568.9715      3425.4313    
    707000   301.81674      0.0707         0.00419694    -41.9694        21.89233      -25.691493      162.11345      141.93166      147.47108     -97106.906      7272.931       8594.2915      3447.2607    
    708000   300.18273      0.0708         0.0042487448  -42.487448      35.112633      19.054134      162.12859      141.88782      147.55824     -97128.332      7301.1183      8594.9334      3442.6606    
    709000   300.3746       0.0709        -0.001709448    17.09448       9.0385853     -31.967757      162.14374      141.77147      147.43962     -97330.394      7370.8455      8568.8771      3423.2398    
    710000   299.48612      0.071         -0.00073707975  7.3707975     -22.854712      30.548605      162.15888      142.28642      147.18222     -96972.292      7316.7045      8454.5474      3424.4536    
    711000   299.1794       0.0711         0.0010212835  -10.212835     -1.6848411     -8.0275417      162.17402      141.95549      147.36208     -97256.151      7407.2445      8547.8055      3427.2411    
    712000   299.66286      0.0712         8.1699382e-05 -0.81699382     6.7197105      23.915764      162.18916      142.05396      147.36753     -97032.024      7368.3796      8411.3416      3425.5054    
    713000   301.18379      0.0713        -0.0017963254   17.963254      3.2622856     -14.124803      162.2043       141.96233      147.34025     -97296.883      7409.6778      8444.5181      3438.2047    
    714000   299.95626      0.0714         0.0014758339  -14.758339      38.144365     -0.4339156      162.21944      142.01664      147.39499     -97109.904      7457.9732      8424.5844      3431.0286    
    715000   299.19743      0.0715         0.0033806344  -33.806344     -20.053862      10.187024      162.23458      142.14774      147.09799     -97280.323      7419.2888      8578.5232      3417.7444    
    716000   299.11646      0.0716        -0.00067173945  6.7173945     -4.1734381      19.006352      162.24972      142.10118      147.18198     -96983.269      7351.2538      8606.9087      3416.4481    
    717000   300.10188      0.0717        -0.0025279291   25.279291      4.1087004      12.254481      162.26486      141.91012      147.02822     -97339.169      7351.3869      8709.192       3415.4977    
    718000   300.57608      0.0718        -0.00025104444  2.5104444      12.849529      38.243113      162.28         142.04078      146.98701     -97270.814      7323.2742      8725.8764      3415.5616    
    719000   300.03601      0.0719        -0.0032101611   32.101611     -3.1292963      37.517397      162.29514      141.96116      147.18874     -97241.555      7307.0045      8651.2413      3407.7806    
    720000   299.43547      0.072          0.0038763401  -38.763401     -21.982087     -8.161757       162.31029      142.33077      147.0717      -96878.808      7296.68        8571.2095      3406.3169    
    721000   300.65574      0.0721         0.00019307415 -1.9307415     -15.235716      3.8653959      162.32543      142.1167       146.82473     -97375.517      7329.0433      8709.256       3405.874     
    722000   300.65934      0.0722        -0.0028287243   28.287243     -12.268921      1.7925263      162.34057      142.52549      146.62048     -97088.883      7444.1367      8633.9399      3412.9619    
    723000   299.75315      0.0723         0.00018911361 -1.8911361      16.137631      15.062812      162.35571      142.1207       146.81906     -97255.609      7390.7104      8684.065       3419.8751    
    724000   301.58223      0.0724         0.0039009331  -39.009331      61.085145      20.939581      162.37085      142.28469      146.61579     -97275.576      7250.8751      8584.463       3407.0293    
    725000   300.02377      0.0725         0.0041168969  -41.168969      11.150083      3.5667282      162.38599      142.68429      146.41171     -97189.968      7293.7473      8670.715       3408.9884    
    726000   300.004        0.0726         0.0037694392  -37.694392     -15.859961     -27.47646       162.40113      142.88106      146.57548     -96847.441      7335.5251      8541.5283      3402.2895    
    727000   300.1248       0.0727         0.0040071131  -40.071131     -26.749096      19.157387      162.41627      142.95855      146.24781     -97064.014      7291.7836      8507.0946      3399.9428    
    728000   299.35447      0.0728        -0.0007660214   7.660214       39.997024      31.899548      162.43141      142.80576      146.26235     -97065.728      7376.1911      8644.6988      3407.1881    
    729000   301.16395      0.0729        -0.00095449336  9.5449336     -17.425086      13.135714      162.44655      143.0017       145.87299     -97284.909      7388.3316      8613.4937      3385.9594    
    730000   298.53164      0.073          0.0041010201  -41.010201      29.368065     -29.779631      162.46169      142.95731      146.00882     -97180.247      7458.9844      8574.8442      3387.91      
    731000   298.5838       0.0731        -0.0013770929   13.770929      4.0374423      3.5198568      162.47683      142.97897      145.8718      -97229.856      7446.235       8704.1809      3403.3852    
    732000   300.19481      0.0732         0.00326395    -32.6395        22.193315     -36.599816      162.49198      143.29423      145.80977     -97046.711      7326.3075      8660.8848      3380.2531    
    733000   300.7878       0.0733        -0.00024463645  2.4463645     -10.871456      31.321939      162.50712      143.18869      145.73171     -97280.622      7379.191       8649.4496      3392.5174    
    734000   300.21543      0.0734         0.0015713734  -15.713734      9.9487084     -16.20026       162.52226      142.82901      145.96742     -97442.23       7357.0412      8689.3936      3405.8735    
    735000   297.94743      0.0735         0.0039576929  -39.576929     -18.894448      47.709854      162.5374       143.19535      145.69875     -97074.098      7360.8863      8655.8068      3387.5578    
    736000   300.13128      0.0736         0.0025801075  -25.801075      8.5105512     -3.6248589      162.55254      143.0192       145.86467     -97167.523      7361.7899      8602.373       3393.0166    
    737000   299.88358      0.0737         2.5836634e-05 -0.25836634     11.330363     -14.778001      162.56768      142.94293      145.68881     -97398.731      7335.0784      8825.5109      3403.2335    
    738000   299.83867      0.0738        -0.0030767981   30.767981     -13.546786     -8.6349265      162.58282      142.96717      145.5785      -97594.54       7414.1856      8726.93        3415.0814    
    739000   302.2949       0.0739         0.00027238714 -2.7238714      2.320958      -26.253465      162.59796      142.94687      145.75683     -97441.651      7349.4303      8614.5073      3411.4317    
    740000   300.00409      0.074         -1.866602e-06   0.01866602     32.089109     -5.9199804      162.6131       142.86119      145.79151     -97412.285      7328.7769      8769.8916      3419.8507    
    741000   299.5118       0.0741         0.00094494233 -9.4494233      20.025309     -12.839071      162.62824      142.78563      146.01492     -97104.634      7379.156       8670.2727      3417.568     
    742000   298.83219      0.0742         0.00042731272 -4.2731272     -37.357636      35.878536      162.64338      143.00615      146.00865     -96939.312      7384.8506      8571.1911      3436.6205    
    743000   299.10924      0.0743         0.0023989194  -23.989194      0.060539856    10.923282      162.65853      142.62042      146.38928     -97000.823      7391.6053      8675.402       3406.2885    
    744000   299.54892      0.0744        -0.0049645847   49.645847      30.900785     -16.736272      162.67367      142.32754      146.34588     -97253.66       7374.2424      8742.4343      3422.7572    
    745000   298.99349      0.0745        -0.0021686228   21.686228     -23.117305      19.957329      162.68881      142.36654      146.20018     -97406.795      7528.8792      8845.8729      3431.4796    
    746000   298.58978      0.0746        -0.00019838301  1.9838301     -21.570102      12.452111      162.70395      142.46668      146.42121     -97101.871      7514.0248      8601.4218      3446.5768    
    747000   300.1402       0.0747         0.0043666121  -43.666121     -0.55542948    -9.9725226      162.71909      142.58058      146.27303     -97168.705      7375.7554      8617.7457      3438.1394    
    748000   299.35889      0.0748        -0.00039638265  3.9638265      4.3459608      1.6692894      162.73423      142.49148      146.22632     -97125.17       7358.5798      8713.5391      3440.3653    
    749000   299.17829      0.0749         0.0034857734  -34.857734     -23.93632      -10.055747      162.74937      142.63652      146.30749     -96935.243      7339.9062      8684.2935      3448.4011    
    750000   299.31155      0.075          0.0022787026  -22.787026      5.9817687      16.443165      162.76451      142.35215      146.46661     -97105.389      7366.2872      8618.4459      3439.8556    
    751000   300.21676      0.0751         0.00096862284 -9.6862284      3.838232       13.477382      162.77965      142.31798      146.47717     -97203.775      7331.6384      8640.9734      3440.0911    
    752000   301.24208      0.0752         0.0033073683  -33.073683     -40.752569      26.016459      162.79479      141.96918      146.91316     -97129.734      7309.0148      8667.0578      3445.6948    
    753000   299.57207      0.0753         0.0044796711  -44.796711      36.740467      21.72626       162.80993      141.86664      146.85136     -97192.772      7408.4051      8676.7233      3447.625     
    754000   299.30636      0.0754         0.0021050315  -21.050315     -1.5983719      2.8874482      162.82508      142.05039      146.89832     -96998.282      7435.1326      8511.628       3448.4236    
    755000   301.01793      0.0755        -0.0006065072   6.065072       9.2600389     -8.1022951      162.84022      142.08815      146.69878     -97125.432      7437.9366      8522.0126      3434.8956    
    756000   300.18138      0.0756         0.00087441612 -8.7441612      6.8421885      31.639486      162.85536      141.99359      146.49893     -97237.696      7412.4832      8506.9145      3436.709     
    757000   298.76416      0.0757        -0.0017213565   17.213565      4.18845       -1.3272211      162.8705       142.10767      146.56373     -97051.019      7497.8588      8470.6056      3420.5224    
    758000   300.07881      0.0758         0.0011134141  -11.134141     -16.193412      11.447928      162.88564      141.96654      146.75522     -97132.878      7360.6839      8559.8683      3415.3775    
    759000   299.90194      0.0759        -0.0017774993   17.774993     -7.7112895     -10.230024      162.90078      141.74388      146.73146     -97253.311      7359.2589      8564.5348      3445.3726    
    760000   299.78875      0.076          0.0018960479  -18.960479     -11.331828     -18.661959      162.91592      142.16767      146.31552     -97237.324      7394.2607      8566.7618      3451.317     
    761000   300.62221      0.0761        -0.0020180065   20.180065     -6.2475491     -8.5575797      162.93106      141.86781      146.5041      -97347.418      7316.8676      8715.6399      3428.7187    
    762000   299.52195      0.0762         0.00025543216 -2.5543216      13.333682     -13.148185      162.9462       141.88122      146.72181     -97148.064      7379.6793      8625.1736      3415.8116    
    763000   299.91487      0.0763        -0.0031523113   31.523113      15.646611      11.21119       162.96134      141.8412       146.56874     -97167.566      7281.261       8720.9506      3423.0466    
    764000   299.68206      0.0764         0.00075227109 -7.5227109      22.752689      2.2999279      162.97648      141.91613      146.77505     -97130.331      7346.7188      8654.1899      3426.8302    
    765000   300.74057      0.0765         0.0057755242  -57.755242      29.477008     -1.4240446      162.99163      141.97458      146.62228     -97136.466      7324.5456      8647.0439      3432.4114    
    766000   299.62016      0.0766         0.0046954122  -46.954122      9.1854853     -18.520625      163.00677      142.16684      146.53464     -97080.14       7292.7915      8683.8362      3433.7443    
    767000   298.76033      0.0767        -0.0021609512   21.609512      10.469939      29.47341       163.02191      142.03892      146.5466      -96902.293      7369.0608      8559.0182      3427.768     
    768000   298.41137      0.0768         0.0026976973  -26.976973     -13.084748     -21.025527      163.03705      142.01309      146.6799      -97035.12       7430.05        8770.843       3421.3602    
    769000   300.47657      0.0769         0.0019892314  -19.892314     -10.887623      0.83482153     163.05219      141.97571      146.64618     -97083.154      7368.7637      8539.9755      3451.4087    
    770000   299.7426       0.077         -0.00063408848  6.3408848     -3.7161957     -13.121821      163.06733      141.90222      146.57818     -97184.296      7347.1059      8630.4704      3447.4789    
    771000   298.33825      0.0771         0.002399281   -23.99281       2.629504      -7.6740837      163.08247      142.14268      146.37493     -97009.756      7296.6829      8515.8691      3433.0997    
    772000   299.85987      0.0772         0.0019402396  -19.402396     -26.864651     -26.50595       163.09761      142.08694      146.55533     -96997.057      7305.0604      8527.9055      3439.3588    
    773000   299.28342      0.0773        -0.00035296312  3.5296312      21.86497      -0.53747624     163.11275      142.22095      146.24046     -97116.29       7357.2234      8560.603       3426.8026    
    774000   298.57878      0.0774        -0.0016590647   16.590647      5.7995322      37.434462      163.12789      142.12587      146.08013     -97247.129      7424.0141      8543.8099      3420.1164    
    775000   300.33368      0.0775         0.0055455451  -55.455451     -8.4082798      5.1002745      163.14303      141.99406      146.28454     -97229.37       7334.8763      8575.3618      3437.4591    
    776000   301.83084      0.0776         0.0017178493  -17.178493     -39.167291     -9.3650684      163.15817      142.28952      146.37653     -97003.443      7232.3092      8457.5223      3432.2039    
    777000   300.20997      0.0777         0.0052560491  -52.560491     -1.8223648     -19.756921      163.17332      142.38765      146.16988     -96999.42       7319.8794      8616.0312      3443.5833    
    778000   299.97801      0.0778         0.0046947239  -46.947239      0.81297361    -10.42973       163.18846      142.55604      146.16786     -96883.147      7410.9021      8451.3426      3452.2136    
    779000   301.05778      0.0779         0.0045133924  -45.133924      4.8403622     -28.42664       163.2036       142.32122      146.20788     -97073.071      7365.1337      8522.9293      3437.6574    
    780000   300.66472      0.078          0.0065460728  -65.460728     -11.145258     -34.574644      163.21874      142.49429      146.08617     -97033.104      7286.3108      8467.5202      3447.2874    
    781000   298.11036      0.0781         0.00044734714 -4.4734714      19.466245     -18.187232      163.23388      142.43993      145.93362     -97097.121      7378.4021      8554.8723      3439.4671    
    782000   301.19504      0.0782         2.9354139e-05 -0.29354139     8.0438755     -35.116005      163.24902      142.42091      145.85881     -97201.122      7336.7583      8558.901       3448.7796    
    783000   299.25413      0.0783         0.0012584902  -12.584902     -35.825299      1.2650901      163.26416      142.50512      145.68237     -97239.274      7351.7267      8581.7386      3456.2837    
    784000   301.11453      0.0784         0.00041000217 -4.1000217      15.802793     -15.379652      163.2793       142.34295      145.89618     -97269.169      7369.0332      8579.4735      3444.2936    
    785000   300.30037      0.0785         0.0060485125  -60.485125      15.873402     -25.976581      163.29444      142.41953      145.9487      -97144.601      7388.597       8423.0649      3443.0107    
    786000   300.13823      0.0786         0.0010291192  -10.291192      17.622354      12.199352      163.30958      142.48042      145.82021     -97019.593      7376.437       8428.3649      3434.8361    
    787000   299.8448       0.0787        -0.0038397983   38.397983      21.305848     -7.1686714      163.32472      142.17339      145.94744     -97191.331      7410.4443      8515.5994      3432.9897    
    788000   299.62412      0.0788         0.0022948943  -22.948943     -22.331238      6.9197647      163.33987      142.23825      146.02168     -97165.394      7314.3103      8506.7807      3457.3926    
    789000   300.15056      0.0789        -0.00071919268  7.1919268     -8.6020108     -27.921735      163.35501      141.97958      146.24757     -97245.591      7446.4788      8549.6555      3451.9742    
    790000   298.4533       0.079         -0.0037982043   37.982043      31.853162      7.9403001      163.37015      141.93934      145.98566     -97456.659      7424.2401      8628.5242      3454.8323    
    791000   300.55841      0.0791         0.0044210002  -44.210002     -6.9728555     -18.414009      163.38529      142.0908       146.17402     -97265.01       7373.9657      8623.7154      3438.1524    
    792000   299.35682      0.0792         0.00059399275 -5.9399275     -20.327937     -30.341544      163.40043      142.27273      145.92873     -97280.628      7384.6264      8599.6664      3459.0741    
    793000   298.97346      0.0793         0.0069119829  -69.119829     -15.83765      -28.728571      163.41557      142.64487      145.66501     -97208.289      7430.5733      8687.9191      3442.6393    
    794000   299.85925      0.0794         0.0029773085  -29.773085      16.256167     -7.7651088      163.43071      142.64021      145.60151     -97154.883      7350.8357      8626.1864      3448.5782    
    795000   300.29731      0.0795         0.0040212452  -40.212452     -2.8651861      22.832753      163.44585      142.60574      145.54837     -97118.852      7358.0829      8678.5806      3444.2741    
    796000   302.18615      0.0796         0.002392455   -23.92455      -1.5033889     -17.346241      163.46099      142.3676       145.86875     -97112.447      7332.679       8616.9938      3432.767     
    797000   301.47608      0.0797        -0.0012581145   12.581145      30.004089      5.7921789      163.47613      142.24432      145.79644     -97249.612      7296.6629      8774.9696      3426.2392    
    798000   299.38074      0.0798         0.0041212895  -41.212895     -2.3662269     -27.275257      163.49127      142.47421      145.81023     -97160.158      7506.3525      8718.2424      3456.4323    
    799000   301.63933      0.0799         0.0015275788  -15.275788     -17.914768     -33.004792      163.50642      142.45702      145.48796     -97507.749      7346.3081      8652.8344      3445.1221    
    800000   300.8274       0.08          -0.0020961067   20.961067      40.865381     -9.2830421      163.52156      142.35442      145.5217      -97380.995      7417.947       8598.7706      3433.9288    
    801000   299.83133      0.0801         0.0020013683  -20.013683      7.1284955      23.963649      163.5367       142.4252       145.53773     -97202.855      7345.3588      8885.2375      3444.5774    
    802000   298.87641      0.0802         0.0010136643  -10.136643     -50.358824      7.3682158      163.55184      142.47224      145.46183     -97277.085      7361.2935      8886.902       3430.3427    
    803000   300.14942      0.0803         0.003611689   -36.11689      -13.695786     -18.515156      163.56698      142.43492      145.7144      -97135.208      7358.4359      8766.3025      3422.9007    
    804000   300.73851      0.0804         0.0030764761  -30.764761     -13.437364      37.935243      163.58212      142.40848      145.79817     -96960.467      7247.4906      8527.3251      3423.022     
    805000   299.93712      0.0805        -0.0011576311   11.576311      46.366643     -5.7590042      163.59726      142.40999      145.69224     -96990.444      7281.1138      8492.3096      3434.2522    
    806000   298.63955      0.0806         0.0057171307  -57.171307      22.657071     -15.902784      163.6124       142.12715      146.03151     -96866.298      7470.1341      8436.8538      3424.8211    
    807000   299.55893      0.0807         0.0043074372  -43.074372     -22.568679     -1.7635021      163.62754      142.1485       146.05821     -96926.101      7368.8657      8461.2444      3434.0455    
    808000   299.491        0.0808         0.0014350105  -14.350105     -11.977311     -12.519023      163.64268      142.25137      145.94938     -97005.484      7466.0134      8542.0341      3435.9969    
    809000   299.35369      0.0809        -0.0033461317   33.461317      8.1809584      16.843517      163.65782      142.26393      145.80903     -97009.455      7419.0742      8440.6579      3448.9794    
    810000   299.95234      0.081         -0.0010224562   10.224562      6.9483552     -30.182876      163.67296      142.45375      145.74934     -96998.658      7442.6465      8543.8385      3453.1885    
    811000   298.7284       0.0811         0.00027072235 -2.7072235      2.7713888     -14.295615      163.68811      142.50491      145.48085     -97083.416      7425.8402      8487.0112      3450.1927    
    812000   300.62257      0.0812         0.0034199816  -34.199816     -37.489288      31.388414      163.70325      142.63104      145.37805     -97081.06       7443.8301      8467.8543      3469.6022    
    813000   301.21093      0.0813         0.0044472951  -44.472951      10.704252     -27.391757      163.71839      142.75952      145.25409     -97132.699      7409.0191      8558.9296      3470.0068    
    814000   300.42723      0.0814         0.0035276634  -35.276634     -26.365708     -9.7977176      163.73353      142.67027      145.10451     -97249.601      7376.7607      8588.1004      3448.6609    
    815000   300.7184       0.0815         0.0063110179  -63.110179     -21.451817      17.932174      163.74867      142.98458      144.81267     -97179.927      7392.1402      8528.5249      3465.415     
    816000   299.89896      0.0816        -0.0025171687   25.171687      20.557522      12.937257      163.76381      143.19662      144.58688     -97131.052      7343.4861      8615.8201      3438.7775    
    817000   298.2437       0.0817        -0.0038460089   38.460089     -29.739485      21.4702        163.77895      143.00202      144.7513      -97088.042      7374.6634      8532.9338      3443.8088    
    818000   300.24992      0.0818         0.0015692672  -15.692672     -16.831818      28.845983      163.79409      142.87295      145.01915     -97149.506      7428.0029      8582.5288      3458.9387    
    819000   300.11881      0.0819         0.0028820418  -28.820418      9.7532152      14.069304      163.80923      142.85722      144.97271     -97177.027      7411.8701      8569.9839      3467.1508    
    820000   300.10669      0.082          0.0067553913  -67.553913     -6.8074427     -6.4145348      163.82437      142.63252      145.24118     -97136.288      7318.8861      8469.4787      3447.2629    
    821000   300.16637      0.0821         0.0024686855  -24.686855     -11.133847     -9.1093234      163.83951      142.43101      145.48941     -97109.745      7387.8351      8570.9158      3455.1069    
    822000   300.09782      0.0822         0.0019251757  -19.251757      11.519834      14.121986      163.85466      142.66592      145.15547     -97060.862      7343.3292      8544.0858      3464.8732    
    823000   299.87474      0.0823         0.0029377139  -29.377139      4.7343809     -26.075855      163.8698       142.58359      145.2435      -97024.237      7334.9798      8608.7508      3454.3895    
    824000   299.32085      0.0824        -0.00080731383  8.0731383      12.807868     -23.603107      163.88494      142.58758      145.08646     -97185.748      7386.6302      8731.9654      3447.7995    
    825000   299.32286      0.0825         0.006593382   -65.93382      -5.0357755     -32.522606      163.90008      142.96877      144.99979     -96901.648      7367.4611      8562.1798      3465.7402    
    826000   298.74034      0.0826        -0.0054443579   54.443579      46.260385      13.312204      163.91522      142.631        144.95186     -97106.902      7411.5663      8605.2561      3473.4655    
    827000   300.05524      0.0827        -0.0047228974   47.228974     -10.674245     -3.1393078      163.93036      142.9193       144.64045     -97297.855      7347.2293      8689.0332      3468.6525    
    828000   300.31616      0.0828        -0.0032052855   32.052855      5.4891559     -12.475729      163.9455       142.9291       144.56836     -97155.808      7380.1194      8583.2183      3457.575     
    829000   299.32792      0.0829        -0.0010414424   10.414424      28.03883      -11.587215      163.96064      143.03163      144.77682     -97023.255      7421.8334      8629.7974      3458.4389    
    830000   300.80909      0.083          0.00048830118 -4.8830118      17.318755     -3.1639609      163.97578      143.01177      144.67922     -97129.102      7347.5599      8501.9541      3466.0851    
    831000   301.32079      0.0831        -0.00083166047  8.3166047      0.43449676     32.156079      163.99092      143.02219      144.35422     -97292.936      7318.3037      8591.0564      3463.9762    
    832000   299.67389      0.0832         0.002403239   -24.03239      -22.02305      -9.7738516      164.00606      143.20912      144.4662      -97155.047      7445.9788      8529.9966      3439.8671    
    833000   299.02451      0.0833         0.0032007502  -32.007502     -29.726321     -20.875457      164.02121      143.15636      144.86523     -96847.769      7562.8183      8357.7718      3442.8817    
    834000   299.76427      0.0834        -0.0057816992   57.816992      19.322335      39.666388      164.03635      142.98131      144.28211     -97411.523      7508.9344      8568.8438      3461.0831    
    835000   300.11984      0.0835         0.0023716243  -23.716243      2.2445639     -23.682757      164.05149      142.88366      144.61203     -97391.987      7479.0349      8571.8503      3434.9758    
    836000   302.10586      0.0836         0.0016040757  -16.040757      15.074149      18.017452      164.06663      142.98995      144.56877     -97181.713      7330.7659      8513.5091      3448.0996    
    837000   299.61628      0.0837         0.001517835   -15.17835       23.097753     -4.2955086      164.08177      142.87052      144.50164     -97285.348      7426.706       8583.0196      3449.4029    
    838000   298.97263      0.0838         0.0018016335  -18.016335      40.73502      -3.7579816      164.09691      142.78261      144.68241     -97199.637      7523.1645      8502.8167      3447.1528    
    839000   301.91638      0.0839         0.0034553092  -34.553092     -11.34649      -9.6547558      164.11205      142.98227      144.6278      -97111.6        7325.299       8451.4994      3453.5707    
    840000   300.25136      0.084          0.0027631291  -27.631291     -0.093758913    6.4850948      164.12719      143.05686      144.67625     -96979.514      7405.7332      8485.9682      3435.0101    
    841000   299.37998      0.0841         0.0031954826  -31.954826     -3.88227       -5.16001        164.14233      142.89294      144.60552     -97140.812      7410.5596      8564.6623      3444.4277    
    842000   301.02188      0.0842         0.0016729581  -16.729581     -19.01192       11.422232      164.15747      142.98664      144.40084     -97248.051      7349.5245      8656.3383      3432.7375    
    843000   299.05903      0.0843         0.003540014   -35.40014      -6.6062505      15.839296      164.17261      143.01711      144.41902     -97097.954      7300.1969      8701.0211      3413.2274    
    844000   298.41643      0.0844        -0.0040229944   40.229944      24.275079      43.023125      164.18775      143.16864      144.18549     -97090.953      7370.1312      8665.6458      3433.8937    
    845000   300.5951       0.0845        -0.0019808336   19.808336     -14.817288      11.370226      164.2029       143.15012      144.43834     -96998.421      7298.9922      8660.4969      3442.4467    
    846000   300.56172      0.0846        -0.0067177187   67.177187      15.06472      -25.609197      164.21804      142.95515      144.60935     -96929.792      7319.4285      8562.3121      3436.7784    
    847000   300.81         0.0847         0.003144806   -31.44806       5.0712643     -33.698934      164.23318      143.07326      144.51779     -97042.867      7303.6838      8679.0581      3450.7922    
    848000   301.00222      0.0848        -0.0031197456   31.197456     -1.9714946     -19.280018      164.24832      143.20025      144.20176     -97211.314      7450.8769      8572.8633      3439.3094    
    849000   299.29871      0.0849        -0.00015049969  1.5049969      7.9159458      1.867329       164.26346      143.10843      144.25766     -97113.372      7373.0672      8722.2409      3452.1531    
    850000   301.3814       0.085         -0.0013133154   13.133154      8.5584893      17.051464      164.2786       143.2147       144.08469     -97269.649      7363.2195      8584.8488      3437.5434    
    851000   300.3307       0.0851        -0.0024077543   24.077543     -10.370999      3.0384878      164.29374      143.04658      144.31945     -97192.353      7388.1277      8658.6658      3448.5974    
    852000   300.1111       0.0852         0.0039745566  -39.745566     -25.800947     -4.5605497      164.30888      143.22526      144.11693     -97250.84       7363.1318      8603.3368      3461.4633    
    853000   300.83906      0.0853         0.0012826023  -12.826023     -1.5426812      29.231172      164.32402      143.31577      143.96025     -97089.348      7359.8722      8624.1239      3446.6977    
    854000   301.0837       0.0854        -0.00011921506  1.1921506     -8.3710745      17.222819      164.33916      143.38549      143.81837     -97304.372      7388.043       8787.6632      3466.0733    
    855000   300.59083      0.0855         0.00083954138 -8.3954138     -19.336549     -13.145975      164.3543       143.45095      143.79104     -97283.189      7308.1861      8749.781       3452.0239    
    856000   300.26586      0.0856         0.00070667474 -7.0667474     -19.46784      -7.6166004      164.36945      143.70139      143.59017     -97261.371      7378.9318      8764.9134      3460.623     
    857000   300.89299      0.0857        -0.0030475768   30.475768     -0.34765466     8.5885455      164.38459      143.23533      143.88773     -97387.084      7316.1666      8793.7216      3461.0178    
    858000   299.99444      0.0858        -0.00010042339  1.0042339      7.1044557      32.185645      164.39973      143.44395      143.83941     -96988.373      7408.9848      8600.0207      3453.2328    
    859000   301.49687      0.0859         0.0023991573  -23.991573     -0.35787017    -27.183785      164.41487      143.50703      143.95687     -96995.533      7266.9367      8649.8886      3448.4965    
    860000   299.56087      0.086          0.0036061241  -36.061241     -11.050269     -19.555317      164.43001      143.46588      143.99731     -96952.405      7394.9037      8606.1765      3432.0078    
    861000   298.70399      0.0861         0.0032837644  -32.837644      4.9144243     -16.525497      164.44515      143.36172      143.98264     -97139.224      7444.3106      8682.4495      3445.2772    
    862000   300.27953      0.0862         0.0019108609  -19.108609     -1.9418842      0.803158       164.46029      143.5706       143.80465     -96956.398      7318.0812      8618.2486      3444.6906    
    863000   300.77435      0.0863        -0.0037327884   37.327884      3.8853992     -18.358395      164.47543      143.3386       143.83661     -97179.724      7305.5051      8649.7792      3453.5276    
    864000   300.27822      0.0864        -0.0071458592   71.458592     -13.250885      61.813612      164.49057      143.5261       143.51628     -97201.834      7316.8083      8782.6559      3438.0876    
    865000   299.22654      0.0865        -0.0051327127   51.327127      38.62256      -0.47030653     164.50571      143.29374      143.66173     -97216.181      7383.8831      8629.9275      3465.4591    
    866000   298.49157      0.0866        -0.0037310929   37.310929      1.6356127     -22.241486      164.52085      143.56246      143.74751     -96985.486      7338.2785      8566.4427      3453.6245    
    867000   300.31074      0.0867        -0.00097426295  9.7426295      0.10397256    -20.6493        164.536        143.31759      143.76549     -97209.062      7369.0477      8597.384       3447.1734    
    868000   299.28976      0.0868        -0.00026318499  2.6318499      44.804439     -1.1437611      164.55114      143.27758      143.72834     -97302.025      7346.1961      8701.6996      3438.012     
    869000   299.00507      0.0869         0.0032319119  -32.319119     -29.705474      0.71524433     164.56628      143.38907      143.78344     -97140.514      7349.3015      8561.8583      3465.374     
    870000   300.80186      0.087         -0.0007563385   7.563385       0.63915268    -17.531533      164.58142      143.28866      143.94292     -97083.284      7263.9317      8606.6263      3467.4238    
    871000   299.8506       0.0871         0.0042025896  -42.025896     -31.674559     -13.278082      164.59656      143.5896       143.87272     -96828.145      7373.9573      8526.4884      3474.4553    
    872000   299.91256      0.0872        -0.0026071225   26.071225      10.584729      21.350807      164.6117       143.18459      143.97617     -96954.613      7345.075       8562.3806      3471.1092    
    873000   299.49647      0.0873        -0.00078239624  7.8239624     -14.099031      21.287612      164.62684      143.47986      143.6489      -97053.606      7360.6747      8580.7486      3453.3517    
    874000   300.25327      0.0874         0.0024192601  -24.192601     -16.983366     -4.3019997      164.64198      143.5377       143.58236     -97113.807      7294.9712      8721.2262      3444.9276    
    875000   300.23442      0.0875        -0.0020585492   20.585492      29.935661     -7.887928       164.65712      143.50623      143.48823     -97147.475      7266.786       8536.4667      3453.0971    
    876000   299.80856      0.0876         0.0060010374  -60.010374     -13.598431     -5.656939       164.67226      143.67407      143.57738     -96939.516      7307.904       8596.3971      3429.308     
    877000   298.99442      0.0877         0.0016318537  -16.318537     -5.6148929     -2.3029576      164.6874       143.76573      143.50718     -96880.47       7363.7769      8449.7079      3435.783     
    878000   301.1988       0.0878         0.0032940551  -32.940551      17.388481     -8.5246515      164.70254      143.52167      143.59882     -97085.576      7258.4705      8570.1944      3457.5789    
    879000   298.87318      0.0879         0.0029155064  -29.155064      4.7909377      9.9729752      164.71769      143.30742      143.72111     -97095.413      7288.4208      8576.2438      3464.8083    
    880000   300.82593      0.088          0.0036094328  -36.094328     -0.68115063     6.0556934      164.73283      143.37003      143.53844     -97203.472      7328.2125      8593.1023      3462.2545    
    881000   300.25605      0.0881        -0.0014135396   14.135396      35.447806      17.106995      164.74797      143.26944      143.61638     -97136.802      7349.2573      8514.4109      3454.1816    
    882000   300.52301      0.0882         0.0021543818  -21.543818     -15.215097      27.785568      164.76311      143.08943      143.56109     -97475.824      7379.5918      8583.8588      3461.8757    
    883000   300.15429      0.0883        -0.0008717185   8.717185      -12.925475     -22.005461      164.77825      143.29103      143.48734     -97242.622      7417.6113      8512.1599      3475.3975    
    884000   298.19172      0.0884         0.00084691778 -8.4691778     -28.25426      -20.892387      164.79339      143.53503      143.21992     -97299.815      7450.9504      8617.0964      3475.3985    
    885000   298.60789      0.0885         0.0031368451  -31.368451      19.779274     -6.8445971      164.80853      143.28632      143.63614     -97138.609      7429.212       8627.9302      3473.9866    
    886000   299.83365      0.0886         0.0011988605  -11.988605     -27.100596      7.6873399      164.82367      143.44295      143.47687     -97178.437      7332.6992      8654.2604      3477.6037    
    887000   299.84345      0.0887         0.0012042339  -12.042339      14.738152      47.722862      164.83881      143.49245      143.33317     -97150.817      7303.5035      8486.37        3476.3728    
    888000   299.99643      0.0888         0.00061540759 -6.1540759     -26.639448     -26.014917      164.85395      143.65745      143.34857     -97122.044      7428.1038      8599.5763      3471.137     
    889000   300.11722      0.0889         0.0035409048  -35.409048     -2.4740706     -1.1859192      164.86909      143.76461      143.31187     -97096.964      7397.9708      8502.6044      3458.0836    
    890000   299.19783      0.089          0.0011122766  -11.122766     -20.612083      21.633139      164.88424      143.71866      143.10679     -97133.495      7414.3025      8535.262       3466.649     
    891000   300.46897      0.0891        -0.0032522084   32.522084      7.6053648      35.043314      164.89938      143.65448      143.0057      -97264.475      7323.2352      8455.7527      3450.0043    
    892000   299.9855       0.0892        -0.0034283148   34.283148      9.5391174      29.639332      164.91452      143.58469      143.13581     -97237.854      7432.3438      8541.7218      3468.6674    
    893000   300.87534      0.0893         0.0040430405  -40.430405     -26.192759      23.791972      164.92966      143.67639      143.31897     -97033.827      7340.9202      8489.6214      3458.3427    
    894000   299.18736      0.0894         0.00033283945 -3.3283945      2.6555195      11.454085      164.9448       143.6844       143.23787     -97130.025      7439.6633      8576.3488      3459.4816    
    895000   299.97093      0.0895         0.0013460633  -13.460633      1.8499754     -3.972562       164.95994      143.66676      143.31617     -96986.022      7323.2649      8519.1673      3453.0667    
    896000   298.63706      0.0896         0.0019106145  -19.106145     -25.626245     -24.367427      164.97508      143.61426      143.32763     -97081.874      7374.9527      8650.0252      3471.0785    
    897000   299.35753      0.0897         0.0026850617  -26.850617      13.286997     -1.0081072      164.99022      143.3892       143.55608     -97141.35       7474.8367      8494.044       3467.3768    
    898000   300.56038      0.0898        -0.0024789458   24.789458      1.6703635     -3.8500807      165.00536      143.14427      143.52916     -97309.699      7352.4795      8527.4418      3447.7525    
    899000   299.58085      0.0899         0.00284599    -28.4599        9.4400176      3.7209135      165.0205       143.26975      143.41043     -97131.268      7373.0491      8512.915       3436.6313    
    900000   299.36267      0.09           0.0037484489  -37.484489      5.4306874      3.8288756      165.03564      143.42468      143.40429     -97088.878      7463.6449      8489.389       3448.248     
    901000   299.77018      0.0901         0.0010466571  -10.466571      12.606501     -9.0994692      165.05079      143.38268      143.40238     -97106.903      7361.8035      8434.2632      3455.6757    
    902000   298.97267      0.0902        -0.0041143221   41.143221      13.248382     -12.905468      165.06593      143.11378      143.48092     -97227.485      7427.3386      8642.0482      3455.1809    
    903000   299.8377       0.0903        -0.0070571542   70.571542      7.3403037     -14.374791      165.08107      143.19557      143.38797     -97269.218      7385.4484      8603.3122      3454.4688    
    904000   299.94613      0.0904        -0.0027383939   27.383939      29.477974     -24.224558      165.09621      143.17489      143.40927     -97336.366      7387.484       8600.6598      3438.3891    
    905000   299.98265      0.0905        -0.00035510371  3.5510371     -36.326882      25.723762      165.11135      143.21122      143.45717     -97184.978      7365.4294      8627.2374      3433.5041    
    906000   300.28845      0.0906        -0.0023062791   23.062791      9.558109      -3.0411829      165.12649      143.13846      143.46607     -97142.82       7378.3923      8635.7922      3443.0451    
    907000   299.77741      0.0907        -0.0049029483   49.029483      4.5562099     -29.142058      165.14163      142.94091      143.73882     -97129.916      7348.7978      8585.4614      3442.9437    
    908000   299.72949      0.0908         0.00039764459 -3.9764459      4.3900947     -3.8594232      165.15677      143.10619      143.5945      -97032.564      7374.0334      8618.7597      3453.4012    
    909000   301.21771      0.0909         0.00084017445 -8.4017445      1.7347455      22.870818      165.17191      142.75154      143.66403     -97277.593      7327.6969      8688.0194      3436.0261    
    910000   301.00336      0.091          0.0018105483  -18.105483      33.271924     -18.269811      165.18705      142.58397      144.16467     -97036.619      7326.1625      8556.8729      3451.7823    
    911000   298.52985      0.0911         0.0023837134  -23.837134     -7.1800645      18.95348       165.20219      142.75946      143.74489     -97231.32       7456.0067      8620.8753      3453.2006    
    912000   299.8063       0.0912         0.00061355284 -6.1355284     -15.723904      16.470669      165.21734      142.91517      143.69163     -97085.445      7339.5242      8604.0562      3453.2867    
    913000   299.35177      0.0913        -0.0012575595   12.575595      9.1490567     -12.087771      165.23248      142.73367      143.76463     -97078.038      7299.0484      8623.5201      3426.3352    
    914000   300.34676      0.0914        -0.0018414769   18.414769      35.643843     -33.095633      165.24762      142.73831      143.65933     -97306.305      7429.0625      8733.1889      3452.1429    
    915000   300.58606      0.0915        -0.0040431542   40.431542     -26.12232       48.841686      165.26276      142.89197      143.4752      -97309.188      7387.022       8602.2323      3435.6373    
    916000   299.65387      0.0916         0.0028196782  -28.196782      6.5129616     -11.727554      165.2779       143.10006      143.33285     -97187.127      7313.6295      8665.0974      3432.0687    
    917000   298.69617      0.0917         0.0042773925  -42.773925      34.047171     -27.346905      165.29304      143.05143      143.67971     -96922.429      7456.4547      8533.9988      3450.7282    
    918000   300.25546      0.0918         0.0046727268  -46.727268     -29.800863      11.964464      165.30818      143.04072      143.89889     -96875.427      7343.7415      8363.3752      3455.5357    
    919000   299.7865       0.0919         0.00055271113 -5.5271113     -3.8620651      53.787463      165.32332      142.99349      143.52508     -97000.335      7303.9225      8643.1702      3450.4331    
    920000   301.19078      0.092         -0.0032896776   32.896776      5.76912       -10.188994      165.33846      142.60991      143.82885     -97190.823      7284.7066      8535.0845      3426.7766    
    921000   300.01972      0.0921        -0.00039218042  3.9218042     -28.642363      7.1869408      165.3536       142.66541      143.92654     -97040.033      7316.3557      8740.2432      3431.6258    
    922000   301.22769      0.0922         0.003579325   -35.79325       1.6061962      1.2608124      165.36874      142.61467      143.8209      -97199.343      7328.6829      8515.1201      3438.6462    
    923000   299.63501      0.0923         0.0019109814  -19.109814      8.4412812      0.42299439     165.38388      142.67222      143.97234     -96910.892      7261.5194      8531.413       3431.405     
    924000   299.1163       0.0924        -5.9268336e-05  0.59268336     8.7776398     -5.7833844      165.39903      142.39968      143.92023     -97128.672      7361.4506      8770.2663      3417.4       
    925000   300.82101      0.0925        -0.0014575915   14.575915     -25.704567      2.467949       165.41417      142.49643      144.04579     -97079.157      7434.1148      8602.0142      3434.1651    
    926000   299.69163      0.0926         0.0013295805  -13.295805     -9.3160792     -42.355271      165.42931      142.41008      144.02843     -97063.902      7380.0548      8588.2096      3423.7796    
    927000   300.87709      0.0927         0.00035394446 -3.5394446      26.58618      -32.583786      165.44445      142.58386      143.72244     -97185.792      7334.4248      8669.1627      3413.3443    
    928000   299.26821      0.0928        -0.0024123099   24.123099     -7.6906736      3.2252879      165.45959      142.81127      143.56499     -97087.429      7390.2666      8697.5691      3420.8629    
    929000   301.4807       0.0929         0.00031129612 -3.1129612      7.9387749      8.7312711      165.47473      142.56401      143.90693     -97004.641      7283.8353      8664.0463      3417.7633    
    930000   298.76611      0.093         -0.0020713357   20.713357     -13.140275     -17.385071      165.48987      142.60599      143.70823     -97104.106      7478.2719      8759.5901      3415.3679    
    931000   299.03422      0.0931        -0.0023261798   23.261798      46.169462      20.8099        165.50501      142.47281      143.71651     -97152.666      7422.2547      8737.2223      3441.8417    
    932000   301.27443      0.0932        -0.00075854627  7.5854627      7.7985445      24.406676      165.52015      142.47944      143.67228     -97251.447      7381.8938      8687.7737      3444.2157    
    933000   299.49233      0.0933         0.0033148474  -33.148474     -11.103502      5.9142898      165.53529      142.59768      144.04884     -96885.931      7378.1563      8473.7372      3433.6689    
    934000   300.54324      0.0934         0.0014628618  -14.628618      12.367918      2.1131874      165.55043      142.495        143.94602     -97056.209      7392.4415      8615.7613      3434.2002    
    935000   300.23136      0.0935         0.0018747412  -18.747412      12.934918     -5.2209562      165.56558      142.38128      144.0359      -97005.041      7384.0924      8622.297       3453.609     
    936000   299.05094      0.0936         0.0017599287  -17.599287     -0.80330763    -5.1366793      165.58072      142.65024      143.8002      -96855.275      7235.8035      8639.7652      3443.0227    
    937000   300.93357      0.0937        -0.0023499282   23.499282     -9.4029064     -0.87592129     165.59586      142.43648      143.96268     -96963.112      7297.4083      8662.9837      3429.0591    
    938000   301.173        0.0938        -0.0014552056   14.552056      9.8484215     -1.9852259      165.611        142.3792       143.91073     -97080.478      7306.3671      8675.5965      3424.7215    
    939000   300.56364      0.0939         0.0025521441  -25.521441      12.075117      15.555024      165.62614      142.27896      143.95674     -97119.456      7313.8986      8777.111       3415.8697    
    940000   298.57842      0.094          0.00057915567 -5.7915567      7.370251       18.516806      165.64128      142.30914      143.73893     -97175.626      7379.935       8582.5222      3421.6296    
    941000   299.11134      0.0941        -0.0013615638   13.615638     -5.0332546      10.401831      165.65642      142.40574      143.82648     -97195.158      7372.5072      8730.236       3427.2215    
    942000   298.35821      0.0942         0.0016670346  -16.670346      31.918797      15.639089      165.67156      142.38716      143.65722     -97180.31       7344.1069      8777.9181      3429.6931    
    943000   298.67817      0.0943         0.0028701714  -28.701714      1.3173048      7.8833321      165.6867       142.42965      143.81092     -97171.602      7375.4678      8589.7171      3422.0225    
    944000   299.45156      0.0944         0.0022487729  -22.487729      7.1938935     -13.860263      165.70184      142.36222      143.88179     -97090.681      7383.3741      8818.0007      3426.1844    
    945000   299.65124      0.0945        -0.0019176848   19.176848      0.99898225     39.143027      165.71698      142.12665      143.92546     -97122.181      7359.3798      8752.4405      3414.6266    
    946000   300.08931      0.0946        -0.0018497687   18.497687     -13.347794     -22.425238      165.73213      142.32145      143.73859     -97304.131      7351.1642      8691.9636      3418.8623    
    947000   300.20537      0.0947         0.0023201731  -23.201731      7.5117382      22.196128      165.74727      142.59445      143.18518     -97454.415      7222.764       8727.4113      3417.4576    
    948000   300.35696      0.0948         0.00056075171 -5.6075171      15.039796      18.995951      165.76241      142.71722      143.57872     -96939.97       7307.9171      8661.0789      3409.5313    
    949000   298.4801       0.0949        -0.00072417675  7.2417675     -8.9866171      4.1616143      165.77755      142.77764      143.49195     -97026.926      7441.2846      8635.9518      3413.1423    
    950000   300.02798      0.095          0.0028193646  -28.193646      3.3971707     -16.448723      165.79269      142.65166      143.5608      -97045.731      7404.2393      8793.3877      3406.9939    
    951000   300.05915      0.0951         0.00059836812 -5.9836812     -21.522114     -5.8014573      165.80783      142.67247      143.48656     -97119.781      7399.8793      8609.3759      3415.1222    
    952000   300.43875      0.0952         0.00084952643 -8.4952643     -12.032654      10.575643      165.82297      142.83752      143.22792     -97224.255      7363.5766      8746.9922      3410.3693    
    953000   299.30732      0.0953         0.00010581454 -1.0581454      27.108022     -18.131716      165.83811      142.78096      143.43785     -97066.431      7390.5931      8523.7205      3412.5193    
    954000   300.33051      0.0954        -0.005753547    57.53547      -25.7873        13.938484      165.85325      142.65607      143.43901     -97049.678      7377.5512      8463.8676      3425.9792    
    955000   299.12558      0.0955        -0.0043038132   43.038132      17.315958     -8.5189393      165.86839      142.35472      143.64602     -97143.59       7388.6442      8669.302       3420.2208    
    956000   301.35914      0.0956         0.0011884874  -11.884874     -12.909805     -9.4001068      165.88353      142.15106      143.89653     -97095.293      7359.086       8692.8114      3422.477     
    957000   301.66179      0.0957         0.0013461744  -13.461744      32.687604     -15.614785      165.89867      142.18522      143.9893      -97058.916      7320.3612      8691.0087      3422.6345    
    958000   300.05494      0.0958         0.002401967   -24.01967       25.602523     -1.4583051      165.91382      142.14458      143.99191     -97010.013      7302.0693      8620.7709      3417.3383    
    959000   299.73674      0.0959        -0.0023541318   23.541318      18.42725       1.5791614      165.92896      142.28341      143.6832      -97035.765      7392.1076      8629.9451      3401.8862    
    960000   300.6138       0.096          0.0020141778  -20.141778      7.957794      -6.6082589      165.9441       142.29744      143.53221     -97280.86       7369.6574      8662.9417      3404.0893    
    961000   299.61755      0.0961         0.0033414213  -33.414213     -26.107043     -12.697905      165.95924      142.74528      143.38444     -96893.821      7288.9856      8532.6399      3413.2768    
    962000   299.87453      0.0962         0.00074962941 -7.4962941      11.737718     -6.4649953      165.97438      142.45827      143.31857     -97265.109      7334.1337      8640.9633      3407.6583    
    963000   299.14613      0.0963         0.0049450923  -49.450923      3.5303617     -0.97901658     165.98952      142.38379      143.47992     -97236.409      7443.2561      8617.2473      3420.1918    
    964000   300.08226      0.0964         0.0027763525  -27.763525      3.0888154      14.821239      166.00466      142.51984      143.30375     -97186.99       7419.2902      8653.3369      3403.646     
    965000   300.93861      0.0965         0.0062789975  -62.789975      2.2309418     -1.7611294      166.0198       142.58031      143.36204     -97222.024      7368.7624      8670.5647      3423.414     
    966000   301.23318      0.0966         0.0016766437  -16.766437      6.9295376      22.944633      166.03494      142.51357      143.30552     -97190.08       7372.6115      8563.1223      3416.2864    
    967000   298.61275      0.0967         0.0028410642  -28.410642     -10.169709      12.055089      166.05008      142.45608      143.53681     -96863.707      7382.0993      8425.4641      3433.0715    
    968000   300.42642      0.0968         0.0047995839  -47.995839     -8.7857202      21.246524      166.06522      142.48411      143.40862     -97165.288      7340.9456      8576.955       3416.2817    
    969000   299.87857      0.0969        -0.0010466212   10.466212      12.892888     -26.429784      166.08037      142.24759      143.36036     -97444.93       7439.9726      8726.3732      3412.3297    
    970000   300.89212      0.097          0.00115183    -11.5183       -7.4814252     -20.888196      166.09551      142.41012      143.33548     -97379.837      7420.4044      8595.7358      3414.2693    
    971000   300.73843      0.0971        -0.0026118314   26.118314     -33.291683     -17.496872      166.11065      142.20333      143.50141     -97342.792      7399.284       8646.6933      3396.1179    
    972000   300.10061      0.0972        -0.0015534064   15.534064      0.77808094    -3.9342016      166.12579      142.23039      143.39555     -97350.813      7431.5382      8669.6428      3393.3693    
    973000   299.48423      0.0973        -0.00046150765  4.6150765     -31.113813      21.289079      166.14093      142.1675       143.31437     -97507.487      7406.1734      8743.8018      3390.2287    
    974000   300.02655      0.0974        -0.0050072527   50.072527     -14.509629     -22.708064      166.15607      141.86369      143.68891     -97334.617      7419.4237      8584.5872      3409.3726    
    975000   299.73245      0.0975        -0.0013622818   13.622818      20.446102     -5.5717619      166.17121      141.8992       143.51619     -97513.38       7516.1869      8597.9306      3417.2124    
    976000   299.68239      0.0976        -0.0059918918   59.918918      22.556365      7.3901295      166.18635      142.07338      143.43494     -97333.14       7418.3066      8620.8428      3412.2184    
    977000   299.43076      0.0977        -0.0021044689   21.044689     -1.8570634      27.929876      166.20149      142.32839      143.32158     -97278.82       7447.1689      8680.2945      3413.8685    
    978000   298.93954      0.0978        -0.002402594    24.02594       2.359367       43.495377      166.21663      142.34386      143.18468     -97299.68       7459.0125      8607.9205      3424.5897    
    979000   300.76424      0.0979        -0.002655959    26.55959      -31.174602     -31.493349      166.23177      142.42628      143.31474     -97224.285      7377.6748      8551.1403      3409.8861    
    980000   299.14084      0.098          0.0025549471  -25.549471     -13.31842      -24.279125      166.24692      142.31377      143.21222     -97418.348      7411.3077      8732.3363      3394.6599    
    981000   300.76466      0.0981         0.00032382436 -3.2382436     -3.7498931      17.501288      166.26206      142.51541      143.05978     -97269.318      7399.7837      8575.7646      3400.2179    
    982000   299.53653      0.0982         0.0015763344  -15.763344     -15.489079      2.2022484      166.2772       142.51202      143.16913     -97131.726      7414.4396      8592.5075      3364.1881    
    983000   301.63232      0.0983         0.00094207249 -9.4207249      27.094526     -11.936251      166.29234      142.32765      143.17685     -97318.392      7272.8692      8576.7142      3368.1126    
    984000   298.60316      0.0984         0.0014389575  -14.389575     -3.6399824     -7.4895051      166.30748      142.47369      143.14585     -97191.608      7287.6723      8672.1101      3387.0284    
    985000   300.32682      0.0985        -0.002436286    24.36286       8.9444233     -5.6148162      166.32262      142.43589      143.07152     -97186.674      7296.1347      8605.5848      3385.9193    
    986000   299.62651      0.0986        -0.0015479287   15.479287      3.2423865     -4.0495913      166.33776      142.26805      143.32409     -97106.49       7359.677       8734.6093      3391.3692    
    987000   300.34752      0.0987        -0.001918474    19.18474       16.369103     -15.23706       166.3529       142.22285      143.18385     -97211.553      7299.3605      8743.8583      3377.5317    
    988000   299.69211      0.0988        -0.0026306667   26.306667     -2.1198831      27.611726      166.36804      142.68296      142.92561     -97021.748      7277.3065      8757.2228      3373.9108    
    989000   301.15963      0.0989        -9.4249248e-05  0.94249248     24.872717     -21.420242      166.38318      142.40858      143.17821     -97173.794      7251.6064      8644.2996      3371.3074    
    990000   298.62134      0.099          0.0020872457  -20.872457      4.7433641      4.7204765      166.39832      142.24405      143.22345     -97201.601      7415.9516      8661.8614      3381.944     
    991000   299.507        0.0991        -0.00023310594  2.3310594      21.731901     -8.4280132      166.41346      142.23579      143.44313     -96962.067      7354.7419      8645.2669      3392.5785    
    992000   300.57462      0.0992        -0.00075797746  7.5797746      31.515064      24.425022      166.42861      142.19772      143.24006     -97062.538      7258.964       8698.1503      3386.6801    
    993000   299.00627      0.0993         0.0048543723  -48.543723      27.585494     -6.5027891      166.44375      142.34467      143.25059     -97031.586      7459.3545      8634.0869      3408.3981    
    994000   300.56285      0.0994        -0.00030062112  3.0062112      30.586419      17.348134      166.45889      141.92615      143.21434     -97352.418      7341.2561      8670.7826      3414.1729    
    995000   299.35749      0.0995         0.0053587791  -53.587791      9.0726447      3.7346839      166.47403      142.19153      143.2667      -97223.615      7419.4818      8638.0822      3419.0772    
    996000   299.95238      0.0996         0.00059603256 -5.9603256     -13.678362      7.8450985      166.48917      142.21947      143.34437     -97104.913      7351.9743      8595.0423      3431.4855    
    997000   299.61784      0.0997        -0.0044964503   44.964503     -14.579976      6.8928229      166.50431      141.97966      143.52062     -97055.221      7447.9925      8687.9988      3440.3637    
    998000   299.7181       0.0998         0.0045015616  -45.015616     -1.0163252     -26.023281      166.51945      142.03517      143.52583     -97083.52       7333.8274      8755.5727      3419.5622    
    999000   300.78929      0.0999        -0.0018562406   18.562406      2.3583978      29.979642      166.53459      142.23282      143.118       -97214.903      7348.5652      8735.919       3421.9091    
   1000000   302.04123      0.1            0.0027988481  -27.988481      3.3355802     -2.697142       166.54973      142.15568      143.35464     -97176.637      7407.0808      8693.5157      3424.8054    
Loop time of 943.164 on 16 procs for 1000000 steps with 26130 atoms

Performance: 91.607 ns/day, 0.262 hours/ns, 1060.261 timesteps/s, 27.705 Matom-step/s
98.1% CPU use with 16 MPI tasks x no OpenMP threads

MPI task timing breakdown:
Section |  min time  |  avg time  |  max time  |%varavg| %total
---------------------------------------------------------------
Pair    | 422.04     | 423.52     | 426.1      |   5.5 | 44.90
Bond    | 127.29     | 128.45     | 130.57     |   7.1 | 13.62
Neigh   | 45.923     | 46.042     | 46.111     |   0.9 |  4.88
Comm    | 211.16     | 215.52     | 218.44     |  11.9 | 22.85
Output  | 0.85997    | 0.98212    | 1.1326     |   7.9 |  0.10
Modify  | 108.74     | 109.34     | 109.78     |   3.0 | 11.59
Other   |            | 19.31      |            |       |  2.05

Nlocal:        1633.12 ave        1664 max        1608 min
Histogram: 1 0 2 4 5 1 1 0 1 1
Nghost:        3294.81 ave        3320 max        3252 min
Histogram: 1 0 1 1 1 3 3 1 3 2
Neighs:        53758.8 ave       55422 max       52697 min
Histogram: 1 0 5 4 3 2 0 0 0 1

Total # of neighbors = 860141
Ave neighs/atom = 32.917757
Ave special neighs/atom = 4.8
Neighbor list builds = 18694
Dangerous builds = 0
unfix               1
unfix               2
Total wall time: 0:16:30
