#INIT
units real
boundary p p p
atom_style full

#atom_modify map array
pair_style lj/cut 13
bond_style harmonic
angle_style harmonic
dihedral_style harmonic

read_data ./PDMS_50.data

neighbor 1.8 bin
pair_modify shift no tail yes mix arithmetic
# special_bonds lj/coul 0.0 0.0 0.0

timestep 0.5
thermo 1000
thermo_style custom step temp press vol epair emol etotal enthalpy

velocity all create 300 1234567 rot yes dist gaussian

minimize 1.0e-10 1.0e-11 100000 100000

# -----------------------------------------------------
# 5. 计算均方回转半径
# -----------------------------------------------------
# 使用compute gyration命令计算整个体系的回转半径
fix             equil all nvt temp 300.0 300.0 100.0
variable        d_end equal "sqrt((x[1]-x[50])^2 + (y[1]-y[50])^2 + (z[1]-z[50])^2)"
compute         rg all gyration
fix             avg all ave/time 1000 500 1000000 c_rg v_d_end file avg.txt
# 输出热力学信息及回转半径数据，每隔1000步输出一次
thermo_style    custom step temp pe ke etotal c_rg v_d_end
thermo          10000
# 输出轨迹文件，便于后续可视化与分析
dump            traj all custom 1000 dump.pdms.lammpstrj id type x y z
# 运行模拟，记录回转半径数据（后续可统计分析均值与波动）
run             1000000
unfix           equil
# -----------------------------------------------------
# 6. 数据输出
# -----------------------------------------------------


# 写出最终体系数据文件
write_data      pdms_out.data