LAMMPS (29 Aug 2024)
# LAMMPS输入文件示例：使用Martini 3粗粒化力场计算PDMS的均方回转半径
# -----------------------------------------------------
# 1. 初始化设置
# -----------------------------------------------------
units               real
dimension           3
boundary            p p p
atom_style          full

# 读取包含PDMS分子结构的data文件
read_data           bad_pdms_10_box.data
Reading data file ...
  orthogonal box = (-2.108001 -1.1785 -1.396996) to (151.022 150.1315 150.413)
  4 by 2 by 2 MPI processor grid
  reading atoms ...
  26130 atoms
  scanning bonds ...
  1 = max bonds/atom
  scanning angles ...
  1 = max angles/atom
  scanning dihedrals ...
  1 = max dihedrals/atom
  orthogonal box = (-2.108001 -1.1785 -1.396996) to (151.022 150.1315 150.413)
  4 by 2 by 2 MPI processor grid
  reading bonds ...
  23517 bonds
  reading angles ...
  20904 angles
  reading dihedrals ...
  18291 dihedrals
Finding 1-2 1-3 1-4 neighbors ...
  special bond factors lj:    0        0        0       
  special bond factors coul:  0        0        0       
     2 = max # of 1-2 neighbors
     2 = max # of 1-3 neighbors
     4 = max # of 1-4 neighbors
     6 = max # of special neighbors
  special bonds CPU = 0.003 seconds
  read_data CPU = 0.159 seconds

# -----------------------------------------------------
# 2. 力场参数设置（Martini 3参数）
# -----------------------------------------------------
# 定义非键相互作用（示例：Lennard-Jones势，截断距离可参考Martini 3常用取值）
pair_style lj/cut   12.0
special_bonds       lj 0.0 0.0 0.5
Finding 1-2 1-3 1-4 neighbors ...
  special bond factors lj:    0        0        0.5     
  special bond factors coul:  0        0        0       
     2 = max # of 1-2 neighbors
     2 = max # of 1-3 neighbors
     4 = max # of 1-4 neighbors
     6 = max # of special neighbors
  special bonds CPU = 0.001 seconds
pair_coeff          1 1 0.7337 5.1
# 定义键、角、二面角势（示例参数，实际参数请参考相关文献）
bond_style          harmonic
bond_coeff          1 13.243 4.48
angle_style         harmonic
angle_coeff         1 5.48 86.0
dihedral_style      harmonic
dihedral_coeff      1 0.3346  1  1
# -----------------------------------------------------
# 3. 邻域列表设置
# -----------------------------------------------------
neigh_modify    one 1000
neighbor        1 bin
neigh_modify    delay 0 every 1 check yes

# -----------------------------------------------------
# 4. 能量最小化与预平衡
# -----------------------------------------------------
minimize        1.0e-4 1.0e-6 1000 10000

CITE-CITE-CITE-CITE-CITE-CITE-CITE-CITE-CITE-CITE-CITE-CITE-CITE

Your simulation uses code contributions which should be cited:

- Type Label Framework: https://doi.org/10.1021/acs.jpcb.3c08419

@Article{Gissinger24,
 author = {Jacob R. Gissinger, Ilia Nikiforov, Yaser Afshar, Brendon Waters, Moon-ki Choi, Daniel S. Karls, Alexander Stukowski, Wonpil Im, Hendrik Heinz, Axel Kohlmeyer, and Ellad B. Tadmor},
 title = {Type Label Framework for Bonded Force Fields in LAMMPS},
 journal = {J. Phys. Chem. B},
 year =    2024,
 volume =  128,
 number =  13,
 pages =   {3282–-3297}
}

CITE-CITE-CITE-CITE-CITE-CITE-CITE-CITE-CITE-CITE-CITE-CITE-CITE

Generated 0 of 0 mixed pair_coeff terms from geometric mixing rule
Neighbor list info ...
  update: every = 1 steps, delay = 0 steps, check = yes
  max neighbors/atom: 1000, page size: 100000
  master list distance cutoff = 13
  ghost atom cutoff = 13
  binsize = 6.5, bins = 24 24 24
  1 neighbor lists, perpetual/occasional/extra = 1 0 0
  (1) pair lj/cut, perpetual
      attributes: half, newton on
      pair build: half/bin/newton
      stencil: half/bin/3d
      bin: standard
Per MPI rank memory allocation (min/avg/max) = 8.445 | 8.505 | 8.881 Mbytes
   Step          Temp          E_pair         E_mol          TotEng         Press     
         0   0              3.1012118e+08  127107.56      3.1024828e+08  24330864     
       854   0             -115265.35      34103.802     -81161.548      417.34372    
Loop time of 1.7747 on 16 procs for 854 steps with 26130 atoms

97.4% CPU use with 16 MPI tasks x no OpenMP threads

Minimization stats:
  Stopping criterion = energy tolerance
  Energy initial, next-to-last, final = 
      310248284.586559  -81154.6006204582  -81161.5476823733
  Force two-norm initial, final = 28680001 46.207236
  Force max component initial, final = 1094020.9 12.773188
  Final line search alpha, max atom move = 0.0057625333 0.073605923
  Iterations, force evaluations = 854 855

MPI task timing breakdown:
Section |  min time  |  avg time  |  max time  |%varavg| %total
---------------------------------------------------------------
Pair    | 0.43021    | 0.66468    | 1.0814     |  23.5 | 37.45
Bond    | 0.077108   | 0.10717    | 0.14661    |   6.1 |  6.04
Neigh   | 0.38572    | 0.38937    | 0.39225    |   0.4 | 21.94
Comm    | 0.11123    | 0.52424    | 0.73275    |  24.1 | 29.54
Output  | 0          | 0          | 0          |   0.0 |  0.00
Modify  | 0          | 0          | 0          |   0.0 |  0.00
Other   |            | 0.08924    |            |       |  5.03

Nlocal:        1633.12 ave        1943 max        1303 min
Histogram: 2 2 3 1 0 0 1 1 4 2
Nghost:        2952.31 ave        3558 max        2358 min
Histogram: 5 3 0 0 0 0 0 1 3 4
Neighs:        58566.7 ave       78958 max       42519 min
Histogram: 4 2 2 0 1 1 1 1 3 1

Total # of neighbors = 937067
Ave neighs/atom = 35.86173
Ave special neighs/atom = 4.8
Neighbor list builds = 118
Dangerous builds = 0
fix             1 all npt temp 900.0 900.0 100.0 iso 1.0 1.0 1000
timestep        1
thermo_style    custom step temp press density vol
thermo          10000
run             500000
Generated 0 of 0 mixed pair_coeff terms from geometric mixing rule
Per MPI rank memory allocation (min/avg/max) = 7.322 | 7.406 | 7.808 Mbytes
   Step          Temp          Press         Density         Volume    
       854   0              417.34372      0.88816298     3517452.9    
     10000   901.00965      59.972749      0.4880623      6400968.7    
     20000   892.93753      7.5732765      0.35899991     8702151.2    
     30000   903.4493       10.448525      0.29440663     10611417     
     40000   898.40152      13.783305      0.25467702     12266798     
     50000   895.06258     -5.9198059      0.22338112     13985388     
     60000   892.26701     -1.2599542      0.19766403     15804957     
     70000   894.14567      7.5363701      0.17770985     17579619     
     80000   901.59971     -2.4800773      0.15246264     20490735     
     90000   903.6625       2.2263562      0.13528661     23092244     
    100000   899.62611     -1.3220678      0.1150104      27163383     
    110000   895.4064      -1.0708759      0.096798802    32273865     
    120000   903.32446      4.4249533      0.078120106    39990620     
    130000   896.90271      0.85591477     0.062681605    49840324     
    140000   901.26639      3.9628477      0.05024612     62175377     
    150000   899.54329      1.9002607      0.040017608    78067422     
    160000   896.58249      0.77686103     0.0319893      97659889     
    170000   901.45495      2.5131017      0.02605116     1.1992063e+08
    180000   900.81146      1.0774088      0.021842918    1.4302446e+08
    190000   904.76112      0.69438118     0.018447864    1.6934597e+08
    200000   900.32271      1.4589509      0.016165642    1.9325379e+08
    210000   907.89193      1.3505216      0.015048205    2.0760426e+08
    220000   903.50531      1.1544133      0.01411815     2.2128052e+08
    230000   895.3425       0.097635108    0.013622225    2.2933636e+08
    240000   900.87848      1.2929226      0.014034651    2.2259702e+08
    250000   895.59831      0.3110258      0.012993101    2.404408e+08 
    260000   896.1163       1.0009735      0.01239017     2.5214114e+08
    270000   902.24459      1.0877939      0.012614999    2.4764738e+08
    280000   897.81219      0.98259137     0.012284006    2.5432026e+08
    290000   903.74587      0.60809979     0.011970762    2.6097515e+08
    300000   901.02189      1.2287182      0.012090298    2.5839492e+08
    310000   902.05173      1.1844115      0.011826908    2.6414948e+08
    320000   897.1966       0.89167442     0.011743473    2.6602621e+08
    330000   900.53502      1.4124716      0.011316425    2.7606523e+08
    340000   904.46739      1.821553       0.011370022    2.7476389e+08
    350000   893.22572      0.77717778     0.011250983    2.7767098e+08
    360000   905.43467      1.4162042      0.011161668    2.7989288e+08
    370000   895.78167      0.73436036     0.011149681    2.8019379e+08
    380000   898.84284      1.2264475      0.011618313    2.68892e+08  
    390000   901.85017      1.080404       0.010901264    2.8657884e+08
    400000   903.32397      0.84861848     0.010847721    2.8799336e+08
    410000   900.30403      1.1648978      0.011240172    2.7793804e+08
    420000   901.03225      0.48775908     0.010576034    2.953916e+08 
    430000   898.18278      0.44984689     0.011080517    2.8194275e+08
    440000   897.90041      0.36810658     0.011155097    2.8005777e+08
    450000   894.18122      0.41398681     0.010867369    2.8747267e+08
    460000   901.18966      0.98541001     0.010764433    2.9022165e+08
    470000   893.55322      1.9386148      0.010981189    2.8449301e+08
    480000   899.51418      1.5055861      0.010685824    2.9235662e+08
    490000   907.22182      1.0771229      0.010799702    2.8927387e+08
    500000   900.88494      1.7807541      0.010756316    2.9044066e+08
    500854   898.8212       1.3214893      0.010723496    2.9132958e+08
Loop time of 241.634 on 16 procs for 500000 steps with 26130 atoms

Performance: 178.783 ns/day, 0.134 hours/ns, 2069.244 timesteps/s, 54.069 Matom-step/s
97.7% CPU use with 16 MPI tasks x no OpenMP threads

MPI task timing breakdown:
Section |  min time  |  avg time  |  max time  |%varavg| %total
---------------------------------------------------------------
Pair    | 25.642     | 38.96      | 54.036     | 155.6 | 16.12
Bond    | 50.577     | 65.172     | 83.726     | 118.5 | 26.97
Neigh   | 20.576     | 20.664     | 20.769     |   1.4 |  8.55
Comm    | 36.833     | 68.905     | 92.703     | 199.8 | 28.52
Output  | 0.0016708  | 0.0017902  | 0.0029545  |   0.7 |  0.00
Modify  | 36.068     | 39.813     | 45.357     |  49.9 | 16.48
Other   |            | 8.119      |            |       |  3.36

Nlocal:        1633.12 ave        1922 max        1388 min
Histogram: 2 2 2 2 1 2 1 1 0 3
Nghost:        553.438 ave         646 max         469 min
Histogram: 1 1 3 2 2 1 3 2 0 1
Neighs:        4261.12 ave        5160 max        3578 min
Histogram: 4 1 0 3 2 2 1 1 0 2

Total # of neighbors = 68178
Ave neighs/atom = 2.6091848
Ave special neighs/atom = 4.8
Neighbor list builds = 17594
Dangerous builds = 0
unfix           1

# variable        lambda equal ramp(0.8,1.0)
# fix             2 all adapt 1 pair lj/cut/soft lambda * * v_lambda

# fix             3 all npt temp 900.0 900.0 100.0 iso 1.0 1.0 1000
# timestep        1
# thermo_style    custom step temp press density vol
# thermo          10000
# run             50000
# unfix           3

# -----------------------------------------------------
# 5. 计算均方回转半径
# -----------------------------------------------------
# 使用compute gyration命令计算整个体系的回转半径
fix             equil all npt temp 900.0 900.0 100.0 iso 1.0 1.0 1000
group           pdms1 id <= 10
10 atoms in group pdms1
group           pdms2 id 11:20
10 atoms in group pdms2
group           pdms3 id 21:30
10 atoms in group pdms3
group           pdms4 id 31:40
10 atoms in group pdms4
group           pdms5 id 41:50
10 atoms in group pdms5
group           pdms6 id 51:60
10 atoms in group pdms6
group           pdms7 id 61:70
10 atoms in group pdms7
group           pdms8 id 71:80
10 atoms in group pdms8
group           pdms9 id 81:90
10 atoms in group pdms9
group           pdms10 id 91:100
10 atoms in group pdms10
# variable        d_end equal "sqrt((x[1]-x[10])^2 + (y[1]-y[10])^2 + (z[1]-z[10])^2)"
compute         rg1 pdms1 gyration
compute         rg2 pdms2 gyration
compute         rg3 pdms3 gyration
compute         rg4 pdms4 gyration
compute         rg5 pdms5 gyration
compute         rg6 pdms6 gyration
compute         rg7 pdms7 gyration
compute         rg8 pdms8 gyration
compute         rg9 pdms9 gyration
compute         rg10 pdms10 gyration
# fix             avg pdms ave/time 1000 800 1000000 c_rg v_d_end file avg.txt
# 输出热力学信息及回转半径数据，每隔1000步输出一次
thermo_style    custom step temp pe ke etotal c_rg1 c_rg2 c_rg3 c_rg4 c_rg5 c_rg6 c_rg7 c_rg8 c_rg9 c_rg10 press density vol
thermo          10000
# 输出轨迹文件，便于后续可视化与分析
dump            traj all custom 1000 dump.pdms.lammpstrj id type x y z
# 运行模拟，记录回转半径数据（后续可统计分析均值与波动）
run             1000000
Generated 0 of 0 mixed pair_coeff terms from geometric mixing rule
Per MPI rank memory allocation (min/avg/max) = 7.727 | 7.869 | 8.215 Mbytes
   Step          Temp          PotEng         KinEng         TotEng         c_rg1          c_rg2          c_rg3          c_rg4          c_rg5          c_rg6          c_rg7          c_rg8          c_rg9          c_rg10         Press         Density         Volume    
    500854   898.8212       35367.617      70005.215      105372.83      7.7150752      7.2379917      6.1189347      6.9456218      7.5854476      6.7289753      6.0172624      5.8001055      5.9745719      6.7782144      1.3214893      0.010723496    2.9132958e+08
    510000   900.45897      35638.696      70132.775      105771.47      7.3326556      5.8534528      6.6481796      5.3802352      5.7003524      6.6806415      8.2514405      6.3617761      5.3641861      6.4468425      1.0174158      0.010580601    2.9526408e+08
    520000   898.55302      35316.99       69984.328      105301.32      5.3272631      5.5343148      5.9269156      8.0282265      5.7845924      6.0593756      5.2077737      6.5369078      7.2545334      7.6488182      0.99750239     0.010906267    2.8644738e+08
    530000   901.16778      35521.145      70187.98       105709.13      6.1570694      6.399376       5.5901304      7.5390326      6.1666226      7.3302789      5.3824995      6.2864635      6.1123632      7.8063529      1.4263486      0.010882709    2.8706745e+08
    540000   899.92736      35356.259      70091.37       105447.63      5.7116029      6.7983772      6.4838037      7.5533627      6.0705853      6.8783674      8.2615592      6.7609217      5.7377791      5.8943761      1.2103716      0.010483994    2.9798486e+08
    550000   892.352        35244.434      69501.358      104745.79      5.7126695      7.620396       6.89461        5.4990517      6.2364008      5.5252054      5.932653       5.3804477      7.2373651      5.5954157      1.5393335      0.010820627    2.8871446e+08
    560000   898.52391      34815.986      69982.061      104798.05      7.2248167      6.4817767      5.2778357      7.5048097      7.1283547      7.3585933      6.5841048      7.8792342      6.1637567      6.7406158      0.61599645     0.010787239    2.8960806e+08
    570000   898.31476      35583.291      69965.771      105549.06      6.1446706      5.3012824      5.6341129      7.2244697      5.2676787      6.4043684      7.3945011      8.0245666      5.2786194      7.0642962      0.20942271     0.010404805    3.0025278e+08
    580000   899.72414      35040.011      70075.541      105115.55      6.5327954      7.3299861      6.4564027      5.9612815      5.9394853      5.9011113      5.6802602      6.3942939      5.4990311      5.6186431      0.77267127     0.010144436    3.0795911e+08
    590000   908.76949      35044.732      70780.044      105824.78      6.8184844      7.5063122      8.2490929      6.2587311      6.0239326      6.3673953      5.6634339      5.638945       5.4137457      6.2862513      1.3144397      0.010257835    3.0455465e+08
    600000   903.63859      35308.781      70380.421      105689.2       6.3946206      7.0348853      6.2862054      5.5807666      8.0305106      7.227234       5.4623436      5.241175       6.4088067      6.7972396      1.1137704      0.01080942     2.8901378e+08
    610000   901.95694      35173.344      70249.445      105422.79      5.8923253      6.3066571      5.8018535      7.4624311      6.7332355      5.802502       7.5188882      6.4070267      5.9627997      6.477704       1.0409588      0.01047917     2.9812204e+08
    620000   896.33376      35335.193      69811.48       105146.67      7.1437633      5.2507259      5.6848362      5.1316213      7.1825775      5.8989101      6.2746251      7.4975937      7.4672864      6.3383349      0.89927483     0.01089974     2.866189e+08 
    630000   898.6677       35215.113      69993.26       105208.37      6.9454634      7.5493721      5.5586725      6.1232319      5.4602733      5.3606249      6.339741       6.5221939      6.2748793      7.4802614      0.83434767     0.010541168    2.9636863e+08
    640000   897.87835      35533.807      69931.781      105465.59      6.3819047      5.852563       6.7788732      6.0444336      5.7858245      6.1047771      6.6075578      7.7973493      6.1550376      5.9517414      0.21452966     0.010671886    2.9273847e+08
    650000   902.73607      35048.602      70310.128      105358.73      5.8065751      5.1483454      5.7095159      5.0355206      5.7996215      5.4292564      7.6086362      7.3650725      8.0062379      6.2129971      1.1421877      0.010846014    2.8803869e+08
    660000   906.54371      35098.499      70606.688      105705.19      6.4867222      5.8240305      6.7267922      5.5493704      5.2851503      5.6409539      5.4820121      7.4618199      7.1120475      6.8669902      1.418516       0.010540521    2.9638683e+08
    670000   902.33132      34982.865      70278.603      105261.47      6.1163319      6.9700221      6.2523558      6.0412693      6.520282       5.8728737      6.1280499      6.5732548      6.6044812      6.9578037      0.63070063     0.010604877    2.9458819e+08
    680000   900.88515      35089.2        70165.968      105255.17      7.8071405      7.0507239      5.6685315      5.1525095      8.4330189      6.1726493      7.5297271      6.4200839      5.5293693      6.1369128      1.0374848      0.01063422     2.9377532e+08
    690000   902.16563      35012.858      70265.698      105278.56      6.3343336      5.9087801      7.7409061      6.0870028      7.1610984      7.2610721      7.4876313      6.9574405      5.8723499      6.1302054      1.21142        0.01017936     3.0690255e+08
    700000   899.95946      35342.459      70093.87       105436.33      8.0099392      8.2425777      6.872868       6.0276866      7.7535622      6.8159811      7.7381257      5.348173       5.3889796      6.9047264      0.74241209     0.010326763    3.0252185e+08
    710000   908.41318      34824.552      70752.293      105576.84      8.0177438      4.9215739      6.0564244      5.637358       5.3296769      6.7723678      6.3027516      7.022161       5.8217901      7.6469544      1.3008492      0.010620907    2.9414356e+08
    720000   899.45999      35252.602      70054.968      105307.57      5.9261035      6.8507714      6.9724455      8.626336       6.2174042      5.5578965      6.3246653      7.3930095      7.7805865      7.4514766      0.75605227     0.010604107    2.9460958e+08
    730000   906.32363      35050.652      70589.547      105640.2       5.2308516      7.9895763      6.6868076      6.0428408      6.6638241      6.3424434      4.8623246      6.4678942      7.4938925      6.8016392      1.0370725      0.01049164     2.9776771e+08
    740000   897.15587      35024.756      69875.51       104900.27      7.3329141      5.9872233      6.4747181      6.7668582      7.2165033      6.5086136      5.2837327      6.7971273      5.499754       6.1004972      0.32635022     0.010225258    3.0552495e+08
    750000   894.13109      35444.566      69639.924      105084.49      6.5463467      8.3228288      6.4497408      6.1515595      7.2714043      5.9828676      6.1165974      4.9782067      5.6278292      6.3543149      0.44159788     0.010702227    2.9190856e+08
    760000   893.03742      34974.046      69554.742      104528.79      5.686848       5.8920538      7.3341087      7.4425388      5.871732       6.1711631      6.4680444      6.5122751      7.8337469      6.6854617      0.77000977     0.010562254    2.9577696e+08
    770000   903.46558      34634.13       70366.946      105001.08      5.8559082      8.5371017      5.5458508      6.1481106      7.8060334      5.6851526      5.9345765      8.4129288      7.1045229      5.1678175      0.99143509     0.010278802    3.0393341e+08
    780000   900.77944      35172.205      70157.735      105329.94      6.5142088      7.0420119      6.1125465      5.5968425      9.8917607      6.8304328      6.7715496      5.7613497      5.0627447      6.6400131      1.0751602      0.010008912    3.1212899e+08
    790000   899.98355      35064.887      70095.746      105160.63      5.5611946      6.6531399      6.0997112      5.2485115      7.1440519      5.4762596      6.527796       6.7599626      5.5262206      7.043416       1.2815417      0.010483954    2.9798601e+08
    800000   905.10403      34973.304      70494.558      105467.86      5.7645339      8.3762066      5.4172824      7.5466058      6.6901479      5.3352167      7.8296029      5.6109797      7.6833896      6.2204187      1.4995699      0.010455721    2.9879064e+08
    810000   902.55286      35193.614      70295.858      105489.47      5.811611       8.0274607      7.2572965      6.1339925      7.2152222      6.0909584      5.8995756      6.2564224      8.4122651      6.3750618      0.31102503     0.010300772    3.0328518e+08
    820000   893.19507      35251.067      69567.021      104818.09      5.5043459      6.416323       6.1561607      6.5420978      5.7141114      6.7752122      4.9060223      5.4660411      7.0385047      7.7214939      1.6350416      0.010430526    2.9951238e+08
    830000   901.48504      34825.271      70212.69       105037.96      5.0386904      6.8562026      6.3978376      7.7483625      8.0707251      7.1997831      6.797702       7.3739617      4.9891375      6.481222       1.0845812      0.010437953    2.9929926e+08
    840000   901.14176      35435.258      70185.954      105621.21      5.5413962      6.4448511      5.6451477      5.4356798      7.3818881      6.7810355      6.2771144      7.4920548      6.2803233      5.7917905      0.74782221     0.010027846    3.1153962e+08
    850000   900.58043      35495.889      70142.234      105638.12      6.6371735      7.4265038      6.5785672      5.3743851      6.6000344      6.4765195      7.0769072      6.969108       5.2207446      5.8194524      1.6399148      0.0098470521   3.1725957e+08
    860000   904.0802       35041.423      70414.816      105456.24      6.3760769      6.3762591      5.8822428      6.2339098      7.3440907      5.8129088      6.61308        6.4017493      7.4323436      6.959451       0.076195655    0.010370535    3.0124497e+08
    870000   904.74692      35167.966      70466.744      105634.71      6.7705801      5.9816152      6.7404353      5.8244049      6.7819542      7.2787484      5.7389213      6.9024819      6.9315934      7.0108426      1.4361645      0.010217689    3.0575129e+08
    880000   904.47218      35182.194      70445.345      105627.54      6.6608191      6.4775063      6.3692717      5.9309893      7.4985404      5.6993954      7.2234198      7.2204198      6.1093905      5.2564421      0.26802568     0.010260019    3.0448984e+08
    890000   900.90807      35076.34       70167.753      105244.09      6.8150077      5.151921       7.3787459      6.0942034      7.0939177      6.7489671      6.5567969      7.7289553      6.6478662      6.5760371      0.8888349      0.0099539843   3.1385136e+08
    900000   898.90896      34934.576      70012.051      104946.63      6.5602967      6.5790573      5.6437295      6.7268642      8.2277049      7.1127365      6.5128349      5.4439177      7.372526       5.3213265      0.86903985     0.010379181    3.0099404e+08
    910000   896.64734      35248.701      69835.904      105084.6       6.5303719      6.9413366      6.5059875      4.791097       6.7213507      7.2122438      7.9609061      8.1050403      5.4638034      5.2834484      0.59127703     0.010186216    3.0669598e+08
    920000   903.86021      35013.744      70397.682      105411.43      7.398919       6.6671879      7.9480101      5.4735356      7.0710667      6.5376422      7.8640105      5.9881275      6.9826616      5.5874708      1.7978976      0.01018761     3.0665403e+08
    930000   897.60421      35208.167      69910.43       105118.6       6.2775462      5.5026052      6.5203758      6.6263671      6.6769883      5.9023896      7.4322309      5.5993182      6.7626742      7.2092909      0.71574207     0.010285616    3.0373207e+08
    940000   899.93597      35417.509      70092.04       105509.55      6.4896607      5.1998803      6.0691899      5.908531       7.1545639      5.8706899      7.3455256      7.0009985      5.3267067      7.4172358      1.0643712      0.010209453    3.0599794e+08
    950000   895.01397      35275.759      69708.687      104984.45      5.8086446      5.2990047      6.91913        7.559331       7.8843245      5.7342089      6.7424764      6.484058       5.3823181      5.9368419      0.90346756     0.010096935    3.094079e+08 
    960000   906.08238      34653.662      70570.757      105224.42      5.0855711      5.943702       6.1094992      6.0056681      6.4507226      8.2169447      6.4197731      6.2886878      6.2532198      5.6784703      0.96407886     0.010543473    2.9630385e+08
    970000   907.76763      35091.91       70702.014      105793.92      7.0707824      6.8187709      6.2571239      6.1168858      6.4071455      6.1666644      6.5241685      5.8472887      5.6623135      5.9954885      1.3625229      0.010216533    3.0578589e+08
    980000   899.65262      35000.188      70069.972      105070.16      6.1044447      7.7180562      8.188942       7.2803121      7.2397478      6.525441       6.9393396      6.5131323      7.9550873      6.9872574      0.85389737     0.010291449    3.0355992e+08
    990000   901.46622      35017.224      70211.225      105228.45      4.7758173      5.6215255      6.664295       7.3647538      7.5104397      6.6457992      6.6697165      5.4010092      6.4498646      5.2983043      1.4287554      0.01032347     3.0261834e+08
   1000000   897.42971      34904.846      69896.839      104801.68      6.5331878      5.4529952      5.6328868      5.8637691      7.163859       5.8439609      8.4597848      6.6982828      6.3487376      5.6745999      0.68745161     0.010121308    3.0866281e+08
   1010000   895.72406      34976.984      69763.993      104740.98      5.5508266      5.9314889      7.3782122      7.1223393      7.3106661      5.0399012      7.0328443      7.1522363      5.3985808      7.2737289      0.99267086     0.010082114    3.0986273e+08
   1020000   896.52321      35451.955      69826.236      105278.19      5.1610831      5.8501796      6.8988625      6.2704249      5.6575905      6.8510387      7.4143796      5.462415       5.6446073      6.9860786      1.0287017      0.01029756     3.0337979e+08
   1030000   901.40606      35269.391      70206.539      105475.93      5.8871262      7.0164954      6.122936       7.0886348      6.7947869      7.6746994      5.4289011      7.5298979      6.3712661      6.0940569      0.57956487     0.010043233    3.1106234e+08
   1040000   905.50354      35141.227      70525.673      105666.9       6.2927911      4.9427993      7.3174949      7.7386552      7.3395175      5.8579146      5.8830518      7.4842734      4.9791117      4.8819477      0.87468445     0.010337688    3.0220215e+08
   1050000   893.44786      35149.308      69586.71       104736.02      6.7048655      7.7437433      4.6016109      6.4247402      5.0627261      7.2027404      5.5867934      7.1769151      5.7876046      5.9040705      0.87286688     0.010552184    2.9605924e+08
   1060000   901.74243      35118.281      70232.738      105351.02      6.4521524      5.5285073      6.1751634      7.1846402      6.3080233      7.0489239      6.4376048      6.2063198      5.9037934      7.2006703      1.3558471      0.010214013    3.0586133e+08
   1070000   910.23263      35158.943      70894.002      106052.94      6.9112611      6.7076305      8.866517       6.5016584      6.0451147      5.4059295      5.2244398      6.9715881      7.3006139      8.5814519      1.5254376      0.010301423    3.0326602e+08
   1080000   907.30107      35706.036      70665.675      106371.71      5.3007306      5.9267199      7.7313034      7.2216489      6.3699384      6.4532263      7.6426364      7.0079977      6.3637593      7.0411681      0.62862927     0.010084828    3.0977936e+08
   1090000   897.86113      35124.467      69930.44       105054.91      5.5099675      6.514755       5.5430441      6.3811086      5.9734392      5.9645431      5.3509735      7.517581       7.3217436      5.9420724      0.97201349     0.010297815    3.0337226e+08
   1100000   905.60486      34862.19       70533.565      105395.75      5.3415886      7.0721574      7.4848897      7.1619311      6.8694905      6.6422924      5.0556885      6.829229       5.9214017      7.1618366      1.4726071      0.010325497    3.0255893e+08
   1110000   900.01827      34341.622      70098.45       104440.07      5.2278435      5.9271522      6.007681       6.8915708      6.5172177      6.1712575      5.9628617      6.6642059      6.4433867      8.7620468      1.1250044      0.010351479    3.0179954e+08
   1120000   898.65066      34781.028      69991.933      104772.96      6.4056615      6.6891759      7.3149698      7.1104505      6.2110287      5.5512814      6.1221062      5.3156171      5.7324781      8.0851759      0.68567862     0.0099599166   3.1366442e+08
   1130000   897.80173      34743.389      69925.814      104669.2       8.065382       6.2431811      5.4696783      7.2086108      6.7609412      7.0689166      7.6044192      6.0760841      5.2291302      6.0729186      1.6023175      0.010512851    2.9716691e+08
   1140000   888.4133       35213.747      69194.59       104408.34      5.4057861      5.5097779      4.8259819      5.6512319      6.0448993      7.4741691      6.3642854      5.9341638      5.3776757      8.2824652      1.2286977      0.010254724    3.0464706e+08
   1150000   895.66867      35158.288      69759.679      104917.97      7.4007618      7.3082752      5.9556778      6.3601735      6.447691       7.9037807      8.0849186      7.2431223      4.9897489      6.4449647      0.9063957      0.010240785    3.0506173e+08
   1160000   905.52792      35261.511      70527.572      105789.08      5.7598039      6.3925324      6.0867063      6.7380023      5.7775479      8.4639502      5.2122494      7.568406       6.1980322      5.5794158      0.68158243     0.010315953    3.0283886e+08
   1170000   902.53749      35396.837      70294.661      105691.5       7.0021916      6.7323138      5.9187216      6.0938733      6.3485624      6.1532586      8.4593493      6.4270981      6.5238052      7.0991393      1.1256298      0.010306247    3.0312405e+08
   1180000   904.25971      35028.752      70428.797      105457.55      6.3111376      6.4611868      5.6015136      5.315397       8.5544071      7.0645669      6.1474652      6.0529003      6.783336       6.8482719      1.0078443      0.010083476    3.0982088e+08
   1190000   903.8875       35617.656      70399.808      106017.46      8.7508797      6.1021025      7.909228       6.5300208      6.5020256      6.1846251      7.9318495      7.2010213      5.702028       6.804241       0.81899504     0.010082224    3.0985935e+08
   1200000   891.75529      35144.46       69454.883      104599.34      6.193024       6.2175585      7.7177875      8.1081001      7.712873       6.8573459      5.5382445      5.5415109      6.9339459      7.7754508      0.95720948     0.010176219    3.0699726e+08
   1210000   900.44102      35111.689      70131.376      105243.07      6.7030461      7.5425399      5.6320143      7.4586727      7.3681051      6.8344862      6.4784247      6.1700092      6.5901964      6.2912876      0.38649393     0.010392113    3.0061948e+08
   1220000   899.76504      35011.381      70078.728      105090.11      5.6209913      7.7938257      7.8824855      7.0664805      6.5748779      7.4771024      5.927669       7.3631953      5.2428781      6.0163516      0.71761266     0.010579908    2.9528343e+08
   1230000   891.02848      35216.245      69398.275      104614.52      5.3500141      7.3076299      6.6728852      6.1250928      6.4852761      7.8181088      7.0139341      5.9589291      6.5211457      5.8358241      1.1823851      0.010348654    3.0188192e+08
   1240000   905.25737      35032.513      70506.5        105539.01      5.4567174      6.3003458      6.9568118      6.1532001      7.529055       8.2322423      6.8619311      5.8465606      7.5760887      5.7650053      0.86914573     0.010642015    2.9356014e+08
   1250000   896.88947      35161.055      69854.761      105015.82      7.0606389      7.1411677      6.3412151      5.2985616      6.9256465      5.0123964      4.9111562      5.6241853      5.9502024      6.9537638      1.5316         0.010772845    2.8999504e+08
   1260000   899.74128      35442.322      70076.877      105519.2       7.0862044      6.2355017      4.6907749      7.2637677      7.9495477      5.7278815      5.2362358      5.9077307      5.4408869      5.5239771      0.71134957     0.010285332    3.0374047e+08
   1270000   902.45228      35395.67       70288.024      105683.69      6.0310647      5.7709054      6.1935969      6.3457929      5.9609016      6.564695       8.2316647      6.307647       5.666448       6.2058214      1.1321334      0.010320268    3.0271225e+08
   1280000   898.51069      35351.749      69981.032      105332.78      6.536672       6.8143296      5.8305179      5.2174776      7.4616131      7.1013112      6.8588071      6.8580122      5.6793787      6.5449387      0.13830244     0.010670652    2.927723e+08 
   1290000   905.85985      35263.476      70553.425      105816.9       5.4450917      5.388638       6.5008165      6.3184098      6.8549234      5.7628035      6.1129049      5.9469322      6.0843197      8.3166566      0.79288804     0.010541184    2.9636818e+08
   1300000   909.76235      34954.713      70857.373      105812.09      6.1710834      5.9575064      6.9206572      5.4581874      8.1312693      7.3837059      5.7709989      8.1494635      6.7623419      6.3512896      0.92543189     0.010281653    3.0384914e+08
   1310000   908.54448      35349.58       70762.519      106112.1       5.511242       5.0556195      5.8591656      7.9879404      5.3857581      6.8077644      5.4546895      7.7296042      7.4631775      6.8673477      0.49290291     0.010610409    2.944346e+08 
   1320000   896.2551       35066.196      69805.354      104871.55      5.6310846      5.5253095      4.904283       5.7403017      6.7346758      7.6661453      5.2245041      7.7931874      6.9796757      6.8737026      0.92666433     0.010596369    2.9482472e+08
   1330000   896.09567      35383.098      69792.936      105176.03      6.1808608      5.3022466      7.0268101      6.0399661      6.4463119      5.4746344      5.9423136      6.1942364      7.9835514      5.4685479      1.263707       0.010644634    2.9348793e+08
   1340000   898.97674      35278.316      70017.33       105295.65      6.8997711      5.7625752      7.0945428      5.8092391      7.2938086      6.1291468      7.6411825      8.2306027      7.4911465      6.7386794      0.4551406      0.010359626    3.0156218e+08
   1350000   898.23466      35027.566      69959.532      104987.1       6.366346       6.5951763      5.9670023      6.8508513      6.8124381      4.8106755      6.2982297      7.087512       8.1262828      7.5522166      0.79460855     0.010402508    3.0031907e+08
   1360000   912.61679      34903.216      71079.693      105982.91      7.638508       8.2337885      5.0462418      6.6578515      5.4247218      5.8446146      5.5821765      6.3271512      7.3270558      7.8568509      1.3220296      0.010567928    2.9561816e+08
   1370000   898.93017      34805.398      70013.703      104819.1       7.7913768      6.9653658      6.5310687      6.6838669      7.9720872      5.6447863      6.1945482      5.9790384      6.4891038      6.4132864      0.70098917     0.010454034    2.9883885e+08
   1380000   897.94855      35091.973      69937.249      105029.22      5.5380904      6.0841772      5.289745       7.0666713      6.1634976      6.9470809      7.1871393      7.4415043      6.0184911      8.2208733      1.2213175      0.01046555     2.9851002e+08
   1390000   909.39522      35097.428      70828.78       105926.21      6.6231636      7.1975406      6.9335636      6.7468923      6.9385376      6.4090504      5.8262054      6.9386039      6.093083       6.250836       1.3411629      0.010303997    3.0319025e+08
   1400000   903.7364       34857.111      70388.039      105245.15      5.7268753      7.2715977      6.2788503      6.4433113      5.8427673      5.9641343      8.1183358      5.8820161      7.9983649      6.7695281      1.7676355      0.010761051    2.9031285e+08
   1410000   902.47442      35077.504      70289.749      105367.25      7.848622       7.6372841      5.9364251      6.939542       6.7857163      5.4664681      7.6487056      7.3176389      6.5476263      7.638086       0.93643008     0.010263452    3.04388e+08  
   1420000   901.10434      35326.452      70183.039      105509.49      6.4654927      7.8236032      7.3662794      6.4763287      7.2741576      6.7645701      4.9270039      6.3447205      7.0498476      7.0602534      0.86878473     0.010407699    3.0016927e+08
   1430000   901.67771      35452.349      70227.696      105680.05      7.8994567      7.9574683      6.0955904      7.2578781      6.4251041      6.4110586      6.1587151      6.2622438      6.3300522      5.6896828      0.76063868     0.0096544665   3.2358821e+08
   1440000   904.61141      35178.861      70456.189      105635.05      7.1343011      7.244982       4.982996       7.5381265      6.4211085      6.4930657      5.6390736      5.3009732      6.4007338      6.6765425      0.68342149     0.010422925    2.997308e+08 
   1450000   905.99956      35224.583      70564.307      105788.89      7.6490897      6.6238041      7.5503115      6.4622169      5.9590742      6.7224907      5.64156        7.7009822      7.6730565      5.5785187      1.2622928      0.010608206    2.9449574e+08
   1460000   900.04851      35014.254      70100.805      105115.06      6.9991768      6.8488575      6.2998417      5.6936591      7.1374385      5.016849       6.1749009      7.0817816      6.5825063      6.0685984      0.65811394     0.010308761    3.0305015e+08
   1470000   895.67635      35169.736      69760.278      104930.01      6.8105296      6.7962586      6.9560897      5.0322039      6.4871366      6.3935251      7.232691       6.5662706      6.6486512      8.3713718      1.202507       0.010608058    2.9449985e+08
   1480000   892.64344      35042.235      69524.057      104566.29      7.4702118      6.1228818      5.8661094      6.5299874      6.1839013      6.8109603      7.1443701      6.1672299      7.1562191      6.6360222      0.54442171     0.010275816    3.0402174e+08
   1490000   901.57625      35462.367      70219.794      105682.16      5.9978787      5.7812728      6.4682794      6.2682371      7.6634041      6.3877189      7.0605537      6.0331221      7.520902       6.3418679      0.80396321     0.01033301     3.0233895e+08
   1500000   901.51865      35101.235      70215.308      105316.54      6.4994649      7.0444258      5.186743       5.1845034      6.7674291      5.6268681      7.0194274      5.3188355      5.9505152      7.9749546      1.1670082      0.010458964    2.9869799e+08
   1500854   898.27911      35110.025      69962.995      105073.02      5.6495962      6.6134202      6.4817365      6.6777489      6.1237286      5.9246362      7.095286       5.0136769      5.1926389      7.634889       0.6050122      0.010437441    2.9931394e+08
Loop time of 354.482 on 16 procs for 1000000 steps with 26130 atoms

Performance: 243.736 ns/day, 0.098 hours/ns, 2821.019 timesteps/s, 73.713 Matom-step/s
98.1% CPU use with 16 MPI tasks x no OpenMP threads

MPI task timing breakdown:
Section |  min time  |  avg time  |  max time  |%varavg| %total
---------------------------------------------------------------
Pair    | 35.152     | 38.109     | 42.401     |  34.5 | 10.75
Bond    | 118.36     | 128.05     | 139.55     |  59.5 | 36.12
Neigh   | 26.453     | 26.483     | 26.526     |   0.5 |  7.47
Comm    | 58.826     | 73.211     | 85.644     |  98.0 | 20.65
Output  | 2.0088     | 2.5825     | 3.1615     |  22.0 |  0.73
Modify  | 70.069     | 72.342     | 75.391     |  13.6 | 20.41
Other   |            | 13.71      |            |       |  3.87

Nlocal:        1633.12 ave        1821 max        1346 min
Histogram: 2 0 1 0 0 3 3 4 1 2
Nghost:        554.688 ave         670 max         441 min
Histogram: 1 2 2 0 3 3 1 0 3 1
Neighs:        4265.12 ave        5037 max        3194 min
Histogram: 2 0 0 1 3 1 2 5 1 1

Total # of neighbors = 68242
Ave neighs/atom = 2.6116341
Ave special neighs/atom = 4.8
Neighbor list builds = 35024
Dangerous builds = 0
unfix           equil
# -----------------------------------------------------
# 6. 数据输出
# -----------------------------------------------------


# # 写出最终体系数据文件
# write_data      pdms_out.data
Total wall time: 0:09:58
