units               real
dimension           3
boundary            p p p
atom_style          full

# 读取包含PDMS分子结构的data文件
read_data           bad_pdms_50_box_nvt.data
Reading data file ...
  orthogonal box = (-2.699997 -2.594002 -2.75) to (181.7 181.956 181.75)
  2 by 4 by 2 MPI processor grid
  reading atoms ...
  12350 atoms
  scanning bonds ...
  1 = max bonds/atom
  scanning angles ...
  1 = max angles/atom
  scanning dihedrals ...
  1 = max dihedrals/atom
  orthogonal box = (-2.699997 -2.594002 -2.75) to (181.7 181.956 181.75)
  2 by 4 by 2 MPI processor grid
  reading bonds ...
  12103 bonds
  reading angles ...
  11856 angles
  reading dihedrals ...
  11609 dihedrals
Finding 1-2 1-3 1-4 neighbors ...
  special bond factors lj:    0        0        0       
  special bond factors coul:  0        0        0       
     2 = max # of 1-2 neighbors
     2 = max # of 1-3 neighbors
     4 = max # of 1-4 neighbors
     6 = max # of special neighbors
  special bonds CPU = 0.002 seconds
  read_data CPU = 0.125 seconds
mass                1 72
# -----------------------------------------------------
# 2. 力场参数设置（Martini 3参数）
# -----------------------------------------------------
# 定义非键相互作用（示例：Lennard-Jones势，截断距离可参考Martini 3常用取值）
pair_style lj/cut   12.0
special_bonds       lj 0.0 0.0 0.5
Finding 1-2 1-3 1-4 neighbors ...
  special bond factors lj:    0        0        0.5     
  special bond factors coul:  0        0        0       
     2 = max # of 1-2 neighbors
     2 = max # of 1-3 neighbors
     4 = max # of 1-4 neighbors
     6 = max # of special neighbors
  special bonds CPU = 0.001 seconds
pair_coeff          1 1 0.7337 5.1
# 定义键、角、二面角势（示例参数，实际参数请参考相关文献）
bond_style          harmonic
bond_coeff          1 13.243 4.48
angle_style         harmonic
angle_coeff         1 5.48 86.0
dihedral_style      harmonic
dihedral_coeff      1 0.3346  1  1
# -----------------------------------------------------
# 3. 邻域列表设置
# -----------------------------------------------------
neigh_modify        one 1000
neighbor            1 bin
neigh_modify        delay 0 every 1 check yes

# -----------------------------------------------------
# 4. 能量最小化与预平衡
# -----------------------------------------------------
minimize            1.0e-4 1.0e-6 10000 100000

CITE-CITE-CITE-CITE-CITE-CITE-CITE-CITE-CITE-CITE-CITE-CITE-CITE

Your simulation uses code contributions which should be cited:

- Type Label Framework: https://doi.org/10.1021/acs.jpcb.3c08419

@Article{Gissinger24,
 author = {Jacob R. Gissinger, Ilia Nikiforov, Yaser Afshar, Brendon Waters, Moon-ki Choi, Daniel S. Karls, Alexander Stukowski, Wonpil Im, Hendrik Heinz, Axel Kohlmeyer, and Ellad B. Tadmor},
 title = {Type Label Framework for Bonded Force Fields in LAMMPS},
 journal = {J. Phys. Chem. B},
 year =    2024,
 volume =  128,
 number =  13,
 pages =   {3282–-3297}
}

CITE-CITE-CITE-CITE-CITE-CITE-CITE-CITE-CITE-CITE-CITE-CITE-CITE

Generated 0 of 0 mixed pair_coeff terms from geometric mixing rule
Neighbor list info ...
  update: every = 1 steps, delay = 0 steps, check = yes
  max neighbors/atom: 1000, page size: 100000
  master list distance cutoff = 13
  ghost atom cutoff = 13
  binsize = 6.5, bins = 29 29 29
  1 neighbor lists, perpetual/occasional/extra = 1 0 0
  (1) pair lj/cut, perpetual
      attributes: half, newton on
      pair build: half/bin/newton
      stencil: half/bin/3d
      bin: standard
Per MPI rank memory allocation (min/avg/max) = 8.28 | 8.366 | 8.79 Mbytes
   Step          Temp          E_pair         E_mol          TotEng         Press     
         0   0              12362163       8080.9318      12370244       547701.99    
       864   0             -33201.439      4728.3822     -28473.057     -88.004302    
Loop time of 0.450107 on 16 procs for 864 steps with 12350 atoms

94.9% CPU use with 16 MPI tasks x no OpenMP threads

Minimization stats:
  Stopping criterion = energy tolerance
  Energy initial, next-to-last, final = 
      12370244.3955073   -28470.390358934  -28473.0572160329
  Force two-norm initial, final = 2189056.9 11.10734
  Force max component initial, final = 115970.56 3.7283548
  Final line search alpha, max atom move = 0.030740086 0.11460995
  Iterations, force evaluations = 864 886

MPI task timing breakdown:
Section |  min time  |  avg time  |  max time  |%varavg| %total
---------------------------------------------------------------
Pair    | 0.027779   | 0.10077    | 0.21018    |  17.0 | 22.39
Bond    | 0.012904   | 0.041267   | 0.070176   |   8.3 |  9.17
Neigh   | 0.10704    | 0.10913    | 0.11111    |   0.4 | 24.25
Comm    | 0.03054    | 0.1475     | 0.26502    |  17.5 | 32.77
Output  | 0          | 0          | 0          |   0.0 |  0.00
Modify  | 0          | 0          | 0          |   0.0 |  0.00
Other   |            | 0.05144    |            |       | 11.43

Nlocal:        771.875 ave        1385 max         252 min
Histogram: 2 2 2 1 2 1 3 1 1 1
Nghost:        1045.06 ave        1694 max         531 min
Histogram: 2 5 1 0 0 1 1 3 2 1
Neighs:        15575.7 ave       32627 max        4696 min
Histogram: 4 2 2 1 0 2 2 2 0 1

Total # of neighbors = 249211
Ave neighs/atom = 20.179028
Ave special neighs/atom = 5.76
Neighbor list builds = 114
Dangerous builds = 0
velocity            all create 300 4928459
region              slab block 75 105 75 105 75 105 units box
group               slabs dynamic all region slab every 100
dynamic group slabs defined
variable            nslab equal count(slabs)
variable            step equal step
variable            pxx  equal pxx
variable            pyy  equal pyy
variable            pzz  equal pzz
variable            etotal equal etotal
compute             pressperatom all stress/atom NULL
compute             Ppairperatom all stress/atom NULL pair
compute             Pbondperatom all stress/atom NULL bond
compute             Pangleperatom all stress/atom NULL angle
compute             Pdihedralperatom all stress/atom NULL dihedral
compute             peperatom all pe/atom
compute             Epairperatom all pe/atom pair
compute             Ebondperatom all pe/atom bond
compute             Eangleperatom all pe/atom angle
compute             Edihedralperatom all pe/atom dihedral
variable            pxxperatom atom c_pressperatom[1]
variable            pyyperatom atom c_pressperatom[2]
variable            pzzperatom atom c_pressperatom[3]
variable            Pxxpairperatom atom c_Ppairperatom[1]
variable            Pyypairperatom atom c_Ppairperatom[2]
variable            Pzzpairperatom atom c_Ppairperatom[3]
variable            Pxxbondperatom atom c_Pbondperatom[1]
variable            Pyybondperatom atom c_Pbondperatom[2]
variable            Pzzbondperatom atom c_Pbondperatom[3]
variable            Pxxangleperatom atom c_Pangleperatom[1]
variable            Pyyangleperatom atom c_Pangleperatom[2]
variable            Pzzangleperatom atom c_Pangleperatom[3]
variable            Pxxdihedralperatom atom c_Pdihedralperatom[1]
variable            Pyydihedralperatom atom c_Pdihedralperatom[2]
variable            Pzzdihedralperatom atom c_Pdihedralperatom[3]
variable            NA equal 6.02214076e23
variable            dens equal "12350 * 72 / v_NA / (vol / 1e24)"  # 计算整体密度，单位g/cm3
variable            slabdens equal "v_nslab * 72 / v_NA / (30 * 30 * 30 / 1e24)"  # 计算slab密度，单位g/cm3
# npt系综下驰豫
dump                min all custom 10000 dump.pdms_min.lammpstrj id type x y z vx vy vz v_pxxperatom v_pyyperatom v_pzzperatom v_Pxxpairperatom v_Pyypairperatom v_Pzzpairperatom v_Pxxbondperatom v_Pyybondperatom v_Pzzbondperatom v_Pxxangleperatom v_Pyyangleperatom v_Pzzangleperatom v_Pxxdihedralperatom v_Pyydihedralperatom v_Pzzdihedralperatom c_peperatom c_Epairperatom c_Ebondperatom c_Eangleperatom c_Edihedralperatom
fix                 minp all print 1 "${step} ${pxx} ${pyy} ${pzz}" file minp100.txt screen no
fix                 1 all npt temp 300 600 10 iso 0 0 500 drag 2
thermo_style        custom step temp density press etotal pxx pyy pzz lx ly lz
thermo              10000
run                 500000
Generated 0 of 0 mixed pair_coeff terms from geometric mixing rule
Per MPI rank memory allocation (min/avg/max) = 10.66 | 10.77 | 11.17 Mbytes
   Step          Temp         Density         Press          TotEng          Pxx            Pyy            Pzz             Lx             Ly             Lz      
       864   300            0.23516744    -7.6056313     -17430.05      -8.9861015     -3.5045957     -10.326197      184.39999      184.55         184.5        
     10000   305.7396       0.35037738    -3.5874685     -13142.758     -7.2991057      9.6924861     -13.155786      161.4512       161.58254      161.53876    
     20000   311.23588      0.39126709     1.4839699     -15660.336      5.2029066     -0.61111063    -0.13988618     155.61885      155.74544      155.70324    
     30000   317.54155      0.39889251    -5.5079028     -16290.211     -11.017159      0.41177809    -5.918328       154.62083      154.74661      154.70469    
     40000   322.9371       0.39338913    -2.515718      -16224.894      10.797809     -16.438455     -1.9065086      155.33853      155.46489      155.42277    
     50000   328.19668      0.39004699    -2.0648467     -15860.894     -2.9533867     -16.408474      13.16732       155.78094      155.90767      155.86542    
     60000   335.12749      0.38517453     0.57717212    -15074.372      9.2571006     -2.3494658     -5.1761185      156.43507      156.56233      156.51991    
     70000   341.31465      0.38554595    -2.095874      -14795.836      2.0180586     -6.690375      -1.6153056      156.38482      156.51203      156.46963    
     80000   347.15153      0.3862757      0.1677027     -14425.4        4.0460654     -13.654944      10.111987      156.28627      156.41341      156.37103    
     90000   352.90917      0.38722757     3.6429448     -13855.775      21.802316     -1.6766807     -9.1968008      156.15811      156.28514      156.2428     
    100000   358.38137      0.3899553     -0.0043322803  -13444.205      31.854332     -23.683035     -8.184294       155.79315      155.91989      155.87764    
    110000   364.13385      0.39605997     1.4322457     -12613.96       8.8761176     -0.9111737     -3.6682066      154.98856      155.11464      155.07262    
    120000   372.96707      0.40663838    -5.0997042     -12252.841      4.7984771      8.0223706     -28.11996       153.63276      153.75774      153.71608    
    130000   378.37426      0.42345082     2.4484646     -11584.061      2.3407163     -4.1114069      9.1160845      151.572        151.6953       151.6542     
    140000   383.08036      0.44623931    -1.2432956     -11301.119     -24.54092       1.0531217      19.757912      148.94663      149.0678       149.02741    
    150000   389.44543      0.47500674    -1.9166412     -10631.528     -32.45262       31.442573     -4.7398771      145.87696      145.99563      145.95607    
    160000   396.09563      0.52762632    -9.4953289     -10708.928     -1.7636059     -28.930299      2.2079186      140.8568       140.97138      140.93319    
    170000   402.19837      0.57972498    -9.3952174     -10181.29      -3.8102344     -8.2184609     -16.156957      136.50418      136.61523      136.57821    
    180000   407.19168      0.62937279     3.2672616     -9937.4707      16.956391     -30.23356       23.078954      132.81608      132.92412      132.88811    
    190000   411.90054      0.68784512     0.088475874   -9795.7701     -56.682745      48.77319       8.1749832      128.94062      129.04551      129.01055    
    200000   418.62762      0.72689315     3.6674109     -9776.0939     -35.46987       21.516618      24.955485      126.58914      126.69212      126.65779    
    210000   425.84832      0.74961791    -3.9941273     -9543.4884      0.098999006    40.060272     -52.141653      125.2968       125.39873      125.36475    
    220000   432.58535      0.76550481    -10.246638     -8845.7599     -23.650763     -13.696543      6.6073915      124.42395      124.52517      124.49143    
    230000   436.40986      0.77942124     1.249373      -8503.0937      25.820857      39.48167      -61.554408      123.67898      123.77959      123.74605    
    240000   442.58957      0.80230936     1.6966494     -8148.5173     -72.266066      53.995328      23.360686      122.49152      122.59116      122.55795    
    250000   450.23824      0.82072112    -5.2448945     -8075.3648      8.0349778      18.256903     -42.026564      121.5686       121.6675       121.63453    
    260000   454.68393      0.83269218     6.5731973     -7503.6738      30.474237      1.983259      -12.737904      120.98322      121.08164      121.04883    
    270000   462.64588      0.83259335    -12.345033     -6733.1678      5.446867      -47.727094      5.2451298      120.98801      121.08643      121.05362    
    280000   465.35198      0.84288355     8.3778555     -6839.9645     -7.5994834      68.483757     -35.750707      120.49363      120.59166      120.55898    
    290000   473.64816      0.84142582    -6.6497962     -5877.3435     -20.960361     -42.815184      43.826156      120.56318      120.66126      120.62856    
    300000   478.47003      0.84606781    -5.492073      -5491.2722      10.877147      13.535425     -40.888791      120.34228      120.44018      120.40755    
    310000   486.70683      0.8488617     -11.772669     -4979.937       67.462485     -57.80402      -44.976472      120.21011      120.3079       120.2753     
    320000   492.86026      0.85077933     8.8370454     -4661.3158      0.56394193     68.533071     -42.585877      120.11972      120.21744      120.18487    
    330000   496.68028      0.84361052    -3.8288217     -4022.1203     -5.5392273      21.879586     -27.826824      120.45901      120.55701      120.52434    
    340000   502.12597      0.84119778     8.3770521     -3157.6914      7.8495103     -14.019818      31.301464      120.57407      120.67216      120.63946    
    350000   510.50006      0.84732428    -1.7231078     -2921.2718     -13.505088      0.17632054     8.1594445      120.28277      120.38062      120.348      
    360000   515.39085      0.84090153    -16.342671     -2259.3657     -47.751157      38.474327     -39.751183      120.58823      120.68633      120.65363    
    370000   522.67883      0.8385578      2.5268321     -1619.2354      4.8972091     -11.462665      14.145952      120.70047      120.79866      120.76593    
    380000   528.91681      0.83898034    -4.2151973     -1199.7375      22.840437     -33.637802     -1.8482269      120.6802       120.77838      120.74565    
    390000   531.73235      0.83392331     7.4692012     -877.1674       37.6349        2.4690447     -17.696341      120.92365      121.02202      120.98923    
    400000   538.60537      0.82815496    -0.95353076    -79.012543      6.6576941     -1.7973322     -7.7209541      121.20376      121.30236      121.26949    
    410000   545.8734       0.82706735    -4.0439866      574.11766      21.105693      12.470683     -45.708335      121.25687      121.35551      121.32263    
    420000   552.66725      0.82339329    -22.082691      1185.1446      29.603346     -36.387275     -59.464143      121.43695      121.53574      121.50281    
    430000   557.94481      0.82194684     4.363321       1825.7012     -18.288186     -8.4404257      39.818575      121.50814      121.60699      121.57404    
    440000   564.47631      0.81601335     0.851313       2418.4621      17.605242     -35.570564      20.519261      121.80194      121.90103      121.868      
    450000   566.95937      0.81156624     10.054186      3122.4764     -28.926914      44.802572      14.286901      122.02401      122.12328      122.09019    
    460000   576.70857      0.81185921    -15.999558      3325.7121     -40.283875     -13.707506      5.9927078      122.00933      122.10859      122.0755     
    470000   580.14997      0.80377115     0.8285937      4276.9996      4.439817      -44.463069      42.509033      122.41721      122.5168       122.4836     
    480000   587.93288      0.80496733    -10.253175      4503.2846     -37.235125      17.317221     -10.84162       122.35655      122.45608      122.4229     
    490000   593.19797      0.79925551    -4.3885623      5190.7121      69.475324     -22.490229     -60.150782      122.64733      122.7471       122.71384    
    500000   601.13323      0.79846366    -5.9673347      5641.4855      5.696282       5.9091755     -29.507462      122.68786      122.78766      122.75439    
    500864   600.59651      0.79545652    -7.9650835      5475.1213     -18.167238     -29.443899      23.715887      122.84226      122.9422       122.90889    
Loop time of 234.066 on 16 procs for 500000 steps with 12350 atoms

Performance: 184.563 ns/day, 0.130 hours/ns, 2136.151 timesteps/s, 26.381 Matom-step/s
96.8% CPU use with 16 MPI tasks x no OpenMP threads

MPI task timing breakdown:
Section |  min time  |  avg time  |  max time  |%varavg| %total
---------------------------------------------------------------
Pair    | 46.772     | 73.165     | 97.034     | 185.5 | 31.26
Bond    | 21.982     | 33.072     | 41.837     | 105.2 | 14.13
Neigh   | 12.283     | 12.324     | 12.363     |   0.8 |  5.27
Comm    | 41.359     | 70.228     | 108.46     | 230.9 | 30.00
Output  | 0.36058    | 0.44792    | 0.53602    |   8.1 |  0.19
Modify  | 36.666     | 39.909     | 47.64      |  68.6 | 17.05
Other   |            | 4.921      |            |       |  2.10

Nlocal:        771.875 ave         790 max         752 min
Histogram: 3 1 0 1 2 2 1 2 2 2
Nghost:        2116.06 ave        2172 max        2076 min
Histogram: 2 0 4 2 2 2 2 1 0 1
Neighs:        21765.3 ave       22792 max       20859 min
Histogram: 2 1 2 2 1 3 1 2 1 1

Total # of neighbors = 348245
Ave neighs/atom = 28.197976
Ave special neighs/atom = 5.76
Neighbor list builds = 11097
Dangerous builds = 0
unfix               1

fix                 2 all npt temp 600 250 10 iso 0 0 500 drag 2
thermo_style        custom step temp density press etotal pxx pyy pzz lx ly lz
thermo              10000
run                 500000
Generated 0 of 0 mixed pair_coeff terms from geometric mixing rule
Per MPI rank memory allocation (min/avg/max) = 18.47 | 18.63 | 18.95 Mbytes
   Step          Temp         Density         Press          TotEng          Pxx            Pyy            Pzz             Lx             Ly             Lz      
    500864   600.59651      0.79545652    -7.9650835      5475.1213     -18.167238     -29.443899      23.715887      122.84226      122.9422       122.90889    
    510000   594.198        0.8028974     -4.2169683      5050.3599     -45.898226      43.298559     -10.051238      122.46161      122.56123      122.52802    
    520000   587.46959      0.80556551     2.9757444      4609.4325      99.402361     -54.363007     -36.11212       122.32625      122.42577      122.3926     
    530000   579.79948      0.80687325    -3.9706104      3984.1701      4.4350305     -4.3971463     -11.949715      122.26013      122.35959      122.32644    
    540000   574.38121      0.81187417     2.7007977      3169.7354     -50.944673     -13.40431       72.451375      122.00858      122.10784      122.07475    
    550000   565.28915      0.81434688     0.4596119      2804.282      -6.3406323     -25.777754      33.497221      121.88497      121.98412      121.95107    
    560000   559.60972      0.81646336     15.655747      2201.9607      39.275796      49.239182     -41.547738      121.77956      121.87863      121.8456     
    570000   551.58298      0.825903      -3.8948055      1231.4545     -5.96839       -77.000671      71.284645      121.31382      121.41251      121.37961    
    580000   544.22723      0.82624405     17.118912      777.82322     -51.036254      42.814182      59.578807      121.29713      121.3958       121.36291    
    590000   537.04597      0.83099525     17.610062     -57.686058      5.608061      -30.237734      77.459859      121.06551      121.164        121.13117    
    600000   531.31914      0.83584489     13.441357     -744.20657      6.3670101      44.430505     -10.473443      120.83092      120.92921      120.89645    
    610000   524.88653      0.83853985     14.765191     -1439.6302      4.5956916      8.8708986      30.828983      120.70133      120.79952      120.76679    
    620000   515.83062      0.83690976     8.6346671     -1676.1362      40.62759       59.079807     -73.803395      120.77965      120.8779       120.84515    
    630000   508.74025      0.84276239    -5.9059341     -2526.8063      9.5664762     -0.6166916     -26.667587      120.49941      120.59743      120.56476    
    640000   504.34171      0.84769325     22.182446     -3100.0907      19.441819      8.4395094      38.66601       120.26531      120.36315      120.33054    
    650000   496.78594      0.8508269     -14.528911     -3989.1506     -22.406219     -38.380394      17.199881      120.11748      120.2152       120.18263    
    660000   489.54193      0.85638575    -12.278423     -4621.2441     -24.499485     -24.860953      12.525171      119.85702      119.95453      119.92203    
    670000   482.78031      0.85756724     2.6342094     -5164.3096     -28.856248      61.066779     -24.307903      119.80195      119.89941      119.86693    
    680000   473.74438      0.8640812     -0.095678845   -6021.2553     -7.7736659      31.195742     -23.709113      119.50015      119.59736      119.56496    
    690000   468.80502      0.86288288     3.5383424     -6432.9096     -31.470791      37.809571      4.2762468      119.55544      119.6527       119.62028    
    700000   461.18162      0.87113596    -1.3308738     -7407.776      -10.336646      85.337232     -78.993207      119.17669      119.27364      119.24132    
    710000   453.63651      0.87137796     9.230423      -7911.7138      49.453167      8.6630889     -30.424987      119.16566      119.2626       119.23028    
    720000   447.08211      0.87657354    -5.7436714     -8616.0262     -15.404423     -29.451596      27.625005      118.92975      119.0265       118.99425    
    730000   438.12789      0.8799839      1.84873       -9670.7834      12.80757      -6.4752778     -0.78610269     118.77592      118.87254      118.84033    
    740000   433.33911      0.88504622    -7.507426      -10251.179      38.653618     -32.815269     -28.360626      118.54902      118.64546      118.61332    
    750000   424.22494      0.88850875     13.296598     -10904.001      77.451161     -5.1565276     -32.404838      118.39483      118.49114      118.45904    
    760000   419.17272      0.8932774     -1.8439952     -11476.57       39.673624     -21.579799     -23.625811      118.18377      118.27991      118.24787    
    770000   411.93661      0.895068       5.2689376     -11989.327     -40.893123      54.873295      1.8266406      118.10491      118.20099      118.16896    
    780000   404.14209      0.89366228    -6.2364585     -12726.636      5.5254081     -64.747088      40.512304      118.1668       118.26293      118.23089    
    790000   395.13181      0.89944995    -30.341709     -13564.045     -55.68278       20.949179     -56.291526      117.9128       118.00872      117.97675    
    800000   390.87587      0.90164868     13.739881     -14089.407     -39.90451       29.122719      52.001433      117.81688      117.91272      117.88077    
    810000   382.57968      0.90463048    -11.111661     -14597.966     -29.580857     -3.8229233      0.068796905    117.68729      117.78303      117.75111    
    820000   376.81975      0.90853528    -15.631306     -15586.091     -33.062218     -15.294988      1.4632886      117.51844      117.61404      117.58218    
    830000   371.045        0.91375737     2.2984863     -16257.24       50.858552     -24.325671     -19.637421      117.29414      117.38956      117.35776    
    840000   362.03057      0.91510147     12.285966     -16916.718     -17.620482      42.613167      11.865213      117.23669      117.33206      117.30027    
    850000   356.90812      0.92336803     10.400494     -17822.499      62.392529     -21.84063      -9.3504186      116.88578      116.98087      116.94917    
    860000   348.08121      0.92174996    -16.471037     -18288.289     -24.537083      6.798157      -31.674186      116.95414      117.04928      117.01756    
    870000   341.55059      0.92638951     1.8815581     -19004.409     -38.467187      29.347847      14.764015      116.75857      116.85355      116.82189    
    880000   335.84069      0.93198356     1.7743189     -19865.508      3.0977578      39.321098     -37.095899      116.52449      116.61928      116.58769    
    890000   328.0437       0.9343425      1.3238647     -20473.437     -15.987085      3.4552736      16.503406      116.42634      116.52106      116.48949    
    900000   320.37831      0.93740285     10.995248     -21137.677      85.401823     -9.9786559     -42.437423      116.29951      116.39412      116.36258    
    910000   313.91939      0.94055945    -9.164384      -21943.696     -22.41948       5.9976574     -11.071329      116.16926      116.26376      116.23226    
    920000   306.8522       0.94329895    -14.799567     -22696.273     -24.860731      10.234961     -29.772932      116.05669      116.1511       116.11963    
    930000   299.56799      0.94559102    -8.43659       -23310.656     -19.710047     -13.498869      7.8991458      115.96284      116.05718      116.02573    
    940000   293.10987      0.95619954     5.3672352     -24243.67      -36.640096      26.424417      26.317384      115.5324       115.62638      115.59505    
    950000   285.94398      0.95575592     5.9742768     -24954.14       25.832066     -9.5027642      1.5935282      115.55027      115.64427      115.61294    
    960000   279.45449      0.95863345     9.8004048     -25630.976     -1.9953233      56.441843     -25.045305      115.43454      115.52844      115.49714    
    970000   272.09746      0.96126714    -0.25390264    -26271.566      0.54312475     17.870512     -19.175345      115.32902      115.42284      115.39157    
    980000   264.2496       0.96545238     1.9258935     -27135.087      18.790504      34.839993     -47.852817      115.16213      115.25581      115.22458    
    990000   258.26254      0.96802951    -9.6265174     -27926.591     -15.934879      0.018242114   -12.962915      115.05984      115.15344      115.12224    
   1000000   251.52494      0.97199303    -2.1212964     -28768.993      38.07236      -28.966265     -15.469984      114.90323      114.99671      114.96555    
   1000864   250.78674      0.9736581     -0.98999632    -28872.569      39.804455     -56.062058      13.287615      114.8377       114.93112      114.89998    
Loop time of 216.302 on 16 procs for 500000 steps with 12350 atoms

Performance: 199.720 ns/day, 0.120 hours/ns, 2311.580 timesteps/s, 28.548 Matom-step/s
97.4% CPU use with 16 MPI tasks x no OpenMP threads

MPI task timing breakdown:
Section |  min time  |  avg time  |  max time  |%varavg| %total
---------------------------------------------------------------
Pair    | 74.155     | 80.248     | 87.489     |  38.6 | 37.10
Bond    | 31.803     | 33.797     | 36.541     |  20.2 | 15.63
Neigh   | 10.645     | 10.653     | 10.661     |   0.1 |  4.92
Comm    | 40.093     | 49.496     | 57.511     |  65.2 | 22.88
Output  | 0.30466    | 0.38853    | 0.47141    |   8.3 |  0.18
Modify  | 36.833     | 37.465     | 37.961     |   5.6 | 17.32
Other   |            | 4.255      |            |       |  1.97

Nlocal:        771.875 ave         784 max         759 min
Histogram: 1 2 3 1 0 2 1 1 3 2
Nghost:        2338.06 ave        2365 max        2317 min
Histogram: 1 2 2 1 3 4 2 0 0 1
Neighs:        26672.4 ave       27573 max       25996 min
Histogram: 3 2 1 1 2 2 3 1 0 1

Total # of neighbors = 426758
Ave neighs/atom = 34.555304
Ave special neighs/atom = 5.76
Neighbor list builds = 10573
Dangerous builds = 0
unfix               2

fix                 3 all npt temp 250 250 10 iso 0 0 50 drag 2
thermo_style        custom step temp density press etotal pxx pyy pzz lx ly lz
thermo              10000
run                 5000000
Generated 0 of 0 mixed pair_coeff terms from geometric mixing rule
Per MPI rank memory allocation (min/avg/max) = 18.48 | 18.63 | 18.95 Mbytes
   Step          Temp         Density         Press          TotEng          Pxx            Pyy            Pzz             Lx             Ly             Lz      
   1000864   250.78674      0.9736581     -0.98999632    -28872.569      39.804455     -56.062058      13.287615      114.8377       114.93112      114.89998    
   1010000   249.80159      0.9729381      0.035872367   -28888.241      24.178856      14.770053     -38.841292      114.86602      114.95946      114.92831    
   1020000   250.2113       0.97257244    -0.077236827   -28738.622     -59.865473      42.840284      16.793479      114.88041      114.97387      114.94271    
   1030000   250.08906      0.97241636     0.0075868755  -28715.63       9.6403023     -44.534568      34.917026      114.88656      114.98002      114.94886    
   1040000   249.79521      0.97217224     0.2767584     -28720.978      25.877139      2.5814997     -27.628363      114.89617      114.98964      114.95848    
   1050000   249.07804      0.97428579    -0.093631945   -28853.443     -5.6182954      10.449907     -5.1125069      114.81303      114.90643      114.8753     
   1060000   249.78818      0.97217552     0.032200542   -28895.913      30.735628     -1.1547723     -29.484254      114.89604      114.98951      114.95835    
   1070000   250.23776      0.97190874    -0.042357153   -28948.017      30.47307      -27.940616     -2.6595261      114.90655      115.00003      114.96887    
   1080000   250.25983      0.97276916    -0.25554818    -28896.369      21.278631     -35.515671      13.470395      114.87267      114.96611      114.93496    
   1090000   250.2954       0.97207412    -0.025773388   -28857.956      14.010014      10.444815     -24.532149      114.90004      114.99351      114.96235    
   1100000   249.14364      0.97217507    -0.19445308    -28850.115      11.339333     -25.790035      13.867342      114.89606      114.98953      114.95837    
   1110000   250.22434      0.97400582    -0.32940824    -28988.444     -17.58815      -12.81864       29.418565      114.82403      114.91744      114.8863     
   1120000   249.62459      0.97467379    -0.089062507   -29049.053      44.472463     -25.72942      -19.01023       114.79779      114.89118      114.86005    
   1130000   249.45439      0.97326695     0.12461474    -28910.308     -12.157871     -20.63834       33.170055      114.85308      114.94651      114.91537    
   1140000   250.07162      0.97382733    -0.04379165    -29114.685     -42.166015     -46.408951      88.443591      114.83104      114.92446      114.89332    
   1150000   250.46121      0.97289615    -0.35864314    -28968.006     -64.270463      13.269138      49.925396      114.86767      114.96111      114.92996    
   1160000   250.27419      0.97196741    -0.33568433    -28977.503      13.96301      -22.396419      7.4263562      114.90424      114.99772      114.96656    
   1170000   249.29229      0.97173218     0.24959114    -28934.254     -11.318386      32.666899     -20.59974       114.91351      115.007        114.97583    
   1180000   249.41729      0.97370588     0.14023266    -29077.022     -32.188118      24.939294      7.6695219      114.83582      114.92924      114.8981     
   1190000   250.7987       0.97378153    -0.050845181   -29114.987      25.280601      1.7878627     -27.220999      114.83284      114.92626      114.89512    
   1200000   250.43148      0.97250396    -0.034738217   -28957.938     -58.299507      56.127791      2.0675015      114.88311      114.97656      114.94541    
   1210000   249.43041      0.97533533     0.10168571    -29082.154     -8.3757131     -15.05866       23.73943       114.77183      114.8652       114.83408    
   1220000   249.94706      0.97167859     0.091667195   -28987.28       51.70997      -28.888459     -22.54651       114.91563      115.00911      114.97795    
   1230000   250.3305       0.97186877     0.062235237   -28973.874      30.142862     -25.815882     -4.1402748      114.90813      115.00161      114.97045    
   1240000   249.9762       0.97459421     0.094755919   -29025.841     -46.537991      23.204758      23.617501      114.80092      114.89431      114.86318    
   1250000   249.94245      0.97301316    -0.34059931    -29057.292      4.2433738     -16.448097      11.182926      114.86306      114.9565       114.92536    
   1260000   250.11988      0.97238855    -0.210252      -29020.124     -1.8416014     -9.9883981      11.199243      114.88765      114.98111      114.94996    
   1270000   250.28349      0.97665678     0.022418866   -29169.066      19.158051     -12.684146     -6.406648       114.72004      114.81337      114.78226    
   1280000   250.60065      0.97382223    -0.22793957    -29018.392      35.951765     -25.289921     -11.345663      114.83124      114.92466      114.89352    
   1290000   249.9391       0.97452736    -0.041604102   -29121.444     -54.626956      42.12574       12.376403      114.80354      114.89693      114.8658     
   1300000   249.86413      0.97355027     0.051883529   -29037.027      15.082335     -0.7181808     -14.208504      114.84194      114.93536      114.90422    
   1310000   250.50311      0.97508291    -0.019793571   -29074.363      33.015487     -39.43452       6.3596517      114.78173      114.87511      114.84398    
   1320000   249.42199      0.97416012    -0.065186835   -29040.316      39.73532      -19.537337     -20.393544      114.81797      114.91137      114.88024    
   1330000   250.55471      0.97300617    -0.095935286   -29025.841     -7.0698955     -12.417082      19.199172      114.86334      114.95678      114.92563    
   1340000   250.63288      0.97399968     0.026767828   -29077.924     -45.960938      32.491897      13.549345      114.82427      114.91768      114.88654    
   1350000   250.55007      0.97306928    -0.10514302    -29023.227     -20.957206     -25.393123      46.0349        114.86085      114.95429      114.92315    
   1360000   250.56015      0.97116441    -0.46329399    -28939.184      10.720148     -9.9864848     -2.1235449      114.9359       115.0294       114.99824    
   1370000   249.79658      0.97464846    -0.0098991133  -29146.775     -3.4365103     -14.191253      17.598066      114.79879      114.89217      114.86105    
   1380000   249.41511      0.97324167     0.1148713     -29121.463      10.792077      22.13093      -32.578393      114.85407      114.94751      114.91636    
   1390000   250.48399      0.97577064     0.28745674    -29191.944      28.096943     -40.973749      13.739176      114.75476      114.84811      114.817      
   1400000   249.57297      0.9730544      0.095771953   -29033.939      3.5376456     -18.176398      14.926068      114.86144      114.95488      114.92373    
   1410000   249.71141      0.97386847     0.065170899   -28927.174      5.9090101     -34.386097      28.672599      114.82943      114.92284      114.8917     
   1420000   250.59031      0.9737289     -0.082390145   -29032.181      27.91011      -17.407957     -10.749323      114.83491      114.92833      114.89719    
   1430000   249.60598      0.97340572     0.17869561    -28991.169      37.81452      -8.5858833     -28.69255       114.84762      114.94105      114.90991    
   1440000   249.65982      0.97117586     0.025960223   -28953.483      19.763763      10.529004     -30.214887      114.93545      115.02895      114.99778    
   1450000   250.14157      0.97305483    -0.1969334     -29090.899      11.526528     -27.953043      15.835715      114.86142      114.95486      114.92372    
   1460000   249.93357      0.97204173     0.14385314    -28897.565     -6.6584526      12.426504     -5.3364922      114.90131      114.99479      114.96363    
   1470000   249.57014      0.97415441     0.09395046    -29091.842      36.216128      22.725922     -58.660198      114.81819      114.91159      114.88046    
   1480000   250.21091      0.97353476     0.014748255   -29216.253      1.5176801      11.635965     -13.1094        114.84255      114.93597      114.90483    
   1490000   250.32293      0.9752812     -0.061443117   -29143.362      14.29948      -35.703174      21.219364      114.77395      114.86732      114.8362     
   1500000   249.84057      0.97314862    -0.077251804   -29107.702     -21.394071      43.945708     -22.783393      114.85773      114.95117      114.92002    
   1510000   249.68927      0.97463798    -0.087208467   -29201.55      -0.74100268    -33.057441      33.536819      114.7992       114.89259      114.86146    
   1520000   250.35858      0.97088108    -0.030603431   -29000.225     -15.975141      39.639662     -23.756331      114.94708      115.04059      115.00942    
   1530000   250.01129      0.97254256    -0.057653117   -29093.409     -21.281128      19.85604       1.2521283      114.88159      114.97504      114.94389    
   1540000   249.31035      0.97350763     0.13096636    -29144.235      10.248713      28.438818     -38.294632      114.84361      114.93704      114.9059     
   1550000   250.38007      0.9731232      0.03058961    -28964.8       -37.104671     -14.582686      51.779125      114.85873      114.95217      114.92102    
   1560000   251.45145      0.9736919     -0.24804439    -28988.996      10.279855      8.2582862     -19.282274      114.83637      114.92979      114.89865    
   1570000   250.21812      0.9724786      0.25757588    -29070.535     -45.283282      32.588193      13.467817      114.88411      114.97756      114.94641    
   1580000   250.49011      0.9731207     -0.383476      -29044.589     -17.156114      59.328279     -43.322593      114.85883      114.95227      114.92112    
   1590000   250.71765      0.97259145     0.099557547   -29012.608      40.009505     -51.270665      11.559833      114.87966      114.97312      114.94196    
   1600000   250.18721      0.97304082    -0.11499874    -29144.059     -23.104887      31.210261     -8.4503699      114.86197      114.95541      114.92427    
   1610000   250.82364      0.97070168     0.015077682   -28907.808      29.205124     -20.953288     -8.2066026      114.95416      115.04768      115.01651    
   1620000   250.51488      0.97380525    -0.2882447     -28954.911     -28.147364      37.247987     -9.9653573      114.83191      114.92533      114.89419    
   1630000   249.28768      0.97420394     0.09997328    -29148.404     -38.353943      60.671279     -22.017415      114.81624      114.90965      114.87851    
   1640000   250.45789      0.973872       0.098385171   -29049.212     -29.801294     -21.807736      51.904186      114.82929      114.9227       114.89156    
   1650000   249.44175      0.97321914     0.010393191   -29083.643      35.112459     -27.250872     -7.8304068      114.85496      114.94839      114.91725    
   1660000   250.19791      0.97140493     0.121752      -28881.655      56.848033     -33.519306     -22.963471      114.92642      115.01991      114.98874    
   1670000   250.53891      0.97293784    -0.15955179    -28958.782     -13.614873      47.210495     -34.074277      114.86603      114.95947      114.92832    
   1680000   250.68947      0.97393832    -0.15250389    -29058.474      16.189633     -14.32926      -2.3178852      114.82668      114.92009      114.88896    
   1690000   250.23621      0.97294384    -0.23607353    -29046.574      10.624156     -16.195704      4.8633279      114.86579      114.95923      114.92809    
   1700000   250.29695      0.97378692    -0.048705463   -29085.161      20.507399      30.713077     -51.366593      114.83263      114.92605      114.89491    
   1710000   250.08261      0.97314663    -0.23663016    -29076.722      0.10313565     37.780903     -38.593929      114.85781      114.95125      114.9201     
   1720000   249.71389      0.97402918     0.14591634    -29120.758      4.0799563     -1.5946554     -2.0475519      114.82311      114.91652      114.88538    
   1730000   249.47205      0.97425962    -0.1351531     -29082.541      44.258388     -39.671219     -4.9926282      114.81406      114.90746      114.87632    
   1740000   250.23417      0.97412942     0.3587083     -29018.153     -14.937305      22.380492     -6.367062       114.81917      114.91258      114.88144    
   1750000   250.64964      0.97200965    -0.14542854    -28994.896     -50.480847     -26.039582      76.084143      114.90258      114.99605      114.96489    
   1760000   249.46779      0.97295847     0.042374316   -28970.746     -32.137083      1.9671265      30.29708       114.86521      114.95866      114.92751    
   1770000   250.54736      0.97477171    -0.16373018    -29194.5       -25.956677     -15.559272      41.024758      114.79395      114.88733      114.8562     
   1780000   250.10264      0.97478406     0.22718284    -29135.608     -17.304234      21.082201     -3.0964185      114.79346      114.88685      114.85572    
   1790000   249.46389      0.97233981     0.078534754   -28934.469     -5.5341086     -10.986396      16.756109      114.88957      114.98303      114.95188    
   1800000   249.69435      0.97419903    -0.0074760561  -29061.358      60.745094     -16.291048     -44.476474      114.81644      114.90984      114.87871    
   1810000   250.05016      0.97459211     0.20982937    -29115.46      -26.133277      10.121616      16.641149      114.801        114.89439      114.86326    
   1820000   249.89013      0.97425959     0.10847401    -29010.584     -46.658312      35.779725      11.204009      114.81406      114.90746      114.87633    
   1830000   249.23716      0.97290756    -0.18205863    -29094.039     -15.912816     -22.40934       37.77598       114.86722      114.96066      114.92951    
   1840000   249.92654      0.97225572     0.50210173    -29053.473      22.270157     -30.242799      9.4789469      114.89288      114.98635      114.95519    
   1850000   250.00507      0.9740549     -0.031601022   -29062.099      2.0760024      11.991785     -14.162591      114.8221       114.91551      114.88437    
   1860000   249.70705      0.97253117     0.016039917   -29066.931     -31.950541      3.7852498      28.213411      114.88204      114.97549      114.94434    
   1870000   249.13616      0.97323123     0.16366027    -29124.886     -60.115044      35.329062      25.276963      114.85448      114.94792      114.91677    
   1880000   250.18007      0.97189327    -0.035021866   -28962.922      26.850014     -20.124869     -6.830211       114.90716      115.00064      114.96948    
   1890000   250.22724      0.97158975     0.11254357    -29018.736      27.178908     -82.790142      55.948865      114.91913      115.01261      114.98145    
   1900000   249.82853      0.97292425    -0.085247515   -28981.093     -60.410573      14.840814      45.314017      114.86656      114.96001      114.92886    
   1910000   250.1663       0.97480491    -0.060913437   -29196.223     -30.629683      28.252023      2.1949192      114.79264      114.88603      114.8549     
   1920000   249.51844      0.97453495     0.046070735   -29038.487      56.327998     -67.443009      11.253223      114.80324      114.89664      114.8655     
   1930000   249.02406      0.97275827    -0.079876539   -28907.649      33.881394     -12.356375     -21.764649      114.87309      114.96654      114.93539    
   1940000   250.11631      0.97440201    -0.22214492    -29173.18       0.048585369   -13.510386      12.795366      114.80846      114.90186      114.87073    
   1950000   249.48025      0.96987313    -0.030101687   -29013.735      29.828535     -4.3518535     -25.566986      114.98689      115.08043      115.04925    
   1960000   250.45001      0.97476462     0.15588222    -29109.197      7.1896834     -23.47488       16.752843      114.79423      114.88761      114.85648    
   1970000   250.50463      0.97176663     0.0089880498  -28980.116      17.407711     -67.323741      49.942995      114.91216      115.00564      114.97448    
   1980000   249.42608      0.97327489    -0.27190571    -29115.224      14.922128      39.487517     -55.225362      114.85277      114.9462       114.91505    
   1990000   249.67362      0.97225986     0.045900676   -28916.232     -7.456941      -18.856804      26.451447      114.89272      114.98618      114.95503    
   2000000   250.83695      0.97288351     0.058330854   -29020.024      27.626231     -25.845399     -1.6058402      114.86816      114.96161      114.93046    
   2010000   249.69004      0.97240744     0.059827978   -29009.869     -11.124569     -22.004513      33.308566      114.88691      114.98037      114.94921    
   2020000   249.76695      0.97381163     0.13849847    -29022.949     -16.916942      30.574845     -13.242407      114.83166      114.92508      114.89394    
   2030000   250.1294       0.97244664    -0.053340443   -29074.069     -14.128759     -2.9673758      16.936113      114.88536      114.97882      114.94767    
   2040000   250.7872       0.97254339    -0.46737587    -29039.207      9.7765864     -10.936366     -0.24234794     114.88155      114.97501      114.94386    
   2050000   249.73131      0.97187639    -0.21262252    -28967.88      -14.844311      28.530747     -14.324303      114.90783      115.00131      114.97015    
   2060000   250.0822       0.9716545      0.043817739   -29117.981     -30.866948      36.31113      -5.3127281      114.91658      115.01006      114.9789     
   2070000   249.44497      0.97142334    -0.19967888    -29008.449      5.2103081     -0.84941501    -4.9599297      114.92569      115.01918      114.98802    
   2080000   249.546        0.97145496     0.061292165   -28945.897     -8.2445173      24.4546       -16.026206      114.92444      115.01793      114.98677    
   2090000   249.85696      0.97412993     0.19044261    -28994.033      8.0778601     -21.19817       13.691637      114.81915      114.91256      114.88142    
   2100000   249.20391      0.97212862    -0.37204559    -28968.813      10.531334     -37.221084      25.573613      114.89789      114.99136      114.9602     
   2110000   249.50004      0.97375961    -0.0049181575  -29065.517     -18.241734     -54.903284      73.130264      114.83371      114.92712      114.89598    
   2120000   250.15809      0.97415024    -0.046255607   -29039.827      17.551324     -59.097781      41.40769       114.81835      114.91176      114.88062    
   2130000   250.47709      0.97368552     0.16708272    -29061.404      25.771425     -42.360831      17.090654      114.83662      114.93004      114.8989     
   2140000   250.69551      0.97064917    -0.12591693    -28937.677      27.025169     -25.121564     -2.281356       114.95624      115.04975      115.01858    
   2150000   249.88915      0.97461323     0.28546633    -29147.867      7.125189       27.433082     -33.701872      114.80017      114.89356      114.86243    
   2160000   249.65704      0.97306986    -0.10348325    -29077.285     -15.724456     -7.2604634      22.67447       114.86083      114.95427      114.92312    
   2170000   249.93963      0.97082586    -0.26227827    -28949.35      -10.882096     -14.095521      24.190782      114.94926      115.04277      115.0116     
   2180000   249.10946      0.97412794    -0.16687921    -29131.18       2.5925603     -4.5125643      1.4193663      114.81923      114.91264      114.8815     
   2190000   250.31283      0.97406251     0.10293579    -29093.602     -33.462519      29.488489      4.2828375      114.8218       114.91521      114.88407    
   2200000   250.57825      0.97503942    -0.06035119    -29223.49       3.196843       10.759991     -14.137887      114.78344      114.87682      114.84569    
   2210000   249.82124      0.97341295    -0.073954715   -29077.814     -37.5039        45.832933     -8.5508976      114.84734      114.94076      114.90962    
   2220000   250.38825      0.97594784    -0.19537829    -29234.187     -26.006277      9.9322547      15.487887      114.74782      114.84116      114.81005    
   2230000   250.22625      0.97301529     0.053814397   -29116.781     -1.0324161      4.7060873     -3.512228       114.86298      114.95642      114.92527    
   2240000   251.0632       0.97298784    -0.027255519   -29074.016     -2.0541015      44.783197     -42.810862      114.86406      114.9575       114.92635    
   2250000   249.4965       0.97449087    -0.11251083    -29107.012      44.604698     -47.586764      2.6445337      114.80497      114.89837      114.86724    
   2260000   250.40049      0.97232539    -0.20357659    -28968.055      9.4233537     -8.8332724     -1.200811       114.89014      114.9836       114.95245    
   2270000   250.13702      0.97195858    -0.2641606     -28986.295      7.6312443     -12.816161      4.3924352      114.90459      114.99806      114.96691    
   2280000   249.82007      0.97372237    -0.14200473    -29113.264      92.673373     -12.93791      -80.161477      114.83517      114.92859      114.89745    
   2290000   250.57691      0.97212475    -0.022019067   -29015.758      27.486667     -27.342655     -0.21006973     114.89804      114.99151      114.96036    
   2300000   250.56337      0.97256373    -0.056907436   -29108.823     -10.318114      18.228263     -8.0808709      114.88075      114.97421      114.94306    
   2310000   249.64653      0.9728277      0.022801877   -29149.244      2.2327825      28.744454     -30.908831      114.87036      114.96381      114.93266    
   2320000   249.90867      0.97341257    -0.038621434   -28995.47      -20.863743     -5.7198395      26.467718      114.84735      114.94078      114.90964    
   2330000   249.26221      0.97310336     0.049389884   -29013.083     -61.966378      16.543302      45.571245      114.85951      114.95295      114.92181    
   2340000   250.28394      0.97307916    -0.21773662    -29061.481     -7.5812012     -37.640371      44.568362      114.86047      114.9539       114.92276    
   2350000   249.00179      0.97154836     0.086376228   -28981.612      19.04188       4.0007792     -22.78353       114.92076      115.01425      114.98309    
   2360000   250.63738      0.97156787    -0.060459514   -29023.389     -81.195004      87.657706     -6.64408        114.91999      115.01348      114.98232    
   2370000   250.2214       0.97268944     0.16467829    -28895.11       9.878106      -36.452778      27.068707      114.8758       114.96926      114.9381     
   2380000   249.92064      0.97163521     0.11479502    -28910.096      12.285339     -15.745159      3.8042048      114.91734      115.01082      114.97966    
   2390000   250.39856      0.9724614     -0.14811272    -28947          0.73023139    -9.5365508      8.3619813      114.88478      114.97824      114.94709    
   2400000   250.41822      0.97192035    -0.13914609    -28991.232      22.863839     -32.278648      8.997371       114.9061       114.99957      114.96841    
   2410000   250.6789       0.97208939    -0.049177528   -29022.273      12.739444      25.832251     -38.719227      114.89944      114.99291      114.96175    
   2420000   250.16517      0.97113216    -0.34587525    -29007.855     -16.785008     -2.701518       18.448901      114.93717      115.03068      114.99951    
   2430000   250.52481      0.97229198    -0.039131422   -29159.531     -49.8993       -50.878382      100.66029      114.89146      114.98492      114.95376    
   2440000   250.59465      0.97504674    -0.095486499   -29112.937     -12.853395      5.8640022      6.7029336      114.78315      114.87653      114.8454     
   2450000   249.42345      0.9729958     -0.055819814   -29012.987     -25.188923      18.029971      6.9914923      114.86375      114.95719      114.92604    
   2460000   250.32261      0.97410985     0.11836706    -28980.489      6.1923276      56.792875     -62.630101      114.81994      114.91335      114.88221    
   2470000   250.40403      0.97262283     0.11915619    -29128.534      10.679481      44.893574     -55.215587      114.87843      114.97188      114.94073    
   2480000   250.16244      0.9718834     -0.15794391    -29142.543     -22.716472      51.896924     -29.654284      114.90755      115.00103      114.96987    
   2490000   249.26521      0.97375074     0.0093041545  -29068.137     -14.851527      6.5961424      8.2832974      114.83405      114.92747      114.89633    
   2500000   250.08837      0.97223259     0.085460056   -29020.644     -15.312957     -12.04125       27.610587      114.89379      114.98726      114.9561     
   2510000   249.61111      0.97327523    -0.1485407     -29073.788     -28.189101     -9.9480547      37.691533      114.85275      114.94618      114.91504    
   2520000   249.70589      0.97507751    -0.06532707    -29184.646      0.58423419    -5.1480845      4.3678691      114.78195      114.87532      114.8442     
   2530000   249.3214       0.97314824     0.023491517   -29091.595      11.234318     -37.287016      26.123173      114.85775      114.95118      114.92004    
   2540000   248.62877      0.97275924    -0.32752404    -29051.948     -8.749961      -10.054927      17.822316      114.87306      114.96651      114.93536    
   2550000   249.3037       0.97304838    -0.29088059    -29122.312      1.089496       51.419347     -53.381485      114.86168      114.95512      114.92397    
   2560000   249.51166      0.97361584    -0.12490569    -29156.356      2.9890463      30.08953      -33.453294      114.83936      114.93278      114.90164    
   2570000   250.13383      0.97552231    -0.13224226    -29239.867      12.997493      66.878597     -80.272817      114.7645       114.85786      114.82674    
   2580000   249.25066      0.97371057    -0.21181077    -29134.597     -3.2934944      35.288393     -32.630331      114.83563      114.92905      114.89791    
   2590000   249.39765      0.97126736    -0.011222837   -29010.544     -13.964474     -17.838162      31.768968      114.93184      115.02534      114.99417    
   2600000   249.88066      0.97404694     0.18627858    -28969.704      7.0554443      36.114927     -42.611535      114.82241      114.91582      114.88468    
   2610000   249.38985      0.97296969    -0.22624006    -29038.235     -32.136391     -3.3537189      34.811389      114.86477      114.95822      114.92707    
   2620000   249.68218      0.97214691    -0.15003335    -29071.211     -0.57323675    -32.417964      32.541101      114.89717      114.99064      114.95948    
   2630000   249.22589      0.97090392     0.059158642   -28928.716      3.9010258     -14.400423      10.676873      114.94618      115.03969      115.00852    
   2640000   250.35661      0.97556052     0.11845985    -29180.923      0.84255172     3.1444671     -3.6316392      114.763        114.85636      114.82524    
   2650000   249.74453      0.9749702     -0.39033233    -28994.425     -55.587246      18.531973      35.884277      114.78616      114.87954      114.84841    
   2660000   249.67851      0.9747249      0.13646584    -29125.05       4.7119163      0.45752892    -4.7600477      114.79579      114.88917      114.85804    
   2670000   249.83379      0.97461487     0.20775832    -29110.318     -32.9133        28.112429      5.4241454      114.80011      114.89349      114.86237    
   2680000   249.57054      0.97560278     0.082857655   -29129.179     -17.43659       34.958685     -17.273522      114.76134      114.8547       114.82358    
   2690000   249.89706      0.9730611     -0.10077833    -28970.444     -2.6953815      25.201056     -22.808009      114.86118      114.95462      114.92347    
   2700000   250.07226      0.97381588     0.010566878   -29016.321      9.3218197     -52.542286      43.252167      114.83149      114.92491      114.89377    
   2710000   250.51994      0.97299796    -0.16166909    -28970.32      -31.010747     -10.272487      40.798227      114.86366      114.9571       114.92596    
   2720000   250.17373      0.97664719    -0.28007968    -29236.09       16.548367     -14.151606     -3.237          114.72042      114.81374      114.78264    
   2730000   250.25913      0.97674575     0.44675759    -29181.643      15.878295     -46.809836      32.271813      114.71656      114.80988      114.77878    
   2740000   250.55423      0.97192981    -0.07069097    -29035.565      17.099124     -12.487843     -4.8233544      114.90572      114.9992       114.96804    
   2750000   250.00909      0.97481242    -0.17217017    -29322.749      62.039836     -50.384336     -12.172011      114.79235      114.88573      114.85461    
   2760000   250.83314      0.97151206    -0.079831161   -29113.359     -45.983773      30.745352      14.998927      114.92219      115.01568      114.98452    
   2770000   249.66594      0.97136125     0.14440571    -29086.163     -59.031435      49.367856      10.096797      114.92814      115.02163      114.99047    
   2780000   249.5976       0.97406001     0.27015907    -29107.696     -6.3263452      11.615941     -4.4791185      114.8219       114.91531      114.88417    
   2790000   249.75702      0.97316585    -0.10131098    -29175.472      7.3496925     -8.1689476      0.51532218     114.85706      114.95049      114.91935    
   2800000   250.6057       0.97550708    -0.096774081   -29267.441     -31.827514      6.9680983      24.569094      114.7651       114.85846      114.82734    
   2810000   249.98842      0.97376831    -0.19092224    -29102.667      23.974267     -43.333383      18.786349      114.83336      114.92678      114.89564    
   2820000   250.13595      0.97147102     0.18732203    -29031.31      -31.481521      63.53108      -31.487592      114.92381      115.0173       114.98614    
   2830000   250.56409      0.97166339     0.17625236    -29003.481     -8.9854264      23.30914      -13.794957      114.91622      115.00971      114.97855    
   2840000   249.41972      0.9746264      0.22287478    -29068.604      46.421543     -7.4255955     -38.327323      114.79965      114.89304      114.86191    
   2850000   249.86094      0.97362544     0.01858883    -29123.129     -39.065109      12.068522      27.052353      114.83898      114.9324       114.90126    
   2860000   250.36698      0.97389458    -0.12545619    -29073.101      40.47647      -32.850797     -8.0020415      114.8284       114.92181      114.89068    
   2870000   249.32487      0.97088454    -0.098443789   -28974.071      53.835202     -38.770824     -15.359709      114.94695      115.04045      115.00928    
   2880000   249.32862      0.97377173    -0.078068283   -28999.595     -17.786649      29.718934     -12.166489      114.83323      114.92665      114.89551    
   2890000   250.2505       0.9730461     -0.015086577   -29038.764      11.710213      17.668746     -29.424219      114.86177      114.95521      114.92406    
   2900000   250.9436       0.97420934     0.3193864     -29068.206     -29.547577      24.133104      6.3726317      114.81603      114.90943      114.8783     
   2910000   250.04752      0.97449539     0.086481843   -29080.89       2.6206806      20.509207     -22.870442      114.8048       114.89819      114.86706    
   2920000   250.1552       0.97356092    -0.17750447    -29143.842      20.74906      -20.317256     -0.96431812     114.84152      114.93494      114.9038     
   2930000   249.6895       0.97284241    -0.11208528    -29067.206     -7.9120024     -5.0275715      12.603318      114.86978      114.96323      114.93208    
   2940000   249.68077      0.97539128    -0.072733916   -29199.53       6.1145723     -19.694243      13.361469      114.76964      114.863        114.83188    
   2950000   249.55292      0.97251371     0.13825762    -29021.198     -58.742346      38.814526      20.342594      114.88272      114.97618      114.94503    
   2960000   250.73736      0.97370627     0.076401613   -29211.602     -26.823153     -44.25075       71.303108      114.8358       114.92922      114.89808    
   2970000   250.2461       0.97223406    -0.18504666    -29018.612      47.306889     -12.312865     -35.549163      114.89374      114.9872       114.95605    
   2980000   249.74148      0.97412312     0.093722626   -29126.364     -20.316959     -21.985982      42.584109      114.81942      114.91282      114.88169    
   2990000   249.93461      0.97256414     0.09306761    -29123.339     -48.977318      35.606919      13.649602      114.88074      114.97419      114.94304    
   3000000   250.66205      0.97217551    -0.065062767   -28920.632     -23.964933      4.6665298      19.103215      114.89604      114.98951      114.95835    
   3010000   249.62292      0.97319624    -0.32610965    -28874.953     -3.4881655     -26.723976      29.233813      114.85586      114.94929      114.91815    
   3020000   249.86117      0.9729868     -0.20171223    -29004.718      19.102713     -11.94504      -7.7628096      114.8641       114.95754      114.92639    
   3030000   250.03301      0.97282723    -0.05748177    -28982.236     -37.353252      48.978278     -11.797472      114.87038      114.96383      114.93268    
   3040000   250.17282      0.97244572    -0.08175081    -28984.98       10.242951     -41.24604       30.757837      114.8854       114.97886      114.94771    
   3050000   249.35765      0.97491579     0.077985857   -29131.625     -13.670764     -10.953585      24.858306      114.78829      114.88167      114.85055    
   3060000   250.71079      0.97392196    -0.16284079    -29013.091      23.210873     -42.272263      18.572868      114.82732      114.92074      114.8896     
   3070000   249.16384      0.97218013     0.1807766     -29136.128     -7.0012689     -56.753181      64.29678       114.89586      114.98933      114.95817    
   3080000   249.98686      0.97346376     0.071781405   -29058.304      33.588957      4.3571789     -37.730792      114.84534      114.93876      114.90762    
   3090000   250.19688      0.97303584     0.13911067    -28971.153     -1.9410925     -15.606395      17.964819      114.86217      114.95561      114.92446    
   3100000   250.45829      0.97020978    -0.10396495    -29032.318     -8.8774085      1.4440671      7.1214466      114.97359      115.06712      115.03594    
   3110000   250.54141      0.97126904    -0.082516959   -29025.13      -28.173885      20.041631      7.8847033      114.93178      115.02527      114.99411    
   3120000   249.80082      0.97202674    -0.19914992    -29204.278      0.019159256   -52.284681      51.668072      114.9019       114.99538      114.96422    
   3130000   249.27526      0.9706081      0.054704695   -29008.01       61.548416     -37.096465     -24.287836      114.95786      115.05138      115.0202     
   3140000   250.19605      0.973073       0.0021445699  -29166.731     -1.9966634      9.9349537     -7.9318566      114.86071      114.95415      114.923      
   3150000   250.56302      0.97397333     0.22672478    -29298.105      30.297588     -15.548807     -14.068607      114.82531      114.91872      114.88758    
   3160000   249.01821      0.97351769     0.24130804    -29197.294     -10.386598     -3.8834247      14.993947      114.84322      114.93664      114.9055     
   3170000   250.3631       0.97357895    -0.099306591   -29073.7       -38.034867      1.3413446      36.395603      114.84081      114.93423      114.90309    
   3180000   249.8099       0.97344511     0.26006226    -29054.241      9.7619848     -1.4937643     -7.4880338      114.84607      114.9395       114.90836    
   3190000   249.78235      0.97432273     0.062084359   -29162.635     -45.032079     -4.8960337      50.114366      114.81158      114.90498      114.87384    
   3200000   251.09761      0.97377558     0.12524196    -29153.784     -34.569585     -8.5919082      43.537219      114.83308      114.92649      114.89535    
   3210000   250.12865      0.97327121    -0.41575522    -28955.736     -10.670829      14.726078     -5.3025146      114.85291      114.94634      114.9152     
   3220000   249.75818      0.97310039    -0.33096749    -29090.084     -17.491615      3.4473758      13.051337      114.85963      114.95307      114.92192    
   3230000   249.12021      0.97373577     0.094313465   -29013.815      2.3806143     -4.0331371      1.9354632      114.83464      114.92806      114.89692    
   3240000   250.44359      0.9727717     -0.081866167   -28951.976     -6.9765009      5.3201764      1.410726       114.87257      114.96601      114.93486    
   3250000   249.88672      0.97264199     0.14668599    -29076.494     -52.988426     -15.651036      69.079521      114.87767      114.97112      114.93997    
   3260000   249.61208      0.97315536    -0.105411      -29072.696      56.391937     -38.322557     -18.385613      114.85747      114.9509       114.91976    
   3270000   250.06677      0.97117262     0.18333392    -29066.891     -6.9054545     -17.787765      25.243221      114.93558      115.02908      114.99791    
   3280000   250.56058      0.97499267     0.065999461   -29062.937      45.076906      8.5813548     -53.460262      114.78528      114.87865      114.84753    
   3290000   250.57783      0.97245795    -0.37747751    -29074.016      30.883528     -24.503426     -7.5125346      114.88492      114.97838      114.94722    
   3300000   249.69542      0.97533141     0.18660351    -29036.1        22.365056     -10.885512     -10.919733      114.77199      114.86535      114.83423    
   3310000   248.6462       0.97191039    -0.11738645    -28989.791      10.979252     -27.556258      16.224847      114.90649      114.99997      114.96881    
   3320000   249.70856      0.97250478     0.29643237    -29099.463      14.458994     -1.3811427     -12.188554      114.88307      114.97653      114.94538    
   3330000   249.97232      0.97162762     0.054654618   -28915.934      7.9842557     -39.659414      31.839122      114.91764      115.01112      114.97996    
   3340000   250.72215      0.97080941     0.015388181   -29000.087     -21.787527     -2.6105677      24.444259      114.94991      115.04342      115.01225    
   3350000   250.2361       0.97167716    -0.11145584    -29052.155      58.420419     -31.916546     -26.83824       114.91568      115.00917      114.978      
   3360000   250.01489      0.97337807     0.2967194     -29126.043      46.137763     -22.933965     -22.31364       114.84871      114.94214      114.91099    
   3370000   249.80246      0.972129      -0.16685799    -29082.007     -19.921423     -32.960929      52.381778      114.89788      114.99134      114.96019    
   3380000   249.93615      0.97366031     0.0015393217  -29087.359     -11.386972      0.22185364     11.169737      114.83761      114.93103      114.89989    
   3390000   249.59846      0.97347242    -0.1273648     -29007.923     -6.1305995      13.542229     -7.7937242      114.845        114.93842      114.90728    
   3400000   249.99344      0.97151721    -0.072532898   -29024.2        34.299204      3.7023238     -38.219126      114.92199      115.01548      114.98431    
   3410000   249.74964      0.97351857    -0.31613139    -29115.927     -46.522911      44.174012      1.4005054      114.84318      114.93661      114.90546    
   3420000   250.30828      0.97377515    -0.095186651   -29198.375      47.353474     -59.358178      11.719144      114.83309      114.92651      114.89537    
   3430000   250.7059       0.97271279    -0.14430608    -29186.941     -26.395978      37.517227     -11.554168      114.87488      114.96834      114.93718    
   3440000   250.21203      0.97465237     0.01217784    -29349.992     -5.7922424     -11.694607      17.523383      114.79863      114.89202      114.86089    
   3450000   249.63724      0.97541971     0.044076065   -29278.394     -8.1838894     -17.675116      25.991233      114.76852      114.86189      114.83076    
   3460000   250.34015      0.97344562     0.0032737188  -29157.71       40.982497     -29.053379     -11.919297      114.84605      114.93948      114.90834    
   3470000   249.36139      0.97306367    -0.20266847    -29146.441      9.7528526      8.1733233     -18.534181      114.86108      114.95451      114.92337    
   3480000   250.08558      0.97446695     0.036664302   -29304.419     -17.41204      -2.9297522      20.451785      114.80591      114.89931      114.86818    
   3490000   249.78177      0.97329398    -0.13214134    -29295.643     -35.462792      30.19074       4.8756281      114.85201      114.94545      114.9143     
   3500000   250.82104      0.97262847    -0.1452082     -29046.436     -3.4616942      33.721945     -30.695876      114.8782       114.97166      114.94051    
   3510000   249.75267      0.97296178    -0.1476777     -29258.614     -8.0617211     -13.380838      20.999526      114.86508      114.95853      114.92738    
   3520000   250.32369      0.97255854     0.15541465    -29050.834      15.800615     -35.400946      20.066575      114.88096      114.97441      114.94326    
   3530000   249.16364      0.97311183    -0.19187231    -29100.306      41.742364     -38.172172     -4.1458085      114.85918      114.95262      114.92147    
   3540000   250.62111      0.97379656     0.1736011     -29024.495      14.918075     -17.922237      3.5249652      114.83225      114.92567      114.89453    
   3550000   250.07595      0.97173798    -0.12714972    -29094.01      -13.991309      42.660474     -29.050614      114.91328      115.00677      114.97561    
   3560000   249.72488      0.97020775     0.39755456    -28942.453      2.8644619     -3.3133974      1.6415992      114.97367      115.0672       115.03602    
   3570000   250.25083      0.97264959    -0.38243199    -29077.449     -25.850607     -3.064646       27.767957      114.87737      114.97083      114.93967    
   3580000   249.91467      0.97379562     0.044425046   -29146.514     -52.47567       22.426221      30.182724      114.83229      114.92571      114.89457    
   3590000   250.18624      0.97260826     0.078704403   -29048.996      10.049611      14.576436     -24.389934      114.879        114.97245      114.9413     
   3600000   250.43574      0.97561259    -0.13514515    -29140.309     -28.278812     -5.2592574      33.132634      114.76096      114.85432      114.8232     
   3610000   249.95135      0.97206088    -0.099156914   -29072.461     -24.149598      10.230792      13.621335      114.90056      114.99403      114.96287    
   3620000   250.17106      0.97112091     0.064852044   -28972.681     -11.749976     -11.333055      23.277587      114.93762      115.03112      114.99995    
   3630000   250.89564      0.97295284    -0.082042857   -29138.695      31.597575     -7.8129201     -24.030783      114.86544      114.95888      114.92773    
   3640000   250.43083      0.97117135    -0.2252652     -28954.401      10.114973      44.061854     -54.852622      114.93563      115.02913      114.99796    
   3650000   250.70439      0.9726262     -0.20697055    -29018.123     -49.81151       29.309466      19.881133      114.87829      114.97175      114.9406     
   3660000   248.96159      0.97381155     0.22140697    -29191.541      10.353162     -7.5195921     -2.1693493      114.83166      114.92508      114.89394    
   3670000   249.40108      0.97479315    -0.013217568   -29083.491      15.528062      12.115265     -27.68298       114.79311      114.88649      114.85536    
   3680000   250.72891      0.97321907    -0.30748605    -29104.665     -1.8378671      11.780009     -10.8646        114.85496      114.9484       114.91725    
   3690000   250.25917      0.97255117    -0.31000276    -29065.825      4.3347646     -6.2169953      0.95222243     114.88125      114.9747       114.94355    
   3700000   250.09247      0.97270756     0.16718401    -29212.32      -18.571332      19.162257     -0.089373216    114.87509      114.96854      114.93739    
   3710000   251.10019      0.97287788     0.010029993   -29082.195     -64.910759      13.842883      51.097965      114.86839      114.96183      114.93068    
   3720000   249.99355      0.97165487    -0.00666911    -29089.211     -30.381634     -20.925283      51.28691       114.91656      115.01005      114.97888    
   3730000   249.56319      0.97187541    -0.2890148     -29136.866      26.542039      21.786113     -49.195197      114.90787      115.00135      114.97019    
   3740000   249.7098       0.97393764     0.11337506    -29119.512      41.545668      6.9778256     -48.183368      114.82671      114.92012      114.88898    
   3750000   250.43568      0.97147752    -0.1307686     -29059.007     -16.11939      -0.49045656     16.217541      114.92355      115.01704      114.98588    
   3760000   249.69796      0.9719457      0.15898508    -29131.036      73.626689     -46.300453     -26.849281      114.9051       114.99857      114.96741    
   3770000   250.03271      0.9740224     -0.46158605    -29081.042     -21.920669      46.324559     -25.788648      114.82338      114.91679      114.88565    
   3780000   249.8147       0.9728734      0.23608037    -29058.484      17.246184     -6.9776159     -9.5603269      114.86856      114.96201      114.93086    
   3790000   249.04515      0.97266082    -0.22124312    -29072.24       9.2965593     -15.398974      5.4386849      114.87693      114.97038      114.93923    
   3800000   248.89998      0.97187265    -0.047423777   -28934.094     -3.4358772     -34.520582      37.814188      114.90798      115.00145      114.97029    
   3810000   249.66464      0.97555059     0.078122071   -29106.745     -35.487927      12.126776      23.595517      114.76339      114.85675      114.82563    
   3820000   250.33414      0.97168962     0.23147238    -29102.065     -7.5875186     -40.524765      48.806701      114.91519      115.00867      114.97751    
   3830000   250.2969       0.97116757    -0.14603862    -28907.134      20.096517     -25.562279      5.0276462      114.93578      115.02928      114.99811    
   3840000   249.45648      0.97372022     0.22139896    -29091.294      25.167855     -15.771188     -8.7324701      114.83525      114.92867      114.89753    
   3850000   250.75002      0.97447798    -0.16036995    -29102.061      48.310111     -18.580551     -30.21067       114.80548      114.89887      114.86774    
   3860000   249.85785      0.97296196     0.073097703   -28966.114     -20.780013      32.668901     -11.669595      114.86508      114.95852      114.92737    
   3870000   250.24967      0.97500476     0.27213404    -29126.285     -12.278106     -61.824118      74.918626      114.7848       114.87818      114.84705    
   3880000   250.20748      0.97066715     0.42055077    -28963.691     -14.398923     -23.077234      38.737809      114.95553      115.04904      115.01787    
   3890000   249.69131      0.97271118    -0.10002786    -28953.132     -67.105385      44.07507       22.730232      114.87495      114.9684       114.93725    
   3900000   249.39093      0.97426892    -0.020425284   -29033.692     -0.064558126   -23.120956      23.124239      114.81369      114.90709      114.87596    
   3910000   250.06862      0.97435353     0.22154437    -29264.956      15.018277      8.7653217     -23.118966      114.81037      114.90377      114.87263    
   3920000   249.87291      0.97171012     0.11829813    -29049.59       8.4437908     -2.7108573     -5.3780392      114.91438      115.00787      114.9767     
   3930000   249.73366      0.97406492     0.17850549    -29236.828      41.912101      5.4333003     -46.809885      114.82171      114.91511      114.88398    
   3940000   249.45842      0.97191203    -0.081418626   -28911.336      31.749217      2.506171      -34.499644      114.90642      114.9999       114.96874    
   3950000   250.41224      0.97422886    -0.049787893   -29071.312     -12.238333      3.3409712      8.7479986      114.81527      114.90867      114.87753    
   3960000   249.63154      0.97162599    -0.036458414   -29051.71       18.176276     -7.6058253     -10.679826      114.9177       115.01118      114.98002    
   3970000   249.88295      0.97297792    -0.23434704    -29147.906      13.936256      4.8274981     -19.466796      114.86445      114.95789      114.92674    
   3980000   249.01958      0.9765076      0.13463669    -29274.494     -7.3349777      17.989582     -10.250695      114.72589      114.81922      114.78811    
   3990000   250.38345      0.97170943     0.066596461   -29109.526      12.334002      7.0318169     -19.166029      114.91441      115.00789      114.97673    
   4000000   250.06517      0.97595342    -0.37235376    -29241.023     -6.5641061      40.404497     -34.957452      114.7476       114.84094      114.80983    
   4010000   250.10976      0.97243362     0.3517461     -29074.916      13.64673      -25.088474      12.496982      114.88588      114.97934      114.94818    
   4020000   251.3746       0.97406162    -0.24567312    -29096.386      35.911363     -45.307386      8.6590042      114.82184      114.91524      114.88411    
   4030000   250.81864      0.9727658     -0.28149365    -29161.092     -37.367434      3.3870928      33.135861      114.8728       114.96625      114.9351     
   4040000   250.11142      0.97150646    -0.26641334    -29085.26       9.7521319     -40.651906      30.100535      114.92241      115.0159       114.98474    
   4050000   249.57396      0.97432043    -0.16203025    -29103.702      18.762499     -33.851588      14.602998      114.81167      114.90507      114.87393    
   4060000   249.63689      0.97378451     0.082775326   -29165.864      33.253488      20.697717     -53.702879      114.83273      114.92614      114.895      
   4070000   249.88824      0.97403619    -0.21421004    -29191.302      19.694378      13.672449     -34.009457      114.82283      114.91624      114.88511    
   4080000   249.85707      0.97281191     0.062653793   -29038.514     -8.2916908      6.7508369      1.7288153      114.87098      114.96443      114.93328    
   4090000   250.04182      0.97452121    -0.049199115   -29123.578     -5.7576198     -12.400016      18.010038      114.80378      114.89718      114.86604    
   4100000   249.31593      0.97177012    -0.2327425     -29014.639     -4.2703758     -32.03624       35.608388      114.91202      115.0055       114.97434    
   4110000   249.60134      0.97098673     0.092084272   -29051.279      68.065841     -30.067512     -37.722076      114.94291      115.03642      115.00525    
   4120000   250.01844      0.97369011     0.15482357    -29002.09       7.6282462     -21.39505       14.231274      114.83644      114.92986      114.89872    
   4130000   249.43652      0.97160939     0.25996894    -29058.962      42.526086     -19.349772     -22.396408      114.91835      115.01184      114.98068    
   4140000   250.38361      0.97480517    -0.1553852     -29146.872     -40.740031      3.2858228      36.988052      114.79263      114.88602      114.85489    
   4150000   249.62489      0.97334157     0.17496953    -29213.013      12.874341     -10.036939     -2.3124933      114.85014      114.94357      114.91243    
   4160000   249.71693      0.97163234     0.53767199    -29025.52       42.801195     -28.635437     -12.552743      114.91745      115.01093      114.97977    
   4170000   251.08563      0.97285109     0.18407377    -29039.403     -18.720423      23.430531     -4.1578866      114.86944      114.96289      114.93174    
   4180000   250.17132      0.97319909    -0.044860174   -29113.364     -36.777305     -6.3626691      43.005393      114.85575      114.94918      114.91804    
   4190000   250.25763      0.97117551     0.12472474    -29146.939      7.849056       24.968621     -32.443503      114.93546      115.02896      114.9978     
   4200000   250.80144      0.97288063    -0.3793763     -29038.599     -17.500099     -11.896541      28.258511      114.86828      114.96172      114.93058    
   4210000   250.53566      0.97444504    -0.32147773    -29212.018     -2.5558189      2.2924507     -0.70106503     114.80677      114.90017      114.86904    
   4220000   249.97177      0.97343531     0.032402045   -29186.604      5.1809258      20.830546     -25.914266      114.84646      114.93988      114.90874    
   4230000   250.0136       0.97496227     0.39183958    -29210.557      33.663372     -28.615423     -3.8724308      114.78647      114.87985      114.84872    
   4240000   249.50624      0.97280511     0.062418835   -29135.224      19.045555     -43.381162      24.522864      114.87125      114.9647       114.93355    
   4250000   249.6675       0.9729027     -0.094244605   -29125.895      21.102365     -17.893402     -3.4916965      114.86741      114.96085      114.92971    
   4260000   250.25908      0.97359221     0.29017034    -29149.655      43.081808     -2.1475728     -40.063724      114.84029      114.93371      114.90257    
   4270000   249.61263      0.97242335     0.057460359   -29033.197     -20.865725      0.65794505     20.380161      114.88628      114.97974      114.94859    
   4280000   249.62574      0.97245844    -0.32664157    -29135.827     -2.788328       12.203168     -10.394764      114.8849       114.97836      114.9472     
   4290000   249.32464      0.97165301    -0.12075594    -29135.729      3.3079588      31.416536     -35.086763      114.91663      115.01012      114.97896    
   4300000   250.19844      0.97213358     0.018945673   -29001.913     -4.4556195      12.823406     -8.3109492      114.89769      114.99116      114.96001    
   4310000   250.60599      0.97422459     0.054468944   -29166.559     -43.314661      47.542844     -4.0647761      114.81543      114.90884      114.8777     
   4320000   250.48841      0.97365883    -0.10394867    -29093.376     -49.775239      30.391043      19.07235       114.83767      114.93109      114.89995    
   4330000   248.61235      0.97213975     0.0030488079  -29080.451      11.287326     -23.927395      12.649216      114.89745      114.99092      114.95976    
   4340000   250.66329      0.97221185     0.034848306   -29054.894      12.124976     -55.539334      43.518903      114.89461      114.98808      114.95692    
   4350000   250.41148      0.97247408     0.18158321    -29050.202      13.829978     -11.335949     -1.9492799      114.88428      114.97774      114.94659    
   4360000   250.7786       0.97250497     0.12626643    -29056.206      11.662356     -1.2180348     -10.065522      114.88307      114.97652      114.94537    
   4370000   250.3854       0.97203994     0.05020944    -29027.799     -49.702143      20.045609      29.807162      114.90138      114.99486      114.9637     
   4380000   249.29681      0.97358731    -0.10168952    -29093.139      10.390613     -37.644758      26.949077      114.84048      114.9339       114.90276    
   4390000   250.54941      0.97304766    -0.3430929     -29004.79       21.296328     -35.281345      12.955738      114.86171      114.95515      114.924      
   4400000   249.40947      0.96936884    -0.10403145    -28900.633     -10.520941      21.337104     -11.128258      115.00682      115.10038      115.0692     
   4410000   250.52045      0.97340309     0.041949891   -29083.559      27.660848      17.707382     -45.24238       114.84772      114.94115      114.91001    
   4420000   249.56621      0.97148555     0.098703736   -28887.489     -37.332748      44.623908     -6.9950485      114.92324      115.01673      114.98556    
   4430000   250.49021      0.97236151    -0.044896893   -29052.01       15.440683     -19.154204      3.5788307      114.88872      114.98218      114.95102    
   4440000   249.65739      0.97153682     0.19926524    -28999.815     -16.704427      60.836867     -43.534644      114.92121      115.0147       114.98354    
   4450000   250.03124      0.97156206    -0.48353322    -29008.997      11.774811      35.102817     -48.328227      114.92022      115.01371      114.98254    
   4460000   249.9502       0.9734155      0.070248146   -29109.593      5.5863753      15.269976     -20.645607      114.84724      114.94066      114.90952    
   4470000   249.56873      0.97167133     0.10057016    -29001.435     -0.27545108    -7.361175       7.9383366      114.91591      115.0094       114.97823    
   4480000   249.4742       0.97283643     0.14533436    -29126.173      0.33955481    -7.4624365      7.5588848      114.87002      114.96346      114.93232    
   4490000   249.80217      0.97111099     0.11242658    -29061.522      25.140786     -16.519721     -8.2837853      114.93801      115.03151      115.00034    
   4500000   248.86473      0.97303945     0.028053132   -29179.207     -26.223675      20.400688      5.9071467      114.86203      114.95547      114.92432    
   4510000   249.9112       0.97462241    -0.15145114    -29207.99      -5.6535576      2.7816784      2.4175258      114.79981      114.8932       114.86207    
   4520000   249.81705      0.97577644     0.030728577   -29277.825      2.4439058      4.2977805     -6.6495006      114.75453      114.84789      114.81677    
   4530000   249.69559      0.97151301     0.095306154   -29082.395     -12.814552      12.819899      0.28057187     114.92215      115.01564      114.98448    
   4540000   249.11114      0.97384821    -0.026142486   -29288.662     -26.76352      -16.554768      43.239861      114.83022      114.92364      114.8925     
   4550000   250.00162      0.97447386    -0.047535916   -29161.626      18.103492     -9.6634496     -8.5826505      114.80564      114.89904      114.86791    
   4560000   250.40018      0.97422629    -0.1755478     -29179.559      1.2147446     -17.94908       16.207692      114.81537      114.90877      114.87763    
   4570000   250.21348      0.97131836     0.060823799   -29128.758     -52.213072     -0.6342034      53.029747      114.92983      115.02333      114.99216    
   4580000   249.406        0.97351077    -0.068093211   -29379.128      11.782061     -3.5502662     -8.4360743      114.84349      114.93691      114.90577    
   4590000   249.5544       0.97314201    -0.1459863     -29113.308     -64.566865      34.855809      29.273097      114.85799      114.95143      114.92028    
   4600000   248.61363      0.97304761     0.45040704    -29155.28      -25.454903      13.869628      12.936496      114.86171      114.95515      114.924      
   4610000   249.25054      0.97364274    -0.16419376    -29067.081      18.383858     -3.5834251     -15.293015      114.8383       114.93172      114.90058    
   4620000   249.92225      0.97368789    -0.1779056     -29178.638      55.651338     -17.326861     -38.858193      114.83652      114.92994      114.8988     
   4630000   250.13383      0.97312289     0.0077480451  -29165.441     -24.001956     -3.4623423      27.487543      114.85875      114.95218      114.92104    
   4640000   250.18099      0.97172814    -0.13796235    -29118.069     -38.866039      7.9065434      30.545608      114.91367      115.00715      114.97599    
   4650000   250.51908      0.97130837    -0.03804456    -28927.181      21.818873     -11.542863     -10.390144      114.93022      115.02372      114.99255    
   4660000   249.81891      0.97401539    -0.14157882    -29069.091      68.298034      22.773489     -91.496259      114.82365      114.91706      114.88593    
   4670000   249.10121      0.97383349     0.17651113    -29119.34      -25.091702      52.36578      -26.744545      114.8308       114.92422      114.89308    
   4680000   251.15419      0.9725712     -0.045527296   -28985.672      40.325281     -42.371835      1.9099721      114.88046      114.97391      114.94276    
   4690000   250.54577      0.97412144     0.022534413   -29117.644     -60.876662      11.178731      49.765534      114.81949      114.91289      114.88176    
   4700000   250.14059      0.9745191      0.17385331    -29042.502      24.39829      -20.446792     -3.4299375      114.80387      114.89726      114.86613    
   4710000   250.00416      0.97266455     0.28683665    -29036.194      41.920462     -53.287617      12.227664      114.87678      114.97024      114.93909    
   4720000   250.02961      0.97231489     0.11785894    -29095.993     -32.875444      9.9602635      23.268758      114.89055      114.98402      114.95286    
   4730000   250.36614      0.97186073    -0.13426257    -28990.641      28.778146     -1.3873521     -27.793582      114.90845      115.00192      114.97076    
   4740000   250.34069      0.97225027    -0.0057274879  -29013.243     -7.0863603      77.504771     -70.435593      114.8931       114.98656      114.95541    
   4750000   250.29269      0.9740782     -0.033070038   -29190.611     -16.895428     -12.100863      28.89708       114.82118      114.91459      114.88346    
   4760000   249.71794      0.97278301    -0.27352711    -29098.316      13.440658      17.750747     -32.011987      114.87212      114.96557      114.93442    
   4770000   250.29139      0.97265125    -0.014642593   -29095.387     -0.70686404    -3.4234566      4.0863928      114.87731      114.97076      114.93961    
   4780000   250.30734      0.9715293      0.04789838    -28991.211      41.485372     -34.474882     -6.8667949      114.92151      115.015        114.98384    
   4790000   249.31294      0.97282775     0.18534765    -29115.601     -28.488585      12.597064      16.447563      114.87036      114.96381      114.93266    
   4800000   249.71381      0.97382335    -0.13655973    -28999.771     -30.075468      14.216127      15.449662      114.8312       114.92461      114.89348    
   4810000   249.4804       0.97554493     0.25100995    -29317.497      5.9596059     -53.401963      48.195387      114.76361      114.85697      114.82585    
   4820000   249.58478      0.97386849    -0.10003151    -29209.954     -31.075715      24.349315      6.4263054      114.82943      114.92284      114.8917     
   4830000   250.05605      0.97301206    -0.1537006     -29216.891      7.4081858     -26.174957      18.305669      114.86311      114.95655      114.9254     
   4840000   249.678        0.97110555    -0.027204901   -29042.686      26.987834     -37.425692      10.356243      114.93822      115.03173      115.00056    
   4850000   249.76749      0.97333232    -0.33983427    -29254.996     -2.3984288      15.204977     -13.826051      114.85051      114.94394      114.91279    
   4860000   249.59893      0.97239795    -0.087577681   -29097.13       12.790863     -47.13063       34.077034      114.88728      114.98074      114.94959    
   4870000   250.48848      0.97063443     0.033393486   -29043.838     -40.029296      1.014787       39.11469       114.95682      115.05034      115.01916    
   4880000   250.68673      0.97239108     0.15765833    -29119.003      17.939051     -32.50634       15.040265      114.88755      114.98101      114.94986    
   4890000   250.47214      0.97386106    -0.045896859   -29160.057      3.4909672      44.467004     -48.095662      114.82972      114.92313      114.89199    
   4900000   250.20017      0.97350748    -0.098579451   -29158.388      2.9775573      25.648211     -28.921507      114.84362      114.93704      114.9059     
   4910000   250.38008      0.97509666    -0.21639782    -29189.019      8.6927692      7.62108       -16.963043      114.78119      114.87457      114.84344    
   4920000   249.80427      0.97258133    -0.16510695    -29165.255     -6.0642443     -23.511933      29.080857      114.88006      114.97351      114.94236    
   4930000   249.21785      0.97307358     0.11594962    -29175.682      0.017727921   -23.88932       24.219441      114.86069      114.95412      114.92298    
   4940000   250.28074      0.97096491     0.28788649    -29192.572      24.264513      16.150976     -39.55183       114.94377      115.03728      115.00611    
   4950000   250.20334      0.97345385    -0.15127295    -29139.032      0.63875611     15.406154     -16.498729      114.84573      114.93915      114.90801    
   4960000   249.94931      0.97587686    -0.074202722   -29424.67       4.3711325      10.325428     -14.919169      114.7506       114.84395      114.81283    
   4970000   250.16299      0.97476199     0.099491501   -29205.021     -46.742299      35.683248      11.357525      114.79433      114.88771      114.85659    
   4980000   250.18761      0.97400863    -0.062428676   -29200.664     -44.739694      56.939772     -12.387364      114.82392      114.91733      114.88619    
   4990000   249.4762       0.97157716     0.042397961   -29077.404      11.020473      19.530323     -30.423602      114.91962      115.01311      114.98195    
   5000000   250.57157      0.9750419      0.0064175778  -29098.924      19.015542     -2.9177425     -16.078547      114.78334      114.87672      114.84559    
   5010000   249.80848      0.97118119    -0.14362113    -29089.749     -9.0223891      9.4256484     -0.8341226      114.93524      115.02874      114.99757    
   5020000   250.15816      0.97378383     0.36750039    -29179.283     -15.261923      2.0013006      14.363124      114.83275      114.92617      114.89503    
   5030000   250.42578      0.97292515    -0.043993703   -29149.01      -31.195978      39.25354      -8.1895428      114.86653      114.95997      114.92882    
   5040000   250.63174      0.97162877    -0.00069718693 -29040.475     -9.2969584      22.899007     -13.60414       114.91759      115.01108      114.97991    
   5050000   250.06125      0.97387947     0.10054944    -29076.969      38.274612     -32.257513     -5.7154505      114.82899      114.92241      114.89127    
   5060000   249.56877      0.97282252    -0.029124816   -29274.873     -25.04862      -19.348379      44.309625      114.87057      114.96401      114.93286    
   5070000   249.59803      0.97194538     0.17832415    -29149.292     -14.138798      29.991417     -15.317646      114.90511      114.99859      114.96743    
   5080000   250.50776      0.97183233     0.22663204    -29154.78      -6.3570361     -0.59638419     7.6333164      114.90957      115.00304      114.97188    
   5090000   249.96784      0.97375816     0.038858934   -29390.759      2.2514606     -6.5396384      4.4047546      114.83376      114.92718      114.89604    
   5100000   250.0124       0.97369932    -0.028867811   -29306.864     -73.112052      24.583184      48.442264      114.83608      114.92949      114.89835    
   5110000   250.19096      0.97291908    -0.1011419     -29146.643     -18.296014     -30.454535      48.447123      114.86676      114.96021      114.92906    
   5120000   249.85963      0.97074338    -0.026956865   -28964.495     -0.91530633    -15.715573      16.550009      114.95252      115.04603      115.01486    
   5130000   250.51524      0.97541625    -0.11111624    -29288.41       67.625305     -72.839676      4.8810225      114.76866      114.86202      114.8309     
   5140000   249.2436       0.974832      -0.0097645279  -29236.017      2.0260088     -0.090285893   -1.9650165      114.79158      114.88496      114.85384    
   5150000   250.07485      0.97297617    -0.43727236    -29170.079     -13.850545     -9.1132318      21.65196       114.86452      114.95796      114.92681    
   5160000   250.40561      0.97356286    -0.10891065    -29130.643      12.225193      4.6617805     -17.213706      114.84144      114.93486      114.90372    
   5170000   249.50417      0.97245472     0.026834341   -29034.613     -5.0492919      48.039115     -42.90932       114.88505      114.9785       114.94735    
   5180000   250.06814      0.97587889    -0.0086322791  -29124.438      5.2302994     -2.9186871     -2.3375091      114.75052      114.84387      114.81275    
   5190000   250.09771      0.97449407     0.24564827    -29118.582     -7.5733273     -19.362021      27.672293      114.80485      114.89824      114.86711    
   5200000   250.15116      0.97091785    -0.17368342    -28945.765     -39.032444      9.6148353      28.896558      114.94563      115.03914      115.00797    
   5210000   250.6814       0.97502787    -0.15417177    -29224.923     -15.643417      40.87085      -25.689948      114.78389      114.87727      114.84614    
   5220000   249.26472      0.97342015     0.0096272092  -29078.237     -40.831309      7.1699766      33.690214      114.84705      114.94048      114.90934    
   5230000   250.16715      0.97330107    -0.0017534334  -29166.921     -2.1014442     -40.311645      42.407829      114.85174      114.94517      114.91402    
   5240000   250.18997      0.97178115     0.01912438    -29047.758      44.715124     -13.737138     -30.920613      114.91158      115.00506      114.9739     
   5250000   250.76657      0.97214914    -0.069161985   -29133.691      43.523207      4.1868214     -47.917514      114.89708      114.99055      114.95939    
   5260000   249.6982       0.97248939     0.050216161   -29055.366      38.586575      10.624793     -49.06072       114.88368      114.97714      114.94599    
   5270000   250.14661      0.97258806    -0.23200328    -29218.756     -34.358873      56.532529     -22.869666      114.8798       114.97325      114.9421     
   5280000   249.86206      0.97561155    -0.042712157   -29220.701     -29.389533      28.809657      0.45173939     114.761        114.85436      114.82324    
   5290000   249.88686      0.97230202    -0.32900503    -29068.311     -1.2597046      6.1351281     -5.8624387      114.89106      114.98452      114.95337    
   5300000   249.00442      0.97346929    -0.092455915   -29123.541      24.134653      22.727808     -47.139829      114.84512      114.93855      114.9074     
   5310000   250.43432      0.9716824     -0.24031727    -29061.041     -32.513479     -3.152815       34.945342      114.91548      115.00896      114.9778     
   5320000   249.75691      0.97290261     0.015236534   -29167.151      15.943227     -25.146106      9.2485883      114.86741      114.96086      114.92971    
   5330000   249.36298      0.97497499     0.50749138    -29360.116     -20.713507      15.674832      6.5611487      114.78597      114.87935      114.84822    
   5340000   249.96258      0.97222077     0.028111081   -29225.662      36.558466     -53.152307      16.678174      114.89426      114.98773      114.95657    
   5350000   250.67912      0.97331863     0.017784229   -29142.344      5.5312233      1.9654694     -7.44334        114.85105      114.94448      114.91333    
   5360000   250.46719      0.9742665     -0.30384772    -29143.855      5.6145573     -7.243283       0.71718248     114.81379      114.90719      114.87605    
   5370000   250.61482      0.97261014     0.047763913   -29062.416     -9.2080839     -1.4924698      10.843845      114.87893      114.97238      114.94123    
   5380000   250.2716       0.97373274     0.15115149    -29209.039     -1.9516832     -4.4668869      6.8720246      114.83476      114.92818      114.89704    
   5390000   250.1944       0.97605915    -0.15455816    -29206.891     -1.7713931      10.709527     -9.4018086      114.74345      114.8368       114.80568    
   5400000   250.51496      0.97359095     0.00098451988 -29135.47      -11.453593     -5.7671375      17.223684      114.84034      114.93376      114.90262    
   5410000   250.50608      0.9737303     -0.13701648    -29210.973      38.084756     -11.683075     -26.812731      114.83486      114.92828      114.89714    
   5420000   250.1576       0.97163746    -0.16678042    -29093.321     -29.0518        41.689537     -13.138078      114.91725      115.01073      114.97957    
   5430000   249.87485      0.97233475    -0.09899426    -29164.105     -16.250832     -5.1869585      21.140808      114.88977      114.98323      114.95208    
   5440000   249.96122      0.97390429    -0.116964      -29209.562     -38.808002      91.160776     -52.703666      114.82802      114.92143      114.89029    
   5450000   250.54748      0.97329602    -0.04719016    -29143.598      24.226382     -79.057693      54.68974       114.85193      114.94537      114.91422    
   5460000   249.72549      0.97343901    -0.22839092    -29194.581      45.400574     -35.768222     -10.317525      114.84631      114.93974      114.9086     
   5470000   249.7808       0.9718594      0.10903689    -29105.838      17.495959      1.698228      -18.867076      114.9085       115.00198      114.97082    
   5480000   250.21347      0.97421176    -0.19487047    -29186.442      61.892035     -62.11943      -0.35721629     114.81594      114.90934      114.87821    
   5490000   249.8205       0.97215763     0.024143106   -29198.351     -48.549687      4.1919424      44.430174      114.89675      114.99022      114.95906    
   5500000   249.54299      0.9728435     -0.10309537    -29125.122      22.759225     -68.319193      45.250681      114.86974      114.96319      114.93204    
   5510000   250.67409      0.97092475    -0.087026839   -29084.769     -14.774882      47.581401     -33.0676        114.94536      115.03887      115.0077     
   5520000   249.87536      0.9719142      0.16341575    -29048.182      10.553972     -13.859383      3.7956584      114.90634      114.99982      114.96866    
   5530000   250.60466      0.97259544     0.040850105   -29045.745     -25.255185      47.063976     -21.68624       114.8795       114.97296      114.94181    
   5540000   250.16868      0.97228822     0.27374879    -28993.584      14.315545     -0.62454589    -12.869752      114.8916       114.98507      114.95391    
   5550000   250.6774       0.97369594    -0.095698777   -29201.006      3.9404113     -17.196086      12.968578      114.83621      114.92963      114.89849    
   5560000   250.26609      0.97571174    -0.24746238    -29221.488      14.169663     -33.136344      18.224293      114.75707      114.85043      114.81931    
   5570000   249.53958      0.97151783    -0.2726834     -29108.235     -28.769995      20.997557      6.9543879      114.92196      115.01545      114.98429    
   5580000   250.58303      0.97291457    -0.19365604    -29167.837      25.027359     -18.970146     -6.6381804      114.86694      114.96039      114.92924    
   5590000   250.04528      0.97269336    -0.020260778   -29179.694     -74.964877      54.38017       20.523924      114.87565      114.9691       114.93795    
   5600000   249.66735      0.97089274    -0.12957234    -29102.821     -10.384748     -17.671653      27.667684      114.94662      115.04013      115.00896    
   5610000   249.81244      0.97223486     0.070757451   -29235.577     -26.69819       28.644381     -1.7339184      114.89371      114.98717      114.95602    
   5620000   249.69054      0.97305164    -0.066732697   -29116.5        23.215122      12.506778     -35.922099      114.86155      114.95499      114.92384    
   5630000   249.33471      0.97263201    -0.10590845    -29228.165     -2.8076106     -40.897169      43.387054      114.87806      114.97152      114.94037    
   5640000   249.52864      0.97323997     0.24628348    -29052.672      12.847962     -4.076814      -8.0322977      114.85414      114.94757      114.91643    
   5650000   250.13702      0.97252222    -0.13187034    -29213.839      30.93489      -6.2272434     -25.103257      114.88239      114.97584      114.94469    
   5660000   249.35881      0.97333849     0.043215902   -29146.468      6.1869774      10.409501     -16.46683       114.85026      114.94369      114.91255    
   5670000   249.9943       0.97385346    -0.086708974   -29131.067     -31.506692     -22.469289      53.715853      114.83002      114.92343      114.89229    
   5680000   250.18846      0.97225263    -0.042776919   -29143.198     -3.2630717      27.649396     -24.514655      114.893        114.98647      114.95531    
   5690000   249.68566      0.97325514     0.040519639   -29205.352      7.4626833     -8.3357895      0.9946651      114.85354      114.94698      114.91583    
   5700000   249.78311      0.97175772     0.094151814   -29146.857      29.509324     -41.426192      12.199323      114.91251      115.00599      114.97483    
   5710000   250.29053      0.97098129    -0.25512051    -29168.56       20.55257      -29.217042      7.8991111      114.94313      115.03663      115.00547    
   5720000   249.9623       0.97318107     0.047631282   -29183.706     -12.058482     -32.730239      44.931615      114.85646      114.94989      114.91875    
   5730000   249.81646      0.97331973     0.17922037    -29271.422      6.8697212     -52.483312      46.151252      114.851        114.94443      114.91329    
   5740000   250.19513      0.97262978    -0.2152653     -29156.29       26.161615     -7.1886308     -19.61878       114.87815      114.97161      114.94045    
   5750000   250.12497      0.97377859    -0.43845564    -29146.944     -37.07355       15.554781      20.203402      114.83296      114.92638      114.89524    
   5760000   250.08202      0.97291476    -0.068964282   -29112.111      1.110918       21.316815     -22.634626      114.86694      114.96038      114.92923    
   5770000   250.26674   