LAMMPS (29 Aug 2024)
# LAMMPS输入文件示例：使用Martini 3粗粒化力场计算PDMS的均方回转半径
# -----------------------------------------------------
# 1. 初始化设置
# -----------------------------------------------------
units               real
dimension           3
boundary            p p p
atom_style          full

# 读取包含PDMS分子结构的data文件
read_data           bad_pdms_50_box.data
Reading data file ...
  orthogonal box = (-5.002 -4.881 -5.027) to (134.004 134.002 134)
  2 by 2 by 4 MPI processor grid
  reading atoms ...
  12350 atoms
  scanning bonds ...
  1 = max bonds/atom
  scanning angles ...
  1 = max angles/atom
  scanning dihedrals ...
  1 = max dihedrals/atom
  orthogonal box = (-5.002 -4.881 -5.027) to (134.004 134.002 134)
  2 by 2 by 4 MPI processor grid
  reading bonds ...
  12103 bonds
  reading angles ...
  11856 angles
  reading dihedrals ...
  11609 dihedrals
Finding 1-2 1-3 1-4 neighbors ...
  special bond factors lj:    0        0        0       
  special bond factors coul:  0        0        0       
     2 = max # of 1-2 neighbors
     2 = max # of 1-3 neighbors
     4 = max # of 1-4 neighbors
     6 = max # of special neighbors
  special bonds CPU = 0.002 seconds
  read_data CPU = 0.134 seconds

# -----------------------------------------------------
# 2. 力场参数设置（Martini 3参数）
# -----------------------------------------------------
# 定义非键相互作用（示例：Lennard-Jones势，截断距离可参考Martini 3常用取值）
pair_style lj/cut   12.0
special_bonds       lj 0.0 0.0 0.5
Finding 1-2 1-3 1-4 neighbors ...
  special bond factors lj:    0        0        0.5     
  special bond factors coul:  0        0        0       
     2 = max # of 1-2 neighbors
     2 = max # of 1-3 neighbors
     4 = max # of 1-4 neighbors
     6 = max # of special neighbors
  special bonds CPU = 0.001 seconds
pair_coeff          1 1 0.7337 5.1
# 定义键、角、二面角势（示例参数，实际参数请参考相关文献）
bond_style          harmonic
bond_coeff          1 13.243 4.48
angle_style         harmonic
angle_coeff         1 5.48 86.0
dihedral_style      harmonic
dihedral_coeff      1 0.3346  1  1
# -----------------------------------------------------
# 3. 邻域列表设置
# -----------------------------------------------------
neigh_modify        one 1000
neighbor            1 bin
neigh_modify        delay 0 every 1 check yes

# -----------------------------------------------------
# 4. 能量最小化与预平衡
# -----------------------------------------------------
minimize            1.0e-4 1.0e-6 1000 10000

CITE-CITE-CITE-CITE-CITE-CITE-CITE-CITE-CITE-CITE-CITE-CITE-CITE

Your simulation uses code contributions which should be cited:

- Type Label Framework: https://doi.org/10.1021/acs.jpcb.3c08419

@Article{Gissinger24,
 author = {Jacob R. Gissinger, Ilia Nikiforov, Yaser Afshar, Brendon Waters, Moon-ki Choi, Daniel S. Karls, Alexander Stukowski, Wonpil Im, Hendrik Heinz, Axel Kohlmeyer, and Ellad B. Tadmor},
 title = {Type Label Framework for Bonded Force Fields in LAMMPS},
 journal = {J. Phys. Chem. B},
 year =    2024,
 volume =  128,
 number =  13,
 pages =   {3282–-3297}
}

CITE-CITE-CITE-CITE-CITE-CITE-CITE-CITE-CITE-CITE-CITE-CITE-CITE

Generated 0 of 0 mixed pair_coeff terms from geometric mixing rule
Neighbor list info ...
  update: every = 1 steps, delay = 0 steps, check = yes
  max neighbors/atom: 1000, page size: 100000
  master list distance cutoff = 13
  ghost atom cutoff = 13
  binsize = 6.5, bins = 22 22 22
  1 neighbor lists, perpetual/occasional/extra = 1 0 0
  (1) pair lj/cut, perpetual
      attributes: half, newton on
      pair build: half/bin/newton
      stencil: half/bin/3d
      bin: standard
Per MPI rank memory allocation (min/avg/max) = 8.322 | 8.377 | 8.835 Mbytes
   Step          Temp          E_pair         E_mol          TotEng         Press     
         0   0              3.9089163e+10  48083.546      3.9089211e+10  3.994779e+09 
      1000   0             -46501.708      15382.758     -31118.95       64.90019     
Loop time of 1.12287 on 16 procs for 1000 steps with 12350 atoms

95.8% CPU use with 16 MPI tasks x no OpenMP threads

Minimization stats:
  Stopping criterion = max iterations
  Energy initial, next-to-last, final = 
      39089211425.7266  -31111.5333150795  -31118.9498667529
  Force two-norm initial, final = 3.8331257e+10 35.167927
  Force max component initial, final = 1.7252804e+09 17.390564
  Final line search alpha, max atom move = 0.010087998 0.17543597
  Iterations, force evaluations = 1000 1010

MPI task timing breakdown:
Section |  min time  |  avg time  |  max time  |%varavg| %total
---------------------------------------------------------------
Pair    | 0.1102     | 0.31347    | 0.61536    |  24.6 | 27.92
Bond    | 0.026979   | 0.066181   | 0.10359    |   8.0 |  5.89
Neigh   | 0.22851    | 0.23025    | 0.23238    |   0.2 | 20.51
Comm    | 0.11308    | 0.40357    | 0.63321    |  22.1 | 35.94
Output  | 3.4506e-05 | 4.0708e-05 | 0.00011664 |   0.0 |  0.00
Modify  | 0          | 0          | 0          |   0.0 |  0.00
Other   |            | 0.1094     |            |       |  9.74

Nlocal:        771.875 ave        1112 max         317 min
Histogram: 1 0 2 1 4 0 3 0 2 3
Nghost:        1462.38 ave        1906 max        1006 min
Histogram: 4 1 3 0 0 0 1 0 2 5
Neighs:        24033.8 ave       40377 max        9581 min
Histogram: 2 1 2 3 1 1 2 1 1 2

Total # of neighbors = 384540
Ave neighs/atom = 31.136842
Ave special neighs/atom = 5.76
Neighbor list builds = 137
Dangerous builds = 0
# npt系综下驰豫
fix    1 all npt temp 300 300 50 iso 0 0 1000 drag 2
thermo_style  custom step temp press epair ebond eangle edihed pxx pyy pzz lx ly lz
thermo          1000
run    500000
Generated 0 of 0 mixed pair_coeff terms from geometric mixing rule
Per MPI rank memory allocation (min/avg/max) = 7.198 | 7.265 | 7.71 Mbytes
   Step          Temp          Press          E_pair         E_bond        E_angle        E_dihed          Pxx            Pyy            Pzz             Lx             Ly             Lz      
      1000   0              64.90019      -46501.708      987.56021      11759.46       2635.7373      36.292009      44.279755      114.12881      139.006        138.883        139.027      
      2000   89.33198       32.563273     -45586.406      965.96922      10396.86       2628.6566      14.024118      12.45968       71.206021      139.96837      139.84452      139.98951    
      3000   253.83676      24.718368     -40954.333      1367.729       9470.2948      2599.5262      22.588708      10.423929      41.142467      142.91711      142.79065      142.9387     
      4000   296.71081      3.0996713     -37961.848      1996.0088      8504.586       2532.4358     -18.713999      5.293347       22.719666      144.76507      144.63697      144.78694    
      5000   299.26514      0.011836988   -37251.996      2508.2718      7781.617       2484.285       14.36934      -10.562843     -3.7709858      144.76373      144.63563      144.7856     
      6000   299.93503     -1.6611953     -37095.08       2878.8895      7187.2325      2459.4513     -2.5389923     -28.911502      26.466909      144.26223      144.13458      144.28402    
      7000   301.79784     -13.78811      -37226.509      3181.6979      6761.7758      2444.7315      20.98441      -51.745606     -10.603135      143.5306       143.4036       143.55229    
      8000   301.08266      3.189265      -37654.324      3404.6562      6653.107       2419.1439      37.574458     -3.7615536     -24.245109      142.61656      142.49037      142.63811    
      9000   301.02799     -3.8214263     -38210.756      3553.5226      6489.0719      2411.6451      30.050883     -30.287129     -11.228033      141.59221      141.46692      141.6136     
     10000   300.88872     -10.431727     -38434.412      3687.4124      6294.1035      2399.7875     -5.3699244      4.4396413     -30.364899      140.9168       140.7921       140.93808    
     11000   301.67857     -10.672088     -38739.22       3736.4449      6084.2959      2379.703       25.142617      5.3383247     -62.497207      140.37206      140.24785      140.39326    
     12000   299.7251      -1.3950881     -39160.756      3885.5485      6193.9293      2368.3395      27.513413     -25.828947     -5.8697306      139.70688      139.58326      139.72799    
     13000   299.62538     -1.0581068     -39289.92       3924.9462      5908.2817      2367.9922     -22.303844      42.77706      -23.647537      139.14906      139.02593      139.17008    
     14000   301.81657     -8.9574817     -39569.837      3866.1025      5934.0457      2366.09        19.365558     -22.766869     -23.471134      138.50474      138.38218      138.52567    
     15000   300.70034      6.7621021     -39763.357      3948.2366      5877.7464      2354.3787      29.535483      12.943294     -22.192471      137.8935       137.77149      137.91433    
     16000   299.64564     -11.205016     -39959.015      4035.6138      5863.2293      2345.1313     -15.201825      8.7000658     -27.113288      137.42638      137.30477      137.44714    
     17000   299.98835      2.6166567     -39978.712      4025.4717      5774.5587      2333.8442      27.325151     -8.4582158     -11.016965      136.86877      136.74766      136.88945    
     18000   299.7661      -12.791019     -40031.806      4111.6424      5605.7197      2337.8059     -24.755466      3.165135      -16.782727      136.4022       136.2815       136.42281    
     19000   300.23325      4.7939557     -40199.99       4056.3049      5676.5068      2319.507       0.20536626     19.932238     -5.7557368      135.71753      135.59744      135.73803    
     20000   297.02289      9.0078002     -40436.382      4144.2242      5632.0341      2323.8121     -3.6192284      33.278212     -2.6355825      135.00385      134.8844       135.02425    
     21000   300.48934      10.38718      -40485.307      4033.9321      5609.2513      2320.7226      2.665951       21.630141      6.8654484      134.48459      134.36559      134.5049     
     22000   299.73581     -10.148667     -40437.632      4116.5012      5492.01        2325.4026     -11.55405       6.8264768     -25.718428      134.05373      133.93511      134.07398    
     23000   298.97789      1.0242227     -40670.227      4159.9819      5538.0135      2297.9088     -1.820898       9.8340736     -4.9405074      133.39879      133.28075      133.41894    
     24000   301.04029     -3.5800621     -40821.171      4108.7737      5487.468       2283.847       2.0382387     -12.225376     -0.55304895     132.75704      132.63957      132.7771     
     25000   298.09259     -7.2811556     -40981.96       4139.7111      5519.4999      2275.4646     -55.087146      11.015938      22.227741      132.06552      131.94866      132.08547    
     26000   300.28935      11.42567      -41163.312      4122.9886      5574.7387      2268.7823     -12.260815      19.137598      27.400225      131.4439       131.32759      131.46376    
     27000   301.90041     -14.49117      -41253.913      4163.0511      5376.2277      2265.6761     -23.809407      23.328571     -42.992674      130.9121       130.79626      130.93188    
     28000   300.0147      -23.052476     -41462.96       4164.2486      5510.521       2270.7973     -27.80163      -7.0283935     -34.327404      130.32821      130.21289      130.3479     
     29000   300.09137     -8.8575517     -41515.979      4135.3216      5485.4387      2254.4266      4.0709781      8.2394942     -38.883128      129.81863      129.70375      129.83824    
     30000   300.14073     -5.2862375     -41541.279      4119.7154      5514.7092      2264.6874     -32.234464      33.129506     -16.753755      129.3987       129.2842       129.41825    
     31000   300.36646      14.344813     -41519.194      4122.8215      5395.5279      2267.6935      10.427702     -22.767294      55.374029      128.86735      128.75332      128.88681    
     32000   300.1891      -17.720387     -41554.116      4118.6039      5297.258       2273.6259      2.4060578     -21.888544     -33.678674      128.50638      128.39267      128.52579    
     33000   300.30526     -5.289344      -41746.96       4131.5872      5344.3665      2254.6365     -26.321067      16.484997     -6.0319624      127.93433      127.82112      127.95365    
     34000   302.53643     -4.909853      -42026.374      4063.8683      5349.9808      2257.7144      4.86116       -9.8877957     -9.7029234      127.35508      127.24239      127.37432    
     35000   302.03594      3.1851239     -42055.963      4126.8831      5239.1888      2247.386       40.447802     -7.4473863     -23.445044      127.0061       126.89372      127.02529    
     36000   300.80286     -6.8346625     -42056.216      4163.4074      5299.2292      2230.7406     -14.43957      -33.294174      27.229757      126.66351      126.55143      126.68264    
     37000   299.33761      11.140167     -42193.286      4157.4021      5277.6658      2219.8457      44.154357      9.8549014     -20.588756      126.26527      126.15354      126.28435    
     38000   299.22634      1.1150249     -42199.152      4192.7739      5256.3569      2241.3669      4.8464661     -4.5415419      3.0401504      125.98309      125.87161      126.00212    
     39000   301.67132     -10.744436     -42409.45       4120.3907      5372.6142      2218.1675     -30.767049     -17.469857      16.003599      125.49603      125.38499      125.51499    
     40000   299.11478      6.4975641     -42342.926      4104.1072      5370.3763      2207.9617     -15.102455     -11.292723      45.88787       125.16483      125.05408      125.18374    
     41000   299.43754     -11.918439     -42417.205      4164.5614      5390.8361      2231.3066     -51.100358     -15.309251      30.654291      124.87673      124.76623      124.8956     
     42000   301.55209     -8.91532       -42649.668      4136.6841      5277.6487      2225.537       0.087341323   -38.126415      11.293114      124.53499      124.4248       124.55381    
     43000   300.92465     -14.284795     -42458.933      4150.011       5263.7084      2224.2271     -72.34685      -29.480815      58.97328       124.43555      124.32544      124.45435    
     44000   300.44991      7.5716369     -42705.511      4144.3407      5291.449       2238.5126     -0.21000608    -1.9375133      24.86243       123.95824      123.84855      123.97697    
     45000   300.85182     -4.2086951     -42691.558      4176.5089      5235.0177      2226.4273      14.64916      -10.062319     -17.212927      123.75751      123.648        123.77621    
     46000   301.76826     -3.3918132     -42889.108      4183.9518      5285.1679      2223.9947     -5.9651906     -28.618182      24.407933      123.44658      123.33735      123.46523    
     47000   301.6049       9.1233301     -42937.47       4079.6097      5192.0743      2219.2035      53.586215     -65.946812      39.730588      123.2068       123.09778      123.22541    
     48000   299.3026      -6.5905685     -43051.434      4190.9843      5334.9366      2206.1453     -39.965631      18.835399      1.3585261      122.99555      122.88671      123.01413    
     49000   299.2748      -10.073694     -42909.023      4250.4552      5248.2868      2206.367      -47.667796      3.2678156      14.178899      122.8792       122.77047      122.89776    
     50000   300.52518     -24.016423     -42965.779      4183.8149      5224.151       2208.1854     -23.000179     -24.793806     -24.255284      122.77544      122.6668       122.79398    
     51000   298.63542      3.9330652     -43165.773      4253.9805      5280.4642      2203.0563     -31.317577      23.041424      20.075349      122.42806      122.31973      122.44656    
     52000   302.34499      0.54249109    -43079.396      4227.5654      5239.3044      2209.3562     -16.133264     -22.114628      39.875365      122.38327      122.27498      122.40176    
     53000   302.76967     -9.9408291     -43243.805      4164.6737      5136.9168      2214.962      -5.8524794     -16.563343     -7.4066646      122.07538      121.96736      122.09382    
     54000   300.49044     -5.0397554     -42970.401      4173.6478      5064.6818      2202.6571      16.563764      0.18588074    -31.868911      122.14272      122.03464      122.16117    
     55000   298.68972     -9.5243596     -43275.609      4231.3261      5183.0389      2203.2446     -45.068956      6.5805035      9.9153735      121.77978      121.67203      121.79818    
     56000   300.5112       2.6178998     -43329.618      4223.8258      5225.0151      2205.9891     -20.618717      33.673117     -5.2007012      121.5922       121.48461      121.61057    
     57000   299.64303      1.6468196     -43351.076      4251.383       5222.0844      2222.3492     -7.7203053     -52.594715      65.255479      121.44718      121.33972      121.46553    
     58000   301.21053      12.27749      -43377.721      4146.3586      5279.4019      2209.7083      1.5349467      7.5368107      27.760712      121.35003      121.24266      121.36837    
     59000   298.57196      23.089181     -43276.7        4111.4041      5226.819       2196.3456      41.037619      14.518835      13.711089      121.19998      121.09273      121.21829    
     60000   298.38334      19.69376      -43358.486      4176.4772      5179.7134      2198.3171      31.873058      14.52477       12.683452      121.06144      120.95432      121.07973    
     61000   299.73584     -8.1051094     -43294.66       4138.928       5134.8572      2183.8989     -7.810477       20.408457     -36.913308      120.94453      120.83751      120.9628     
     62000   298.48476      2.7953508     -43448.265      4174.7453      5219.4036      2172.5758      14.969131     -16.613053      10.029975      120.6833       120.57651      120.70153    
     63000   301.18064      0.0071288929  -43519.858      4082.5993      5238.3674      2187.3139     -42.54998       38.529527      4.0418395      120.5089       120.40227      120.52711    
     64000   302.11462      22.343786     -43455.072      4078.3777      5105.3865      2169.9249     -26.945389      46.365727      47.61102       120.35411      120.24762      120.37229    
     65000   301.27649      5.3731717     -43586.804      4132.0754      5198.7316      2168.3722      4.3148423     -1.8616358      13.666309      120.19031      120.08396      120.20847    
     66000   299.83123     -25.645303     -43634.833      4173.4502      5242.9522      2168.4557     -64.922791     -32.471927      20.458808      120.10485      119.99857      120.12299    
     67000   299.37499     -16.992506     -43797.836      4178.8614      5220.2594      2152.7124     -46.246516     -55.134505      50.403504      119.93426      119.82813      119.95238    
     68000   300.07802      25.007985     -43788.242      4179.9142      5222.6095      2162.0025      4.8103968      11.135734      59.077826      119.78335      119.67736      119.80144    
     69000   299.08836      17.820733     -43632.626      4235.435       5139.9935      2148.11       -8.7491358      11.845566      50.365769      119.73341      119.62747      119.7515     
     70000   299.39163      24.754601     -43860.478      4159.0029      5234.5986      2148.174       13.520745      28.385051      32.358008      119.45712      119.35142      119.47517    
     71000   300.95353      1.9994003     -44001.709      4218.7556      5165.4992      2131.4075      36.846368     -57.233801      26.385634      119.33574      119.23015      119.35377    
     72000   298.24399     -5.1765371     -44047.957      4239.129       5201.7573      2142.7139     -27.656696     -23.230468      35.357553      119.20578      119.1003       119.22379    
     73000   299.23962      5.5837818     -44074.671      4196.004       5174.9039      2154.5097     -39.297421     -1.1028086      57.151575      119.07901      118.97364      119.097      
     74000   299.26802      27.651923     -43975.821      4170.2909      5162.9179      2149.5999      57.003342      7.7113901      18.241037      118.9875       118.88221      119.00548    
     75000   300.42531      19.464825     -44101.473      4158.5842      5146.5973      2154.06        43.390707     -18.823788      33.827556      118.86714      118.76196      118.8851     
     76000   298.63384      8.1702302     -44055.478      4218.989       5073.4051      2167.6323      40.465481      34.088711     -50.043501      118.84652      118.74136      118.86447    
     77000   301.11727      27.610514     -44004.596      4133.3619      5008.9584      2152.1739      1.4587398      24.501913      56.870889      118.78758      118.68247      118.80553    
     78000   300.54473     -25.854422     -44011.672      4169.6869      5098.6192      2148.9809     -30.059524     -58.16701       10.663268      118.7903       118.68519      118.80825    
     79000   300.43574      4.9210326     -44119.853      4160.1684      5102.3795      2140.6285     -15.826955     -37.920247      68.510301      118.57921      118.47429      118.59713    
     80000   297.51995      9.2040866     -44253.912      4195.1773      5144.3027      2149.083      -44.398305      55.297673      16.712891      118.34924      118.24451      118.36712    
     81000   299.78778     -8.0137318     -44263.099      4156.7139      5082.0939      2155.0936      17.524712     -28.690539     -12.875368      118.37907      118.27432      118.39695    
     82000   301.16258     -0.28686875    -44379.642      4155.4858      5108.8529      2149.5387     -10.942008     -9.8056186      19.88702       118.23509      118.13047      118.25296    
     83000   300.52731      28.618554     -44350.786      4156.3883      5149.0091      2153.7462      57.859305     -25.725848      53.722203      118.13807      118.03353      118.15591    
     84000   299.67964      12.485902     -44350.853      4200.0641      5055.0932      2138.0334      41.585632     -29.104148      24.976222      118.05339      117.94893      118.07123    
     85000   300.31794      19.409054     -44407.821      4207.1793      5036.1366      2144.5322      23.290424      12.487617      22.44912       117.98273      117.87833      118.00055    
     86000   296.93812      10.892728     -44458.516      4187.1457      5160.5435      2149.7519      44.611172     -31.407732      19.474743      117.86155      117.75726      117.87935    
     87000   299.89337     -34.962331     -44597.674      4253.9076      5125.2261      2142.94       -36.352638     -62.306786     -6.227571       117.78609      117.68186      117.80388    
     88000   298.73643     -3.1106362     -44438.315      4263.029       5072.9137      2145.9239     -10.518623      5.4461815     -4.2594671      117.74261      117.63843      117.7604     
     89000   298.29782      6.2818942     -44556.504      4202.1037      5107.276       2149.437      -31.378981      34.217819      16.006845      117.69674      117.5926       117.71452    
     90000   299.99558      4.355216      -44347.752      4154.3796      5133.0531      2144.2299     -42.514532      19.337446      36.242735      117.74122      117.63704      117.75901    
     91000   300.43625      5.333268      -44604.752      4237.7877      5235.9277      2137.7302      41.438093     -49.906508      24.468218      117.59494      117.49088      117.6127     
     92000   299.58835      7.4660772     -44542.632      4181.844       5222.2496      2139.0821      28.525791      22.868318     -28.995878      117.55381      117.44979      117.57157    
     93000   301.12875      4.5130627     -44494.799      4142.8566      5121.4391      2139.2919      33.572909     -3.8008125     -16.232909      117.58026      117.47622      117.59803    
     94000   300.01151     -5.1924508     -44667.066      4201.6028      5214.8637      2126.378       12.292945     -20.554259     -7.3160384      117.47537      117.37142      117.49312    
     95000   302.33274     -10.61753      -44781.472      4185.4461      5125.7638      2137.7452      15.185626     -47.661241      0.62302312     117.39033      117.28645      117.40806    
     96000   299.86409     -0.01410131    -44628.065      4208.8985      5136.0462      2132.9362     -4.508749      -6.6621387      11.128584      117.42032      117.31642      117.43806    
     97000   298.30967     -17.479958     -44685.921      4272.5234      5149.3592      2133.8144     -31.672775     -18.803509     -1.9635883      117.32891      117.22509      117.34664    
     98000   299.25229     -11.788557     -44787.739      4223.6364      5079.906       2140.4019     -1.9162097     -30.936333     -2.5131284      117.18962      117.08593      117.20733    
     99000   298.46624     -2.1498041     -44757.038      4179.7913      5080.875       2128.1871     -41.582046      20.113425      15.019209      117.12003      117.0164       117.13773    
    100000   299.18381      5.1227833     -44838.056      4236.1169      5151.3609      2110.8229      26.648673     -6.1600431     -5.1202804      116.96519      116.86169      116.98286    
    101000   300.03715     -14.006031     -44873.559      4218.5267      5072.8909      2117.4712     -17.873269     -30.054823      5.9099999      116.96576      116.86226      116.98343    
    102000   299.25308      0.46070575    -44971.958      4185.8271      5149.1662      2109.7896     -24.164503      61.26087      -35.71425       116.81785      116.71448      116.83549    
    103000   298.66791      16.872724     -44875.825      4239.1933      5135.0037      2106.5671      12.157679     -16.743367      55.20386       116.82992      116.72654      116.84757    
    104000   300.39244      5.4144388     -44988.397      4219.4246      5219.6145      2115.3558     -74.492575     -7.0557914      97.791683      116.77788      116.67455      116.79552    
    105000   301.26223     -9.7996674     -44965.264      4190.7423      5108.4431      2119.7494      13.264568     -45.060229      2.396659       116.75497      116.65166      116.77261    
    106000   298.97301      7.5857757     -44853.149      4207.8924      5167.68        2121.7411     -3.3880532      12.713738      13.431642      116.81643      116.71307      116.83408    
    107000   300.46129     -1.0994985     -45000.881      4245.6641      5123.5082      2122.7084     -11.362946     -25.252907      33.317357      116.74737      116.64406      116.76501    
    108000   300.33942     -18.525712     -44826.058      4238.0371      5027.8018      2120.7541     -55.553506     -5.2619515      5.2383217      116.82612      116.72275      116.84377    
    109000   298.55204      3.5851032     -44869.549      4226.4737      5156.2532      2128.9056     -17.606422      28.598991     -0.23725929     116.77706      116.67373      116.7947     
    110000   298.34226     -0.80031499    -44859.603      4150.6953      5130.5708      2127.1031     -20.333057      27.351987     -9.4198744      116.77         116.66668      116.78764    
    111000   300.46242     -10.914501     -44986.315      4136.0249      5103.0784      2128.2717     -23.397933     -39.984944      30.639373      116.68472      116.58147      116.70234    
    112000   299.92328     -7.6162146     -44936.098      4212.2995      5107.0648      2135.5445     -2.5180532      15.478049     -35.808639      116.64881      116.54559      116.66643    
    113000   299.13447     -6.9813301     -45146.369      4179.8972      5220.2057      2124.542      -21.073624     -28.411639      28.541273      116.52987      116.42675      116.54747    
    114000   299.50922     -11.2931       -45002.325      4179.6378      5149.0842      2116.8996     -21.266061     -24.347593      11.734355      116.54541      116.44228      116.56301    
    115000   299.78981      0.33760347    -45040.542      4218.7493      5175.3483      2110.749      -32.730557     -5.1723789      38.915746      116.49833      116.39525      116.51593    
    116000   301.0587       1.6302349     -44968.951      4202.7118      5062.1107      2114.8411      34.543315     -9.5098485     -20.142762      116.55836      116.45523      116.57597    
    117000   303.38172      14.673938     -45010.369      4116.2092      5133.6728      2118.6098      70.736194      11.102943     -37.817323      116.52278      116.41968      116.54039    
    118000   300.27016      12.736085     -45066.601      4127.9611      5218.5963      2116.4069      4.5072706     -0.84209566     34.543081      116.43515      116.33212      116.45274    
    119000   299.36307      3.374289      -45069.349      4187.2849      5129.4878      2121.5813      20.059412     -29.532947      19.596402      116.43565      116.33262      116.45324    
    120000   297.78096      2.0343225     -45179.862      4217.236       5104.6918      2111.1036     -19.21567      -7.7035639      33.022201      116.36603      116.26306      116.38361    
    121000   299.20721     -17.299927     -44967.785      4198.1061      5122.7038      2111.0587      34.974183     -59.919725     -26.954241      116.5019       116.39881      116.5195     
    122000   299.24934     -5.1181127     -45206.06       4211.322       5195.1599      2107.3803      1.1328169     -15.546137     -0.94101832     116.32031      116.21738      116.33788    
    123000   299.40826      36.272883     -45167.363      4208.5567      5213.9648      2109.3786      19.409331      21.477628      67.931692      116.25733      116.15446      116.27489    
    124000   300.88336      9.4097559     -45283.228      4236.2462      5166.309       2104.1945     -5.3460007      23.242344      10.332924      116.28241      116.17951      116.29997    
    125000   298.60186      19.146495     -45151.288      4201.0456      5135.0154      2114.3753     -3.6235207      23.78042       37.282586      116.3164       116.21348      116.33397    
    126000   303.17305     -3.3222866     -45189.962      4154.0863      5108.1684      2129.1305     -34.304009     -22.304902      46.642051      116.32649      116.22356      116.34406    
    127000   300.40485      0.8010469     -45137.759      4160.4734      5139.1093      2119.8793     -25.538244     -28.324342      56.265726      116.38106      116.27808      116.39864    
    128000   300.13526      14.398955     -45268.766      4230.4188      5231.7758      2114.9509      37.077753     -39.585445      45.704558      116.20534      116.10252      116.2229     
    129000   298.09966      4.0714827     -45260.136      4244.5144      5196.8566      2095.7213     -24.554431      35.081285      1.6875945      116.20963      116.1068       116.22718    
    130000   299.48171      18.207062     -45171.765      4253.1195      5101.7523      2097.1583      13.166736      46.995784     -5.5413347      116.24991      116.14704      116.26747    
    131000   304.26976     -2.5647071     -45344.832      4132.5311      5218.9782      2092.5485     -32.873493      12.092837      13.086535      116.20444      116.10162      116.222      
    132000   299.41207      9.1269705     -45320.575      4273.959       5171.7678      2106.7511     -59.957257      57.740663      29.597505      116.1607       116.05791      116.17825    
    133000   299.85706     -21.762029     -45456.956      4254.4999      5269.4051      2082.0046     -15.336143     -75.278956      25.329013      116.12761      116.02486      116.14516    
    134000   300.21708     -25.632394     -45263.26       4195.675       5054.0824      2100.6082     -49.101513     -3.39889       -24.396779      116.22999      116.12714      116.24755    
    135000   298.59985      0.80359351    -45216.32       4155.8271      5138.3373      2106.5067      1.8936048     -8.3216584      8.8388341      116.17441      116.07161      116.19196    
    136000   299.59383      16.634163     -45228.259      4245.7563      5013.4558      2124.4002      17.32963       56.64905      -24.076191      116.19911      116.09629      116.21666    
    137000   299.61979     -1.1638676     -45244.418      4246.9512      5026.633       2114.3442      4.423732       44.242921     -52.158256      116.21539      116.11256      116.23295    
    138000   300.79033     -11.160416     -45334.582      4186.4719      5092.4659      2105.765       20.327327     -23.793651     -30.014923      116.14297      116.0402       116.16051    
    139000   298.81531     -19.339018     -45213.622      4169.7924      5021.932       2116.1551      4.5981626     -17.049346     -45.565872      116.17662      116.07382      116.19417    
    140000   301.21763     -4.6881627     -45396.21       4207.7941      5104.2528      2115.8091      17.421122     -14.110028     -17.375583      116.07636      115.97365      116.0939     
    141000   299.02021     -23.512215     -45376.293      4187.1574      5056.8912      2120.111       8.4264277     -7.0858688     -71.877203      116.12464      116.02188      116.14218    
    142000   299.95716      5.5499117     -45249.54       4209.914       4965.1618      2105.4644      29.34245       32.738007     -45.430722      116.14982      116.04704      116.16737    
    143000   299.39656      4.7790218     -45129.656      4219.2223      4987.1449      2088.027       12.249003     -0.20575439     2.2938169      116.17947      116.07667      116.19702    
    144000   298.20634      16.415902     -45164.538      4212.1114      4980.8165      2102.3938      58.733865     -2.5215709     -6.9645873      116.15377      116.05099      116.17131    
    145000   298.40415      8.8614929     -45430.205      4239.1509      5111.9         2115.3416      24.013925      10.290009     -7.7194553      116.02684      115.92417      116.04437    
    146000   300.69667     -3.4531702     -45412.413      4226.9045      5018.9336      2115.3626      34.98686      -4.3215419     -41.024829      116.06941      115.9667       116.08694    
    147000   299.9211       14.217501     -45343.335      4206.3449      5004.0529      2111.2757      9.1637715      5.2301911      28.258541      116.04604      115.94336      116.06357    
    148000   300.116       -11.844485     -45406.211      4194.5474      5094.4945      2111.1767     -67.704122      20.076295      12.094373      116.0167       115.91404      116.03422    
    149000   299.99984      36.822939     -45404.509      4194.4341      4960.7659      2121.5203      19.819095      53.044735      37.604989      115.96917      115.86656      115.98669    
    150000   300.42458     -6.7352459     -45387.293      4220.4993      5003.9796      2116.5725     -15.164863     -0.88077952    -4.1600954      116.05398      115.95129      116.07152    
    151000   299.62569      15.911942     -45402.991      4265.3626      5008.4979      2114.7727      73.169291     -7.4808327     -17.952633      116.01206      115.90941      116.02959    
    152000   299.76517      28.825715     -45371.224      4228.9028      5030.5212      2118.228       89.018578      24.762373     -27.303807      115.97734      115.87472      115.99487    
    153000   299.5548       17.754166     -45334.186      4228.8904      4922.5338      2114.4312      51.208869      7.565601      -5.511973       116.05274      115.95005      116.07027    
    154000   300.1085       15.113924     -45396.131      4232.2125      4957.0157      2111.0808     -0.96382019     9.63914        36.666452      116.02096      115.9183       116.03849    
    155000   300.55183      21.0429       -45512.701      4187.1871      5046.7342      2098.9555      39.725645     -15.644148      39.047204      115.95442      115.85182      115.97194    
    156000   300.75916     -0.99665715    -45631.842      4221.2356      5066.4559      2110.9343      12.494199     -23.512583      8.028412       115.90549      115.80293      115.923      
    157000   296.8876       21.515157     -45484.197      4252.5065      5105.4097      2094.1571      1.6918204      20.544286      42.309365      115.87921      115.77667      115.89671    
    158000   300.57182     -13.606052     -45565.34       4217.8059      5104.6827      2109.177      -2.3365297     -2.3232576     -36.158369      115.9246       115.82203      115.94212    
    159000   299.44566     -3.9809139     -45611.778      4271.5849      5037.4812      2111.2653     -9.7144226      13.762462     -15.990782      115.91518      115.81261      115.93269    
    160000   301.26716      4.5892541     -45452.809      4189.8554      4965.2246      2114.6445     -4.8970852      31.784459     -13.119611      115.98714      115.8845       116.00466    
    161000   300.21997     -8.545114      -45318.438      4195.5553      4892.8922      2103.4144      42.67933      -52.744347     -15.570325      116.10746      116.00473      116.125      
    162000   301.44994     -2.5036152     -45571.381      4167.2314      5112.9496      2101.1534      11.573433     -40.814348      21.730069      115.90416      115.8016       115.92167    
    163000   298.25064     -5.5154791     -45535.315      4243.0459      5099.8863      2098.4053      4.8491178     -0.13413055    -21.261425      115.95431      115.85171      115.97183    
    164000   300.91775      9.7928571     -45445.847      4159.601       5065.7385      2099.754       38.974111      19.245185     -28.840725      115.96313      115.86052      115.98065    
    165000   302.14249     -12.770053     -45529.535      4123.5252      5011.2562      2087.6089     -4.3313247      1.7704009     -35.749236      115.95171      115.84911      115.96922    
    166000   298.41933     -26.833197     -45673.985      4253.2261      5116.2339      2107.1245      16.722211     -51.720523     -45.50128       115.88053      115.778        115.89804    
    167000   300.77335      8.6509867     -45394.07       4162.5564      4958.6934      2109.0631      30.840873      15.593207     -20.48112       116.03172      115.92904      116.04925    
    168000   301.178       -1.8827983     -45493.26       4148.9543      5015.7106      2111.8304      32.934472     -35.970474     -2.6123931      115.96779      115.86518      115.98531    
    169000   299.88545      20.907025     -45422.557      4177.724       4995.6116      2104.294       17.489322      43.383226      1.8485262      115.98052      115.87789      115.99804    
    170000   302.98921     -3.0958874     -45533.521      4122.6239      5000.3642      2100.9873     -33.768996      3.0812739      21.40006       115.99653      115.89389      116.01406    
    171000   298.99328     -8.8388327     -45413.607      4247.8844      5094.0644      2108.6754     -24.1804        35.500853     -37.836951      115.99631      115.89367      116.01383    
    172000   299.8858       14.127931     -45564.857      4155.4789      5115.4914      2104.8393     -17.277508      43.665002      15.996298      115.91977      115.8172       115.93728    
    173000   302.92907      8.417689      -45398.439      4216.8968      5045.3389      2098.3874     -14.481412     -15.324087      55.058566      115.98783      115.88519      116.00535    
    174000   300.64373     -9.3453806     -45381.707      4207.2525      5021.8244      2101.1696      38.434002     -38.87703      -27.593114      115.99382      115.89119      116.01135    
    175000   298.61518     -14.689136     -45371.198      4223.1222      5104.4677      2108.2609     -29.420992     -18.001447      3.3550319      116.04866      115.94597      116.06619    
    176000   300.75069     -20.260595     -45314.173      4165.1938      4958.452       2113.885      -9.4636643     -66.619203      15.301082      116.0696       115.9669       116.08713    
    177000   298.97515      3.5388108     -45315.294      4222.396       4995.1124      2103.5192     -80.961638      19.087305      72.490765      116.01235      115.9097       116.02988    
    178000   300.94713      3.4292132     -45339.2        4149.6152      4993.7818      2101.2635      5.4496657     -1.5860289      6.4240027      116.04252      115.93984      116.06005    
    179000   299.38699      16.280218     -45400.704      4150.3996      5073.7386      2095.8357     -17.142835      14.337191      51.646297      115.96897      115.86635      115.98649    
    180000   300.68946     -29.834973     -45410.675      4256.2162      4978.1469      2094.302      -25.680795     -35.798486     -28.025637      116.0479       115.94521      116.06543    
    181000   300.88517     -10.22673      -45516.976      4179.2284      5027.5818      2093.2839      23.284947      17.823707     -71.788844      115.96891      115.8663       115.98643    
    182000   300.84805      3.6163214     -45407.355      4183.8069      5002.7925      2109.9377     -17.875644     -0.055600755    28.780209      115.96963      115.86701      115.98715    
    183000   299.22304     -23.268734     -45383.446      4225.7223      4938.0123      2101.9565     -24.627934     -37.287242     -7.8910246      116.03133      115.92866      116.04886    
    184000   300.78683     -5.6035216     -45427.035      4229.2466      5005.9251      2097.5946     -9.2090325      5.1421997     -12.743732      115.99109      115.88845      116.00861    
    185000   299.57085      7.6328608     -45253.532      4167.2106      4959.841       2108.0447     -21.174765     -7.3739932      51.447341      116.06908      115.96638      116.08662    
    186000   299.9116       19.819243     -45296.79       4179.0745      5037.4801      2109.083       16.357421      16.022423      27.077886      116.01432      115.91166      116.03184    
    187000   300.46351     -0.17902393    -45240.766      4207.9571      4913.269       2121.207      -25.315386     -23.491341      48.269655      116.09158      115.98886      116.10912    
    188000   298.91838      22.114832     -45360.978      4233.1729      5026.5563      2111.6187     -57.99058       53.378418      70.956657      116.01372      115.91107      116.03125    
    189000   299.59643     -7.366428      -45250.078      4203.6536      5012.7345      2104.3745     -61.273624      15.598954      23.575386      116.05625      115.95356      116.07378    
    190000   298.77837     -23.352625     -45301.323      4231.8365      5061.6507      2106.2039     -30.716014     -30.5975       -8.7443593      116.04         115.93732      116.05753    
    191000   299.51148     -20.391204     -45281.862      4241.2362      5033.7982      2107.345      -44.93316      -37.454415      21.213961      116.09004      115.98731      116.10758    
    192000   302.37975      18.912484     -45482.044      4179.8129      4994.8021      2117.4637      15.361317      35.753372      5.6227627      115.94424      115.84165      115.96176    
    193000   300.43501     -6.2289526     -45401.702      4179.6231      4954.8444      2112.0283     -3.3706944     -45.611729      30.295566      115.97723      115.87461      115.99475    
    194000   300.27145      10.006898     -45464.21       4188.7746      5022.2504      2100.8993     -35.93643       26.201292      39.755833      115.94582      115.84323      115.96334    
    195000   301.49916     -6.7653716     -45413.89       4200.1942      5035.7654      2088.0118      23.420682     -22.404143     -21.312653      116.00435      115.90171      116.02188    
    196000   298.73076     -3.7465672     -45261.97       4267.0085      5054.9213      2080.2457     -39.024221      13.722263      14.062256      116.06079      115.95809      116.07832    
    197000   300.83847     -1.424456      -45482.284      4195.138       5075.6282      2085.1489     -30.636406      17.039452      9.3235851      115.97898      115.87636      115.9965     
    198000   301.38579     -3.529253      -45502.431      4222.3072      5131.9722      2078.8787     -83.709569      29.374197      43.747613      115.91738      115.81481      115.9349     
    199000   301.03644     -38.853639     -45594.458      4243.0741      5120.033       2078.4146     -98.188051      15.084877     -33.457744      115.90478      115.80222      115.92229    
    200000   298.96803     -44.376804     -45627.283      4181.546       5133.042       2089.7121     -61.233678     -45.823744     -26.072991      115.89266      115.79011      115.91017    
    201000   299.99345      0.5726449     -45602.4        4214.9576      5026.9042      2086.3301     -6.3450146     -66.165382      74.228332      115.92353      115.82095      115.94104    
    202000   299.14756     -1.9524142     -45436.653      4250.066       5045.0737      2082.6665      12.293588     -34.835075      16.684244      115.97524      115.87262      115.99276    
    203000   301.53068      13.970237     -45474.104      4158.0743      5103.4956      2072.7544      22.523287      3.759474       15.627951      115.9439       115.84131      115.96141    
    204000   299.98727      0.57075799    -45629.382      4244.5147      5176.8936      2080.7519      22.711755      44.203846     -65.203327      115.8799       115.77737      115.89741    
    205000   300.65841      12.325851     -45432.859      4159.6297      4987.7038      2089.4714      63.519188     -53.6262        27.084565      115.98254      115.87991      116.00006    
    206000   298.40662     -13.624937     -45382.126      4206.0553      5047.5639      2081.4706     -55.533395      34.517153     -19.858569      115.9634       115.86079      115.98092    
    207000   301.22658      8.9407438     -45512.313      4088.7537      4942.9296      2097.2021      25.59403      -46.305794      47.533995      115.92906      115.82648      115.94657    
    208000   298.05874      18.987901     -45284.479      4160.5958      4994.3216      2098.2465      39.334851      18.400372     -0.77152006     116.00219      115.89955      116.01972    
    209000   298.58183     -2.7625195     -45444.359      4311.3963      5017.6465      2100.8064      22.860558     -46.689375      15.541258      116.0092       115.90655      116.02673    
    210000   300.18098     -31.03615      -45514.974      4245.6027      5102.6146      2087.3902     -33.030758     -26.016993     -34.060699      115.9944       115.89176      116.01193    
    211000   299.81599     -8.5034815     -45646.492      4243.922       5131.7133      2099.0193     -14.735434     -24.264412      13.489402      115.83579      115.73329      115.85329    
    212000   299.74099     -15.112338     -45395.359      4205.9319      5008.4029      2104.1441     -90.658329      40.816224      4.5050915      115.99428      115.89164      116.0118     
    213000   299.58751     -12.406594     -45466.508      4201.9768      4961.3282      2110.98       -25.049005      18.568336     -30.739113      115.96758      115.86497      115.9851     
    214000   301.088        9.4692266     -45395.883      4221.9181      5033.3426      2102.3272      1.6380378      0.28605114     26.483591      115.991        115.88837      116.00853    
    215000   299.47836     -2.1070354     -45474.861      4207.8822      5006.9489      2101.1499     -14.359783      2.3212125      5.7174639      115.95201      115.8494       115.96952    
    216000   301.18283     -28.471247     -45407.24       4242.8131      4928.1727      2108.3578      11.397837     -41.474188     -55.33739       116.03099      115.92832      116.04852    
    217000   300.27348      1.4149009     -45563.527      4278.8651      5033.4659      2105.7673     -12.908045      1.3934151      15.759333      115.89116      115.78861      115.90867    
    218000   298.16501     -17.708125     -45483.333      4275.0689      5081.669       2102.4772      21.571839     -62.793252     -11.902961      115.98366      115.88103      116.00118    
    219000   299.43486     -13.568694     -45333.551      4219.075       5040.0145      2107.4207      20.053483     -62.946741      2.1871771      116.02404      115.92138      116.04157    
    220000   300.90997      23.566602     -45393.571      4081.6335      5005.2405      2102.2799      90.903151     -32.280572      12.077228      115.9521       115.8495       115.96962    
    221000   299.07868      1.0253801     -45341.906      4128.0302      5043.0515      2098.651       13.464793     -16.922707      6.5340545      115.98575      115.88312      116.00327    
    222000   299.81774     -6.2817948     -45323.284      4176.5344      5028.6426      2104.1719      34.484734     -40.418727     -12.911392      116.02745      115.92478      116.04498    
    223000   299.55013     -9.309791      -45329.941      4183.6167      4970.7507      2106.3674     -32.371124      8.9170199     -4.4752686      115.98525      115.88262      116.00277    
    224000   301.10233      3.4582015     -45485.313      4164.8226      5011.2775      2109.376       56.650215     -14.052045     -32.223565      115.9633       115.86069      115.98082    
    225000   301.27051      2.1855786     -45431.77       4185.5407      4935.6559      2109.2009      63.515086     -12.619255     -44.339095      115.96087      115.85826      115.97839    
    226000   301.4662       17.391978     -45493.519      4143.7923      4991.3277      2121.9782      5.2636736      7.2317732      39.680487      115.9227       115.82012      115.94021    
    227000   302.18849      5.6844945     -45604.09       4211.3097      5129.7164      2115.4582      44.421858      9.3970381     -36.765412      115.89495      115.7924       115.91246    
    228000   299.78075      14.189432     -45476.525      4243.3366      5101.8789      2098.7143      7.2445516      1.0548441      34.268901      115.91978      115.81721      115.93729    
    229000   300.06096      6.9030616     -45362.072      4201.5216      5009.4291      2094.7201     -39.955901      57.050288      3.6147981      115.97948      115.87686      115.997      
    230000   300.08043      20.323962     -45449.64       4135.7022      5099.8199      2086.8975     -18.995228      69.438788      10.528325      115.90304      115.80048      115.92055    
    231000   301.46926     -6.9131704     -45502.05       4201.5381      5069.2732      2111.6915      8.8764791     -5.9488274     -23.667163      115.96296      115.86035      115.98048    
    232000   300.09299     -9.0144352     -45380.268      4169.1778      5064.5018      2103.8109     -31.61465      -8.0784043      12.649749      116.01039      115.90774      116.02792    
    233000   300.30946      2.1939173     -45461.398      4182.7216      5039.4863      2096.0723     -49.168892      66.282343     -10.531699      115.99044      115.8878       116.00796    
    234000   298.41659     -1.0075871     -45636.034      4227.1863      5218.1932      2096.6752     -15.921249      4.6218111      8.2766769      115.88789      115.78535      115.9054     
    235000   299.75715      36.81354      -45505.766      4214.3663      5141.9756      2094.4478      46.626616      13.773567      50.040437      115.9127       115.81013      115.93021    
    236000   301.01371      9.5073167     -45332.876      4174.083       5010.3167      2103.5667     -0.60734091     39.773045     -10.643754      115.99161      115.88897      116.00913    
    237000   301.36575     -0.97483186    -45407.022      4130.5608      4980.818       2097.2436      7.0675077      8.8644963     -18.8565        115.97661      115.87399      115.99413    
    238000   298.68465     -16.885574     -45447.658      4246.5829      5087.7479      2095.3234     -2.9887856     -13.617492     -34.050444      116.0192       115.91654      116.03673    
    239000   299.87682      9.4391039     -45418.934      4121.4251      5023.3323      2102.7185      38.144889     -4.2984976     -5.5290797      115.94411      115.84151      115.96162    
    240000   298.95974     -3.6143303     -45449.8        4156.3235      5006.2901      2096.1702     -7.3940589      1.9151167     -5.3640486      115.9351       115.83252      115.95262    
    241000   300.00929     -4.5521445     -45572.936      4243.745       4948.4505      2090.6224     -7.8558765     -6.5804188      0.77986171     115.92667      115.8241       115.94419    
    242000   299.15574      29.889164     -45552.58       4198.872       4943.1211      2099.0378      33.925469      29.248521      26.493503      115.84968      115.74717      115.86718    
    243000   299.11012      26.085421     -45459.183      4199.5792      4940.6157      2115.8751      30.705566      12.456128      35.09457       115.94351      115.84092      115.96102    
    244000   300.21391     -14.828911     -45438.873      4215.2         4885.7489      2117.5714     -23.251604     -0.017168145   -21.217961      116.03627      115.93359      116.0538     
    245000   297.80347     -2.8119118     -45293.526      4283.9406      4882.1772      2109.6214      31.111671     -30.612337     -8.9350694      116.05185      115.94917      116.06939    
    246000   299.87475      18.411647     -45485.48       4185.8234      5052.4003      2098.4506     -31.25512       42.616336      43.873726      115.93763      115.83505      115.95515    
    247000   301.53448     -18.034372     -45527.094      4116.5492      5074.2503      2100.4209     -55.597102     -24.017411      25.511397      115.94917      115.84657      115.96668    
    248000   300.20291     -18.277294     -45382.481      4227.7308      5003.4271      2109.1018      16.983821     -13.535936     -58.279767      116.01015      115.9075       116.02768    
    249000   301.38867      1.9186264     -45565.316      4155.196       5006.3253      2098.7797      37.635815      14.214293     -46.094229      115.89328      115.79073      115.91079    
    250000   299.3709       4.0415627     -45480.145      4231.6272      5078.8342      2104.8376     -30.646375      17.661336      25.109728      115.92735      115.82477      115.94487    
    251000   298.12675     -19.470303     -45407.99       4278.4552      4949.2713      2107.2553      14.197711      25.040791     -97.649412      115.98961      115.88698      116.00713    
    252000   300.85044     -5.8008089     -45589.159      4216.02        5119.5913      2103.2159      16.710882     -58.236728      24.123419      115.90452      115.80197      115.92203    
    253000   299.33421      7.6700081     -45296.323      4236.3838      4905.6441      2104.1881      24.524754     -1.312915      -0.20181443     116.04583      115.94315      116.06336    
    254000   300.84402      13.687739     -45455.547      4180.4937      5066.2246      2105.0656     -13.777963      22.286696      32.554485      115.91267      115.81011      115.93018    
    255000   301.60118      0.055991981   -45522.698      4135.8042      4981.9621      2108.0867      9.8074121      33.878881     -43.518317      115.9261       115.82353      115.94362    
    256000   301.25683      30.062998     -45449.058      4109.8606      5111.6143      2088.938       0.38764593     105.08137     -15.280018      115.89659      115.79404      115.9141     
    257000   299.33399      20.974912     -45513.591      4158.8091      5072.8728      2097.2583     -4.7007099      45.319498      22.305949      115.90012      115.79756      115.91763    
    258000   295.37382      0.026039775   -45218.292      4198.6444      4967.4966      2093.6234     -70.311079      84.608637     -14.219438      116.0491       115.94642      116.06663    
    259000   298.68443      0.066730186   -45295.774      4215.0588      5052.1966      2080.3872     -37.541784      75.794727     -38.052753      116.01428      115.91162      116.03181    
    260000   302.33084     -18.943774     -45365.44       4169.4451      5042.3868      2084.7963     -52.01715      -19.590512      14.77634       116.0176       115.91494      116.03512    
    261000   299.90645      0.88020947    -45353.441      4179.094       4983.8971      2100.0777      33.551151     -57.559884      26.649362      115.9952       115.89256      116.01272    
    262000   302.24192      22.710187     -45482.926      4190.8088      4966.6892      2106.2294      56.317343      8.1252754      3.6879438      115.9443       115.84171      115.96182    
    263000   299.80365      25.691142     -45439.262      4231.2317      5042.4947      2117.8019     -3.2177704      6.1608134      74.130384      115.95091      115.84831      115.96842    
    264000   298.81651      19.703689     -45398.167      4192.534       4973.2196      2111.1097     -8.8126829      28.746025      39.177725      115.97676      115.87414      115.99428    
    265000   300.6011       24.458843     -45403.864      4197.3134      4979.5714      2107.439       42.993593      8.6621789      21.720759      115.971        115.86838      115.98852    
    266000   298.9468       23.125277     -45577.525      4274.6321      5025.0616      2111.5464      9.4097236      26.223026      33.743081      115.84221      115.73971      115.85971    
    267000   300.25433     -8.6169338     -45466.69       4260.3184      4921.7737      2126.1467      23.870722     -52.123627      2.4021045      115.98253      115.87991      116.00006    
    268000   301.06165      20.023685     -45425.152      4275.3267      5004.4029      2124.3412      57.611033      6.9658918     -4.5058703      115.96676      115.86415      115.98428    
    269000   299.71305      4.1013186     -45467.397      4253.8783      4916.2631      2124.9673     -27.379234      27.720204      11.962986      115.96183      115.85923      115.97935    
    270000   299.34128      2.3615444     -45394.21       4267.2125      4901.9232      2118.852       25.630455      4.6527351     -23.198556      115.99007      115.88743      116.00759    
    271000   301.08661      3.7341882     -45396.231      4261.6071      4859.2098      2136.9722      2.3646156      22.893896     -14.055947      115.98934      115.8867       116.00686    
    272000   299.83093      15.519045     -45506.911      4162.6811      4954.4346      2127.5806      30.334253      13.408137      2.8147456      115.90144      115.79888      115.91895    
    273000   300.71636      17.396146     -45496.393      4174.5547      4949.777       2119.822       22.693583      45.05125      -15.556395      115.9023       115.79974      115.91981    
    274000   298.45422     -4.7709161     -45384.106      4259.5639      4944.051       2126.3763     -32.326709     -22.817543      40.831504      116.0041       115.90146      116.02163    
    275000   300.01376      45.493203     -45439.787      4215.1644      4879.4055      2137.6115      38.720671      61.332548      36.42639       115.90731      115.80474      115.92482    
    276000   300.78383      10.846994     -45403.335      4153.829       5013.5167      2130.4727     -6.0263162     -18.443661      57.010959      115.93689      115.8343       115.9544     
    277000   298.70113      9.4215568     -45456.886      4164.1049      5000.3525      2136.8685     -25.396975      54.940892     -1.2792471      115.90878      115.80621      115.92629    
    278000   300.83713     -15.45575      -45438.122      4170.1716      5001.5203      2134.3051     -20.569293      10.636199     -36.434156      115.97259      115.86997      115.99011    
    279000   300.27432      8.7016855     -45409.923      4168.5859      4953.9906      2146.2086     -3.777642       19.751621      10.131078      115.98695      115.88432      116.00447    
    280000   298.7662       16.656788     -45381.877      4247.3609      5018.7149      2125.828      -21.409402      5.686467       65.693299      115.96486      115.86225      115.98238    
    281000   299.71222      18.921243     -45428.161      4279.0166      4962.9336      2146.261      -9.7889337      68.431906     -1.8792434      115.93576      115.83317      115.95327    
    282000   298.53119      8.0327495     -45355.021      4230.278       4905.4424      2153.0295      8.474345       1.666147       13.957757      115.95576      115.85316      115.97328    
    283000   300.93012      20.322911     -45324.473      4225.9262      4887.801       2154.6806      3.5267909      59.350164     -1.9082213      115.99213      115.88949      116.00965    
    284000   299.76458     -15.545751     -45316.759      4276.6921      5005.4844      2132.6359      0.20729755    -30.735239     -16.109313      116.0322       115.92953      116.04973    
    285000   297.98479     -5.7033296     -45293.512      4226.3172      4899.6368      2118.2813     -19.32273      -28.906734      31.119476      116.00547      115.90282      116.023      
    286000   298.55221      16.49769      -45328.829      4206.8337      4898.4141      2132.7308      34.167026      24.301222     -8.975179       115.95385      115.85125      115.97137    
    287000   301.01635      18.244819     -45482.82       4225.5673      4908.3017      2134.6635      16.852233      4.033225       33.849         115.91522      115.81266      115.93274    
    288000   299.3563      -20.500555     -45483.861      4241.0712      5031.4681      2124.01       -30.595647     -103.91194      73.005925      115.93203      115.82945      115.94955    
    289000   299.3389      -21.51388      -45387.309      4217.5201      4941.1026      2125.1354     -31.705973     -37.367337      4.5316685      116.01088      115.90823      116.02841    
    290000   300.26444      7.6305851     -45462.562      4264.06        5021.1802      2112.9561      14.217003      24.370821     -15.696068      115.92586      115.82328      115.94337    
    291000   300.20099      13.759009     -45401.291      4205.3897      4994.9197      2117.9202      16.117473      19.59873       5.5608242      115.97092      115.8683       115.98844    
    292000   299.8888       19.538717     -45497.012      4171.1183      5083.7194      2099.7294      10.310958      52.20081      -3.895618       115.84452      115.74202      115.86202    
    293000   299.334       -4.476471      -45424.466      4218.7768      5050.8616      2106.6942     -58.732756      40.408639      4.8947036      115.95435      115.85175      115.97187    
    294000   299.64953      34.213518     -45431.918      4201.743       5093.0758      2109.4032      16.303335      77.991085      8.3461335      115.90874      115.80617      115.92625    
    295000   299.75611     -6.2414341     -45436.971      4266.3409      4956.7279      2116.2075     -12.410451     -12.759328      6.445477       115.96382      115.86121      115.98134    
    296000   300.88662      21.593476     -45604.71       4219.2104      4999.7917      2119.2261      45.912129      5.1505953      13.717704      115.84255      115.74005      115.86005    
    297000   299.62274      26.800702     -45470.408      4243.8887      4896.5977      2101.3948      11.122722      14.873892      54.405492      115.89935      115.7968       115.91686    
    298000   299.8377       7.1941532     -45430.254      4218.7622      4936.9719      2115.6249     -27.081207      66.851067     -18.1874        115.95186      115.84926      115.96938    
    299000   301.12937      1.1592359     -45559.286      4218.384       4983.2828      2121.3991      42.271777     -12.802794     -25.991275      115.92335      115.82077      115.94086    
    300000   300.17847     -0.70667093    -45489.464      4205.6444      5005.3572      2111.0782     -26.922973     -41.401782      66.204742      115.91116      115.80859      115.92867    
    301000   300.63986     -14.443618     -45570.38       4164.2807      5077.7336      2096.7209     -49.747079     -2.6004944      9.0167196      115.86103      115.75851      115.87854    
    302000   299.86242      20.371456     -45398.333      4194.2519      4981.4864      2108.0506      84.921304     -26.419118      2.6121833      115.92315      115.82057      115.94066    
    303000   301.33919      0.62850946    -45374.096      4171.5926      4964.2811      2113.2817      60.273182     -67.637937      9.2502829      115.99265      115.89002      116.01018    
    304000   301.67143     -2.5339437     -45394.868      4211.8383      5014.968       2101.8042      11.603259     -52.805426      33.600336      115.99532      115.89268      116.01284    
    305000   298.6384      -7.061629      -45322.098      4242.8983      4974.2929      2103.8086     -23.833667      59.960403     -57.311623      115.99015      115.88752      116.00768    
    306000   297.75745      3.7701708     -45399.808      4239.5937      5070.5561      2090.945      -24.392049     -26.17697       61.879531      115.94224      115.83965      115.95976    
    307000   300.21876     -5.1361706     -45375.922      4205.469       4974.231       2090.3515      18.122547     -33.510972     -0.020086967    116.0133       115.91065      116.03083    
    308000   299.53304     -21.924281     -45486.357      4245.6658      5048.1724      2089.5135     -32.678674      8.9232739     -42.017441      115.92636      115.82378      115.94387    
    309000   298.08341     -3.1517167     -45461.812      4289.4798      5030.3113      2089.6361     -23.166434      53.792949     -40.081665      115.9471       115.8445       115.96461    
    310000   299.88652     -13.655238     -45364.16       4166.6118      5014.7453      2087.68       -22.039081      9.2059878     -28.132621      116.02782      115.92516      116.04535    
    311000   299.23563      4.0457675     -45509.575      4261.6982      5028.306       2090.0684      5.5824558      82.632707     -76.07786       115.91985      115.81727      115.93736    
    312000   298.15748      26.403086     -45378.959      4269.6034      4949.2325      2089.7397     -13.825057      60.297026      32.737289      115.94351      115.84091      115.96102    
    313000   300.2755       18.441335     -45349.122      4193.9352      5035.5709      2094.4179      17.081223      25.788669      12.454115      115.97369      115.87107      115.99121    
    314000   298.67801      12.322109     -45615.53       4317.8872      5054.1582      2088.6788     -34.884557      11.901606      59.949277      115.8583       115.75578      115.8758     
    315000   300.06903      2.2901515     -45588.04       4248.155       5008.2324      2075.3485     -9.0946889      6.2082743      9.7568691      115.85055      115.74804      115.86805    
    316000   299.2756       22.972838     -45382.382      4221.2992      4984.9167      2083.6198     -23.845665      51.963118      40.801061      115.96037      115.85776      115.97789    
    317000   301.85699     -5.6823395     -45508.651      4164.7542      4970.8488      2068.1526     -16.489097      12.555087     -13.113008      115.98715      115.88452      116.00467    
    318000   299.27636      12.412122     -45579.312      4264.9639      5044.123       2084.7197      24.028647      48.394327     -35.18661       115.86138      115.75886      115.87888    
    319000   299.93689      6.5904594     -45531.898      4244.4319      4985.5432      2090.9473     -0.34826973     2.2391302      17.880518      115.88369      115.78115      115.90119    
    320000   300.32668     -14.660652     -45431.323      4194.8061      4999.5547      2072.032      -55.781224     -44.182338      55.981605      115.97375      115.87113      115.99127    
    321000   296.84625      3.592403      -45426.627      4202.6981      5030.2615      2083.6941     -0.20966768    -54.732269      65.719146      115.9          115.79745      115.91751    
    322000   296.61432      1.6302588     -45277.152      4262.2099      4902.4858      2097.1766      43.170213     -55.429423      17.149987      116.01508      115.91242      116.03261    
    323000   300.10987      5.9669895     -45480.3        4241.4449      4947.519       2098.6079      25.151718      33.524037     -40.774786      115.93793      115.83535      115.95545    
    324000   300.08308     -10.365371     -45560.782      4192.3058      5112.16        2090.292       10.089323     -36.010919     -5.1745171      115.90985      115.80729      115.92736    
    325000   298.82829     -3.593076      -45573.332      4272.3797      5041.6113      2087.0727     -7.6776753      43.76565      -46.867202      115.88255      115.78002      115.90006    
    326000   301.77338      10.519645     -45532.737      4227.0795      5114.159       2087.3047      2.4879369      30.545483     -1.4744836      115.90392      115.80136      115.92143    
    327000   299.32882     -0.77495101    -45372.965      4229.2266      5053.605       2082.4264     -6.307209      -0.60509109     4.5874471      115.96514      115.86253      115.98266    
    328000   298.19001     -48.143768     -45364.688      4258.4155      5011.09        2089.092       0.91241783    -26.749176     -118.59455      116.0327       115.93002      116.05023    
    329000   299.38331     -4.3875098     -45376.176      4224.0554      4978.6221      2096.0637     -36.869472      7.5823202      16.124623      115.99618      115.89354      116.0137     
    330000   300.70048     -16.326967     -45564.535      4192.7173      5149.0905      2092.1324     -21.669196     -27.504285      0.19258062     115.91579      115.81322      115.9333     
    331000   298.87379     -3.2675724     -45443.414      4225.4724      5041.398       2083.3954     -38.846711      47.075902     -18.031908      115.92008      115.81751      115.9376     
    332000   300.93935      22.146901     -45558.773      4172.6237      5056.8504      2085.5402      50.67717       21.232545     -5.4690111      115.83326      115.73077      115.85076    
    333000   298.18944     -9.0074147     -45353.203      4209.1391      5090.5214      2069.5961     -43.372311      11.714552      4.6355152      115.95398      115.85138      115.9715     
    334000   301.20339     -8.8965981     -45634.033      4223.8727      5136.5092      2076.216      -13.838274     -20.721013      7.8694923      115.82089      115.71841      115.83839    
    335000   299.66629     -11.482837     -45498.973      4239.6923      5028.1096      2091.1323     -50.28751       17.573871     -1.7348727      115.89205      115.78951      115.90956    
    336000   298.89266      5.6330933     -45409.746      4280.1195      4983.1801      2084.6401     -36.643742      76.294089     -22.751068      115.95535      115.85274      115.97287    
    337000   301.11522      12.363757     -45463.558      4206.9282      5017.1869      2089.0976      41.869441     -8.7136971      3.9355265      115.91946      115.81689      115.93698    
    338000   300.70918     -21.980125     -45435.018      4258.4362      4995.5361      2069.634       21.253749     -49.791141     -37.402982      116.02036      115.9177       116.03789    
    339000   300.3545      -0.36084672    -45385.272      4186.3469      5044.7126      2074.5289     -8.5012898      38.74962      -31.330871      116.00256      115.89992      116.02009    
    340000   299.71542     -11.750156     -45463.83       4190.7936      5010.3444      2090.6914     -39.394778      16.15089      -12.006582      115.95283      115.85022      115.97034    
    341000   299.23678     -26.186199     -45411.505      4209.1957      5102.8287      2085.407      -49.36524       29.4668       -58.660158      115.96868      115.86606      115.9862     
    342000   299.00822     -24.049549     -45250.283      4252.0417      5012.6845      2085.4815     -4.7348124     -47.293165     -20.120668      116.06215      115.95945      116.07968    
    343000   300.0343      -28.688318     -45433.412      4225.6559      4978.6549      2086.5324     -45.075183      29.312019     -70.301791      115.95558      115.85298      115.9731     
    344000   299.32847     -2.263141      -45405.076      4209.1311      4995.9175      2104.1611     -29.092211     -8.2666774      30.569465      115.96778      115.86517      115.9853     
    345000   300.05037     -10.452566     -45574.888      4209.0305      5068.3903      2100.0454      10.978689     -39.220113     -3.1162753      115.89323      115.79069      115.91074    
    346000   299.82848      31.524983     -45366.811      4237.7599      5016.0422      2086.9911     -14.866651      32.168066      77.273536      115.92942      115.82683      115.94693    
    347000   299.37835      13.132682     -45354.562      4183.0753      5026.4696      2095.2847     -24.402999      75.919607     -12.118561      115.9479       115.8453       115.96541    
    348000   298.85374      9.7437536     -45348.307      4205.9876      5014.8153      2093.5565      17.658185      14.602398     -3.0293221      115.92925      115.82667      115.94677    
    349000   300.83341     -12.241659     -45399.721      4165.4154      5014.0006      2082.5055      2.387709       5.0918361     -44.204523      115.96089      115.85828      115.97841    
    350000   297.49343     -10.473714     -45366.566      4263.1852      5055.7658      2100.2245      10.04534      -15.333361     -26.133121      115.95212      115.84952      115.96963    
    351000   301.73969     -0.083609554   -45361.115      4197.0105      5052.8139      2101.5113      50.589206      10.354254     -61.194289      115.95285      115.85024      115.97036    
    352000   300.41182      8.4439809     -45498.844      4230.2575      5089.3271      2098.806      -25.505191      21.752614      29.08452       115.88939      115.78685      115.9069     
    353000   300.30475     -15.428148     -45248.216      4193.439       4904.3637      2111.3457      20.595936     -10.847579     -56.032802      116.06719      115.96449      116.08473    
    354000   300.04963      16.997762     -45445.32       4185.829       5038.9717      2104.8945      6.2576049      33.064213      11.671468      115.93541      115.83282      115.95292    
    355000   300.44166      16.281794     -45486.689      4245.8174      5136.92        2070.7282      27.285854      40.096828     -18.5373        115.90151      115.79895      115.91902    
    356000   301.66783      26.336133     -45468.339      4158.0614      5044.6772      2086.7122      44.219732      31.319843      3.4688251      115.91201      115.80945      115.92953    
    357000   299.54356      19.65453      -45378.816      4210.848       5078.187       2088.1635      26.567312      49.219803     -16.823524      115.94148      115.83889      115.959      
    358000   300.4024      -4.1533451     -45460.046      4218.999       5080.1844      2083.6095      4.773062      -10.80403      -6.4290675      115.89356      115.79101      115.91107    
    359000   300.25427     -10.559505     -45595.922      4205.0255      5112.2483      2097.6702     -12.115886      58.984178     -78.546807      115.88723      115.78468      115.90473    
    360000   299.89026     -44.470018     -45411.674      4255.9577      5001.6862      2098.807      -49.793256     -21.572325     -62.044472      116.01721      115.91455      116.03473    
    361000   299.14036     -0.1962989     -45424.64       4233.8516      4987.6641      2094.338      -52.867572      54.145194     -1.866519       115.94099      115.8384       115.95851    
    362000   300.17375     -5.2468363     -45475.322      4222.571       4932.24        2112.7945      9.260101       20.677383     -45.677993      115.91374      115.81117      115.93125    
    363000   301.22383     -16.841705     -45467.727      4205.9119      5079.2844      2116.4885      7.4203007     -21.439047     -36.506369      115.94304      115.84045      115.96056    
    364000   299.4268       9.1383906     -45420.203      4179.6527      4918.2781      2108.7897      27.939406     -35.551394      35.02716       115.93696      115.83437      115.95448    
    365000   301.45614     -11.533628     -45378.102      4241.1417      4960.6303      2111.3214     -31.646187      38.297719     -41.252415      115.99132      115.88869      116.00884    
    366000   300.23532      14.569993     -45428.432      4226.8128      5032.45        2107.0743      35.073387      35.349305     -26.712713      115.91555      115.81298      115.93306    
    367000   299.35862      5.8277665     -45410.543      4147.5605      5044.7593      2105.7431      25.734123     -17.289818      9.0389937      115.91634      115.81377      115.93385    
    368000   297.73678     -1.2003595     -45241.168      4238.7578      4935.0193      2110.6593     -48.409589      49.63324      -4.8247289      116.01383      115.91117      116.03136    
    369000   298.90519     -58.323307     -45370.522      4212.9208      5036.6983      2100.54       -31.003365     -49.821821     -94.144736      116.0089       115.90625      116.02643    
    370000   299.91777     -28.681104     -45414.562      4242.7977      4982.2211      2104.8667     -37.609981      0.25242907    -48.68576       115.99862      115.89597      116.01614    
    371000   299.79299      14.242449     -45383.324      4213.9568      5017.8292      2104.2412      35.51183       36.922288     -29.70677       115.96403      115.86142      115.98155    
    372000   301.30907      1.6486621     -45505.677      4199.8833      5031.7734      2117.7263      15.42079      -77.561533      67.08673       115.92838      115.8258       115.94589    
    373000   300.0149      -20.594567     -45674.754      4244.3482      5006.9231      2107.671      -3.0310115      8.542811      -67.295501      115.83676      115.73426      115.85426    
    374000   301.30005      22.756046     -45533.957      4146.0299      5062.5361      2098.385       8.4121731      7.7239576      52.132008      115.80843      115.70596      115.82593    
    375000   298.91622      18.424125     -45297.131      4241.6667      4961.8117      2105.2382      22.90652       8.9446879      23.421167      115.96705      115.86444      115.98457    
    376000   301.50366     -1.0835677     -45271.478      4208.6495      4924.8271      2106.7956     -8.7732313     -31.98874       37.511268      116.05821      115.95551      116.07574    
    377000   299.43116      10.284731     -45325.988      4232.1991      4981.2008      2106.9469      29.604957      18.095059     -16.845824      115.98925      115.88662      116.00677    
    378000   298.52149     -11.745045     -45248.87       4206.5049      4977.642       2084.7098     -31.128309      30.223898     -34.330725      115.99808      115.89544      116.0156     
    379000   300.90902      13.708168     -45538.626      4215.3105      5027.2205      2085.2123     -52.600977      38.626519      55.098962      115.86525      115.76273      115.88275    
    380000   298.44904     -10.552304     -45554.74       4191.7812      5100.8782      2073.5213     -29.216583      27.744338     -30.184667      115.86248      115.75996      115.87998    
    381000   299.26804     -36.445919     -45486.919      4316.3743      4988.7519      2079.6719     -45.257023     -8.1705883     -55.910145      115.94279      115.84019      115.9603     
    382000   299.83897     -21.521827     -45577.716      4292.6108      5025.9657      2070.7778      16.598047     -14.369289     -66.794238      115.88719      115.78465      115.9047     
    383000   299.53377     -9.3636664     -45577.561      4223.6739      5102.9059      2078.8738     -13.985047      0.12128708    -14.227239      115.86085      115.75833      115.87836    
    384000   302.26451     -13.605452     -45451.646      4102.228       5054.6536      2086.238      -16.056046     -28.780575      4.0202644      115.91747      115.8149       115.93498    
    385000   299.57264      13.487463     -45414.054      4172.5427      5070.3912      2082.1998      24.45577       8.5769037      7.4297163      115.87676      115.77423      115.89427    
    386000   300.69862     -1.2220952     -45341.762      4214.2286      4964.7004      2090.005       30.557557     -35.143096      0.91925369     115.98764      115.88501      116.00516    
    387000   302.21393      15.303615     -45546.441      4158.4283      5052.9427      2090.7694      52.091092     -28.579786      22.39954       115.85248      115.74997      115.86999    
    388000   298.79268      5.5961214     -45539.034      4244.1765      5087.818       2089.0512      7.8565673      28.829992     -19.898195      115.89694      115.79439      115.91445    
    389000   300.52873     -0.77852534    -45630.793      4190.4423      5066.7198      2101.8126     -1.4041838      15.269469     -16.200861      115.81533      115.71285      115.83283    
    390000   301.2241      -19.174509     -45440.853      4221.7649      4940.3315      2105.5933      6.9783178     -37.192997     -27.308849      115.97443      115.87181      115.99195    
    391000   299.63829      8.5437756     -45401.471      4171.7935      4957.7949      2110.5948      20.019371     -41.96434       47.576296      115.91063      115.80807      115.92814    
    392000   300.52178     -5.9941879     -45441.61       4229.6865      4913.3587      2111.2854     -36.881383     -52.675082      71.573901      115.94549      115.84289      115.963      
    393000   300.09836     -38.600434     -45571.078      4266.894       5022.0214      2092.1366     -17.367305     -8.5796761     -89.854321      115.91266      115.8101       115.93017    
    394000   298.58816     -22.297739     -45538.457      4244.714       4907.3087      2100.4688     -0.016509534   -25.572873     -41.303834      115.94646      115.84386      115.96397    
    395000   300.24755      14.606635     -45512.08       4281.0171      4916.3935      2108.7094     -28.808258      24.480599      48.147565      115.90016      115.7976       115.91767    
    396000   298.63162     -4.2851649     -45488.4        4270.4753      5035.0264      2099.8909     -17.101725     -30.354404      34.600635      115.90084      115.79828      115.91835    
    397000   301.17656     -4.7895476     -45417.807      4172.3695      5073.4423      2093.3916      23.302759     -24.668878     -13.002524      115.95219      115.84959      115.9697     
    398000   301.37116     -4.637417      -45521.047      4182.3038      4977.2564      2098.1039     -13.984693     -2.3484572      2.4208989      115.86772      115.7652       115.88523    
    399000   299.44406      19.396447     -45342.947      4203.98        4933.4808      2113.1392     -26.085676      39.480688      44.79433       115.96543      115.86282      115.98295    
    400000   300.87163     -20.535738     -45346.925      4246.0462      5085.2939      2116.0045     -54.40802       3.7036162     -10.902811      116.00558      115.90293      116.02311    
    401000   300.9028      -11.495314     -45398.628      4190.7125      4966.7411      2113.646       1.5329746     -4.1740366     -31.844881      115.9879       115.88527      116.00542    
    402000   299.75081     -8.1020925     -45471.303      4244.1945      5021.5134      2115.7344     -12.503255     -32.509728      20.706705      115.96299      115.86038      115.98051    
    403000   298.47035     -0.1347943     -45505.212      4316.9318      5067.9118      2119.4287     -9.912996      -10.116198      19.624811      115.92027      115.8177       115.93778    
    404000   298.81421      28.666652     -45610.961      4283.738       5089.9929      2112.2452      78.910665     -3.5578199      10.647109      115.81286      115.71038      115.83035    
    405000   298.55914      15.437992     -45445.595      4254.5008      4918.3792      2110.452      -3.7320308     -17.489779      67.535787      115.93403      115.83145      115.95155    
    406000   300.79071     -10.186581     -45404.649      4209.1483      4968.1837      2109.3029     -5.6125391     -24.872977     -0.074225646    115.98443      115.8818       116.00195    
    407000   301.04653     -9.6559811     -45368.3        4217.4048      4884.8433      2120.8722     -32.261312     -14.522531      17.815899      115.99107      115.88844      116.00859    
    408000   298.98029      24.924739     -45458.924      4176.032       4966.9313      2114.8082      67.326581     -25.645015      33.092651      115.91889      115.81632      115.9364     
    409000   299.33536      0.097282746   -45428.933      4217.7889      4943.1056      2124.1102      20.05582      -27.196015      7.4320432      115.95001      115.84742      115.96753    
    410000   297.45938      17.966101     -45380.806      4249.9203      4979.4835      2115.558       6.7394422      22.056924      25.101936      115.94663      115.84404      115.96415    
    411000   298.64804     -10.895009     -45343.884      4215.5754      4863.644       2121.368       17.308382     -8.1475078     -41.845901      116.01429      115.91164      116.03182    
    412000   301.16373      20.669772     -45369.778      4178.4339      4892.0549      2122.9223      3.532728       18.895938      39.58065       115.97225      115.86963      115.98977    
    413000   301.74178     -0.66329766    -45376.21       4173.6165      4919.5398      2111.9136      25.942822     -29.615876      1.6831612      115.9843       115.88167      116.00182    
    414000   301.01057     -30.15426      -45473.545      4222.532       5028.4138      2102.2758     -10.872851     -46.250552     -33.339377      115.93639      115.83381      115.95391    
    415000   301.8152       8.715189      -45459.728      4166.2424      5023.0819      2108.7282     -14.419392      79.738777     -39.173819      115.89981      115.79726      115.91732    
    416000   299.32476     -21.250917     -45557.396      4196.6494      4938.6682      2107.7104     -71.652293     -2.4743611      10.373904      115.85665      115.75414      115.87416    
    417000   300.68301      2.3544788     -45484.007      4192.6774      4973.189       2100.6677      1.3065231      2.176675       3.5802382      115.9186       115.81603      115.93611    
    418000   300.18705      8.5656649     -45545.399      4282.2887      5105.2672      2096.4683      2.971887       16.373628      6.3514794      115.88549      115.78295      115.903      
    419000   301.20042      6.2506109     -45373.117      4157.5305      4986.3291      2088.9        -1.5423121      53.559536     -33.265391      115.97077      115.86816      115.98829    
    420000   299.61035      12.925524     -45478.315      4246.4824      5038.9964      2099.0557      9.6528832      20.442794      8.6808955      115.88244      115.7799       115.89994    
    421000   301.92224      14.952242     -45419.894      4198.4774      5091.2618      2098.8809     -53.371387      69.857648      28.370465      115.90479      115.80223      115.9223     
    422000   302.42419     -7.3095617     -45466.298      4183.2904      5005.4656      2111.1284     -4.8579184     -15.540356     -1.5304108      115.94339      115.8408       115.96091    
    423000   301.06215     -7.3431358     -45441.793      4156.8238      5108.2156      2108.2151     -55.090642     -22.169011      55.230245      115.95283      115.85023      115.97034    
    424000   297.61953     -8.8895181     -45446.099      4259.9582      5081.7622      2115.6002     -33.976734     -16.296321      23.6045        115.95267      115.85007      115.97019    
    425000   299.7626      -18.462486     -45348.972      4192.8285      5052.2366      2111.2466     -48.196667     -9.7250826      2.534291       116.00353      115.90089      116.02106    
    426000   300.53914     -4.688987      -45424.57       4112.7483      4985.5044      2113.4646      16.704982     -37.188132      6.4161884      115.94388      115.84129      115.9614     
    427000   297.60832      5.0859605     -45429.864      4171.631       5105.0897      2111.302       47.060066     -28.982376     -2.8198087      115.87455      115.77202      115.89205    
    428000   300.33519     -18.322907     -45441.47       4183.7108      5108.7113      2108.8299      5.5554773     -26.149444     -34.374753      115.92291      115.82034      115.94042    
    429000   298.92902     -1.3121438     -45329.156      4181.4915      5062.1135      2115.3073     -47.480666     -26.373325      69.91756       115.96024      115.85763      115.97776    
    430000   299.92339     -19.091712     -45255.882      4264.5575      4953.4849      2114.8399     -48.868815      35.077383     -43.483706      116.01579      115.91313      116.03331    
    431000   300.42348      5.3447216     -45424.136      4236.8117      5114.6269      2110.8672     -4.8015804      45.874192     -25.038447      115.95533      115.85273      115.97285    
    432000   300.01803      19.783847     -45388.034      4221.879       4942.4211      2120.3962      1.9241226      20.518532      36.908886      115.9203       115.81772      115.93781    
    433000   299.85291      3.312338      -45595.385      4231.2445      5057.4508      2110.7749     -20.091234     -10.454787      40.483035      115.82473      115.72224      115.84222    
    434000   298.78246     -11.567097     -45504.489      4265.8676      4963.5133      2100.0991     -25.775474     -54.232967      45.307149      115.9362       115.83361      115.95371    
    435000   299.95675     -7.107653      -45351.302      4250.9573      4825.1803      2116.9978     -4.1825386     -6.1506727     -10.989748      115.99177      115.88913      116.00929    
    436000   301.72659     -6.9582965     -45551.267      4289.6412      4964.7208      2129.5423      73.45557      -44.831581     -49.498879      115.92944      115.82686      115.94695    
    437000   301.81063     -5.7536402     -45614.458      4236.4552      4936.6368      2111.8394      52.205291     -58.903994     -10.562218      115.86021      115.75769      115.87772    
    438000   299.63798     -9.5524065     -45488.186      4203.1377      4916.4689      2115.5819      15.625898     -58.398968      14.115851      115.93953      115.83694      115.95704    
    439000   297.64445      18.046542     -45487.952      4208.9077      4888.6362      2124.9773      34.743858     -51.173253      70.56902       115.89781      115.79526      115.91532    
    440000   300.54313      14.853558     -45559.48       4191.2097      4890.5508      2123.3893      22.757152     -6.1398218      27.943343      115.8403       115.7378       115.85781    
    441000   299.54871     -27.567856     -45404.574      4242.5459      4897.0011      2112.8134     -6.4571315     -92.247715      16.001278      115.9696       115.86698      115.98712    
    442000   301.66564     -22.264931     -45479.431      4274.0188      4957.4285      2113.9932     -44.903338     -67.688035      45.79658       115.95027      115.84767      115.96778    
    443000   300.10808     -1.1583396     -45459.365      4192.4367      5013.4039      2116.8959      13.070281     -13.818714     -2.7265857      115.90525      115.80269      115.92276    
    444000   298.97208      11.230892     -45287.264      4217.6336      4885.0443      2103.7353     -10.223223      8.2071687      35.708731      115.9676       115.86499      115.98512    
    445000   300.10149      10.000872     -45380.393      4199.5996      4930.7318      2104.5235      26.044879     -5.1320339      9.0897713      115.9612       115.85859      115.97871    
    446000   299.63148      10.268084     -45300.025      4230.5159      4919.4689      2119.0315      41.874974      15.104155     -26.174877      115.97257      115.86995      115.99009    
    447000   301.67522     -22.595949     -45446.485      4277.4355      4963.8322      2108.8093     -0.19368373    -77.118671      9.5245075      115.96434      115.86173      115.98186    
    448000   298.73492     -18.91167      -45544.438      4312.9983      5043.8159      2108.5377     -12.183425     -25.811812     -18.739773      115.91228      115.80972      115.9298     
    449000   300.72137      15.490673     -45659.191      4275.2132      5098.3099      2121.7147      32.404709      32.863128     -18.795819      115.81822      115.71574      115.83572    
    450000   297.19884     -14.377263     -45545.982      4291.2716      5074.8995      2103.1838     -13.313374      12.448799     -42.267213      115.89742      115.79487      115.91493    
    451000   300.83116      9.1098754     -45699.801      4254.6144      5124.3775      2117.4922      1.6119708      13.995432      11.722223      115.7758       115.67335      115.79329    
    452000   299.44907     -8.1409883     -45430.928      4275.29        4939.508       2122.6552      17.518867     -53.584588      11.642757      115.95889      115.85628      115.9764     
    453000   301.84787     -5.8324752     -45498.687      4189.4267      5002.0371      2116.5723      9.8087875     -20.666623     -6.6395898      115.89712      115.79456      115.91462    
    454000   300.43828     -0.37067281    -45393.976      4172.4277      5136.375       2101.193      -20.37006       13.761288      5.4967531      115.95309      115.85048      115.9706     
    455000   301.62601     -9.2951731     -45475.175      4204.1814      5081.842       2106.6477     -10.768726     -9.181884      -7.9349087      115.91501      115.81244      115.93252    
    456000   300.59326     -21.348384     -45497.388      4244.7419      5007.1863      2104.7385      5.8756896     -62.73199      -7.1888529      115.9251       115.82252      115.94261    
    457000   301.67018     -0.36870534    -45480.977      4248.4272      5106.5726      2095.2111      41.945535     -0.98467008    -42.066981      115.90401      115.80145      115.92152    
    458000   301.19676      26.096063     -45554.688      4274.7477      5039.8048      2103.8353      72.553428      51.191573     -45.456812      115.85977      115.75725      115.87727    
    459000   299.61279      7.6176257     -45515.854      4238.2997      5035.2771      2100.2903     -23.757722      69.111192     -22.500593      115.85779      115.75527      115.87529    
    460000   301.24672     -3.7255664     -45657.278      4261.6103      5001.0892      2108.1029      16.736205     -15.550014     -12.36289       115.84913      115.74662      115.86663    
    461000   300.4451      -26.077002     -45637.477      4228.2854      5072.8621      2107.8        -63.675862      40.092785     -54.64793       115.85575      115.75324      115.87325    
    462000   299.21405     -0.04473129    -45507.983      4172.9386      5119.0732      2100.491       35.195939      10.358403     -45.688536      115.83874      115.73624      115.85624    
    463000   296.63591     -19.659092     -45491.01       4312.5979      5081.5479      2097.8188     -17.003795     -23.986982     -17.986498      115.89529      115.79274      115.9128     
    464000   298.87394     -24.0989       -45542.328      4224.59        5063.2386      2106.666      -10.877377     -60.288896     -1.1304256      115.88517      115.78263      115.90268    
    465000   298.88219      7.7380112     -45472.873      4271.4404      5045.0308      2102.9111      9.3950043      6.0917893      7.7272401      115.87023      115.7677       115.88773    
    466000   299.60542     -22.178992     -45534.757      4290.8065      5006.6232      2103.7909      21.633564     -51.444143     -36.726396      115.87658      115.77405      115.89409    
    467000   300.74888     -39.793747     -45486.67       4182.5587      5060.0753      2093.9783     -44.824177     -18.65846      -55.898603      115.93413      115.83155      115.95165    
    468000   299.29462      2.5369619     -45455.187      4174.5786      4956.1297      2090.2497      8.0915909      20.218732     -20.699437      115.88078      115.77824      115.89829    
    469000   300.48045     -8.6394847     -45418.502      4142.8731      4998.9553      2088.0624     -39.799005     -0.028296642    13.908848      115.91338      115.81082      115.93089    
    470000   301.44288     -19.984504     -45519.036      4173.3582      5014.727       2088.5188     -74.772246     -9.5161949      24.33493       115.93939      115.8368       115.95691    
    471000   299.15502     -32.424479     -45342.813      4279.2933      5040.4645      2091.0279     -42.400958     -23.097193     -31.775286      116.00605      115.9034       116.02357    
    472000   300.82038      0.79899262    -45473.933      4160.38        5127.9634      2091.5605      46.59812      -59.436831      15.235689      115.90901      115.80644      115.92652    
    473000   301.84557      0.48775467    -45555.371      4251.1741      5113.2034      2092.6951     -18.189259      22.375433     -2.7229102      115.83612      115.73362      115.85362    
    474000   299.43562      8.7634686     -45494.261      4243.6197      5144.4717      2099.6028      22.629935     -23.883075      27.543545      115.88669      115.78415      115.9042     
    475000   298.88946     -22.345932     -45405.641      4280.6134      5115.2876      2106.2661      11.910533     -41.060084     -37.888246      115.94589      115.84329      115.9634     
    476000   299.6573       0.6994302     -45343.184      4227.022       4974.6585      2113.7025      1.1171549     -7.5338258      8.5149615      115.97136      115.86874      115.98888    
    477000   297.96932     -21.503293     -45404.005      4296.4854      5099.8217      2101.9754     -62.867025     -34.53204       32.889185      115.9619       115.85929      115.97941    
    478000   299.12939     -13.774027     -45444.516      4229.3344      5065.1682      2106.5055     -8.2101834     -10.807596     -22.304301      115.90374      115.80118      115.92125    
    479000   302.2393       25.450651     -45541.335      4226.7381      5076.0234      2104.195       20.453984      21.226549      34.67142       115.8588       115.75629      115.87631    
    480000   298.93558      15.22308      -45438.909      4259.686       4961.3481      2107.8585      10.027625      23.517787      12.123828      115.94171      115.83912      115.95923    
    481000   297.55008      5.6313381     -45355.41       4267.5835      4931.5664      2109.722      -3.9066321      22.13296      -1.3323136      115.94325      115.84066      115.96077    
    482000   302.72865     -1.3204875     -45405.42       4257.5695      4933.0846      2113.1317      44.492942     -35.805796     -12.648608      115.96497      115.86236      115.98249    
    483000   296.75238     -3.7162438     -45392.853      4327.751       4913.6804      2121.8747     -62.879979      64.298938     -12.567691      115.93812      115.83553      115.95563    
    484000   301.48376     -1.7340403     -45650.218      4211.2656      5030.4636      2125.8475     -43.65338       28.196072      10.255187      115.81684      115.71436      115.83434    
    485000   300.42881      32.792033     -45351.894      4249.4422      4903.9477      2131.408       5.4530851      42.403866      50.519148      115.94277      115.84017      115.96028    
    486000   298.28786      10.112463     -45365.516      4279.518       4948.28        2116.1869     -17.761525      45.102308      2.9966054      115.96977      115.86715      115.98729    
    487000   299.30145      19.380171     -45578.242      4280.2733      5053.614       2120.8202      12.809859     -0.32324744     45.653901      115.85987      115.75735      115.87737    
    488000   299.2188       35.19031      -45420.65       4257.248       4904.2134      2126.0988      49.223814      49.308663      7.0384545      115.87728      115.77474      115.89478    
    489000   298.88998      18.660116     -45558.656      4228.7795      5060.3026      2124.0782      10.983859     -16.250147      61.246637      115.84699      115.74448      115.86449    
    490000   300.3082       27.129801     -45602.758      4226.4086      4969.786       2115.583       37.880192      10.178471      33.330741      115.80682      115.70434      115.82431    
    491000   300.86589     -5.6349485     -45487.926      4237.8551      5029.3294      2111.9593      27.528614     -29.46332      -14.97014       115.91633      115.81377      115.93385    
    492000   299.10952     -25.370112     -45485.566      4295.1653      5002.7296      2107.0023     -1.3641669     -31.94948      -42.796689      115.92182      115.81925      115.93933    
    493000   300.56248      38.943868     -45471.948      4202.7872      5069.8869      2094.7783      82.641976      0.4469351      33.742691      115.8315       115.72901      115.849      
    494000   297.13389     -16.309802     -45546.386      4347.2525      5049.3934      2096.2747     -21.026735      3.6295898     -31.532262      115.87728      115.77475      115.89479    
    495000   300.63765      22.340533     -45519.189      4289.2863      4992.1878      2102.7783      17.75425       40.393104      8.8742461      115.8592       115.75668      115.8767     
    496000   299.17444      12.226975     -45473.591      4285.3749      4936.0408      2115.3251      20.194353      5.4517697      11.034803      115.91266      115.81009      115.93017    
    497000   298.31099      22.66807      -45459.995      4290.2732      5033.1316      2115.0783      48.961031      37.835999     -18.79282       115.87092      115.76839      115.88842    
    498000   300.76151     -9.5143783     -45482.451      4271.8002      5001.4459      2101.9411     -19.266915     -23.382941      14.10672       115.90803      115.80547      115.92554    
    499000   299.45614      4.0505439     -45348.863      4245.0508      4998.0743      2107.7044      26.94687      -24.899764      10.104526      115.9595       115.85689      115.97701    
    500000   300.27628      19.293387     -45354.949      4186.4454      4929.1156      2109.4346      33.675859     -10.964027      35.168329      115.94976      115.84716      115.96728    
    501000   299.49771      12.151721     -45275.53       4243.0062      4850.8692      2105.3208     -53.625605      96.905824     -6.8250554      115.98123      115.8786       115.99875    
Loop time of 241.113 on 16 procs for 500000 steps with 12350 atoms

Performance: 179.169 ns/day, 0.134 hours/ns, 2073.720 timesteps/s, 25.610 Matom-step/s
97.8% CPU use with 16 MPI tasks x no OpenMP threads

MPI task timing breakdown:
Section |  min time  |  avg time  |  max time  |%varavg| %total
---------------------------------------------------------------
Pair    | 89.216     | 95.673     | 100.04     |  34.1 | 39.68
Bond    | 34.904     | 36.58      | 37.678     |  14.8 | 15.17
Neigh   | 11.11      | 11.123     | 11.147     |   0.3 |  4.61
Comm    | 64.186     | 68.235     | 74.711     |  40.5 | 28.30
Output  | 0.030864   | 0.032049   | 0.0487     |   2.4 |  0.01
Modify  | 22.011     | 23.623     | 25.173     |  21.6 |  9.80
Other   |            | 5.846      |            |       |  2.42

Nlocal:        771.875 ave         784 max         758 min
Histogram: 1 0 1 2 3 3 1 3 0 2
Nghost:        2296.62 ave        2324 max        2271 min
Histogram: 2 0 1 4 2 3 0 2 1 1
Neighs:        25991.3 ave       27032 max       25563 min
Histogram: 3 3 5 1 1 2 0 0 0 1

Total # of neighbors = 415861
Ave neighs/atom = 33.672955
Ave special neighs/atom = 5.76
Neighbor list builds = 8935
Dangerous builds = 0
#取消设置
unfix 1

# -----------------------------------------------------
# 5. npt下拉伸
# -----------------------------------------------------
# 计算应力
reset_timestep      0
compute             1 all stress/atom NULL
compute             2 all reduce sum c_1[1] c_1[2]
variable            CorVol equal ly*lx*lz
variable            sigmaxx equal c_2[1]/(v_CorVol*10000)
variable            px equal -pxx/10000
# 计算应变值
variable            tmp equal "lx"
variable            L0 equal ${tmp}
variable            L0 equal 115.981230950328
variable            strain equal "(lx - v_L0)/v_L0"
#dump输出
dump                1 all custom 10000 dump.pdms.lammpstrj id type x y z vx vy vz
#设置npt系综
fix                 1 all npt temp 200 200 50 y 0 0 1000 z 0 0 1000 drag 2
#deform拉伸，x方向
fix                 2 all deform 1 x erate 1e-7 units box remap x
#热力学输出
fix                 ave_sxx all ave/time 100 100 10000 v_px file stress_profile.dat ave one
thermo_style        custom step temp v_strain v_sigmaxx pxx pyy pzz lx ly lz epair ebond eangle edihed
thermo              1000

#启动模拟，20万步
run                 1000000
Generated 0 of 0 mixed pair_coeff terms from geometric mixing rule
Per MPI rank memory allocation (min/avg/max) = 10.23 | 10.28 | 10.71 Mbytes
   Step          Temp         v_strain      v_sigmaxx         Pxx            Pyy            Pzz             Lx             Ly             Lz           E_pair         E_bond        E_angle        E_dihed    
         0   299.49771      3.6758158e-16  0.0053625605  -53.625605      96.905824     -6.8250554      115.98123      115.8786       115.99875     -45275.53       4243.0062      4850.8692      2105.3208    
      1000   205.72029      0.0001         0.01204833    -120.4833       16.508153      7.4157899      115.99283      114.27727      114.26487     -47759.47       3036.9129      4328.8267      2105.7781    
      2000   199.73157      0.0002         0.012164384   -121.64384      2.4233451      7.8408671      116.00443      113.79526      113.83885     -48519.833      2979.7567      4372.8965      2110.8644    
      3000   200.16319      0.0003         0.0070197387  -70.197387     -26.990877     -35.652283      116.01603      113.8327       113.46319     -48776.494      3001.0119      4403.0193      2115.2121    
      4000   200.83995      0.0004         0.0059098691  -59.098691      10.562676      3.8508769      116.02762      113.71143      113.45143     -48901.991      2923.7333      4333.6538      2123.2234    
      5000   201.31045      0.0005         0.017324046   -173.24046     -11.166052     -0.69769823     116.03922      113.52562      113.66253     -48945.872      2923.7711      4314.1412      2108.9355    
      6000   199.67245      0.0006         0.0070133623  -70.133623      6.2114345     -3.3478419      116.05082      113.44897      113.34821     -49096.813      2960.4047      4264.6709      2120.7867    
      7000   200.3764       0.0007         0.0059234516  -59.234516     -33.807263     -14.068207      116.06242      113.60486      113.25067     -49097.174      2979.0495      4258.138       2104.964     
      8000   199.91178      0.0008         0.008405209   -84.05209      -17.210831     -5.0238858      116.07402      113.5208       113.27785     -49143.952      2991.237       4260.1273      2105.7176    
      9000   201.17949      0.0009         0.0042319184  -42.319184     -11.413554      14.480852      116.08561      113.59406      113.03535     -49234.219      2966.7174      4189.9626      2108.0697    
     10000   200.61929      0.001          0.0078634883  -78.634883     -27.757237     -10.615045      116.09721      113.40411      113.19259     -49294.473      2977.5479      4197.244       2117.9533    
     11000   200.81649      0.0011         0.0058504164  -58.504164     -12.065116     -21.206152      116.10881      113.2291       113.35556     -49258.047      3037.2246      4182.3885      2114.7954    
     12000   198.3577       0.0012         0.0084655934  -84.655934     -24.321894     -16.224706      116.12041      113.14         113.51461     -49232.76       3079.0134      4171.7609      2124.957     
     13000   200.27149      0.0013         0.0015640996  -15.640996      2.040806       7.3410626      116.13201      113.24667      113.17548     -49327.678      3025.8869      4113.2643      2116.4387    
     14000   199.84625      0.0014         0.0063317412  -63.317412     -12.747212     -32.281675      116.1436       113.0559       113.46632     -49389.852      3027.3413      4188.6116      2110.8512    
     15000   200.26907      0.0015         0.0060371124  -60.371124     -11.449176      19.334626      116.1552       112.89616      113.4922      -49414.322      3038.3228      4091.5754      2116.0543    
     16000   199.61656      0.0016         0.0068415309  -68.415309      13.642578     -20.650813      116.1668       112.94169      113.50874     -49403.785      3069.0364      4144.2642      2115.7782    
     17000   198.70448      0.0017         0.0062810741  -62.810741     -2.332295      -11.195234      116.1784       113.2278       113.16315     -49377.171      3044.7046      4105.4926      2113.2015    
     18000   200.0856       0.0018         0.0018955716  -18.955716      12.21131       11.139139      116.19         113.10627      113.16964     -49432.231      3066.2854      4130.5271      2114.7086    
     19000   201.51063      0.0019         0.0062984692  -62.984692      24.669404     -35.52819       116.2016       112.99112      113.28846     -49447.861      3014.8196      4154.3749      2109.7494    
     20000   199.93777      0.002          0.0035311116  -35.311116     -26.609559      19.306796      116.21319      113.00687      113.16081     -49497.877      3032.4348      4160.7846      2108.0893    
     21000   200.01518      0.0021         0.002302824   -23.02824       16.999435      3.644785       116.22479      112.93027      113.20102     -49467.252      3010.8382      4112.2472      2113.569     
     22000   199.40138      0.0022         0.0078125486  -78.125486     -6.8080313      11.983994      116.23639      112.92318      113.35153     -49432.189      3031.3269      4054.8776      2108.9581    
     23000   201.19296      0.0023         0.0060003455  -60.003455      17.782003     -0.69845552     116.24799      112.99203      113.38754     -49395.311      3072.346       3937.7907      2131.6853    
     24000   201.4012       0.0024         0.0037103594  -37.103594      5.4599397     -5.6076336      116.25959      112.91203      113.21567     -49489.772      3037.9877      4026.2345      2112.6354    
     25000   199.87549      0.0025         0.0015407819  -15.407819     -26.58843      -17.765172      116.27118      113.06639      113.03691     -49533.721      3022.1945      4082.8735      2110.4738    
     26000   199.5022       0.0026        -0.00049576803  4.9576803      28.730476      6.2527759      116.28278      112.71959      113.23198     -49601.375      3057.3978      4101.6681      2114.0933    
     27000   199.6543       0.0027         0.0023864604  -23.864604     -4.3101956      34.331324      116.29438      112.68957      113.31767     -49562.39       3098.2501      4058.2313      2105.4159    
     28000   199.57696      0.0028        -0.0020129432   20.129432      1.1575571      7.3371293      116.30598      112.70101      113.32183     -49489.882      2998.6299      3997.6111      2106.9295    
     29000   199.30898      0.0029         0.0059161632  -59.161632      20.535351     -8.2326044      116.31758      112.69363      113.37333     -49524.728      3058.2534      3968.7762      2101.8538    
     30000   201.43934      0.003          0.0026532247  -26.532247     -8.376755       30.060805      116.32917      112.84381      113.15873     -49547.406      3011.1479      4090.6402      2101.4096    
     31000   198.3286       0.0031         0.0061464258  -61.464258      32.534561     -14.615402      116.34077      112.82223      113.12801     -49573.475      3015.1503      4119.6185      2097.769     
     32000   200.38607      0.0032         0.0076372297  -76.372297     -10.12703       4.3089864      116.35237      113.03131      113.06052     -49542.734      3010.1121      4055.6043      2104.3832    
     33000   200.84791      0.0033         0.0045326161  -45.326161     -13.611789      10.138137      116.36397      112.79249      113.15259     -49586.546      3001.899       4048.0729      2099.9101    
     34000   201.02878      0.0034         0.0044388534  -44.388534      28.717275     -7.9630937      116.37557      112.61769      113.30038     -49593.017      2998.7778      4057.4344      2109.5236    
     35000   198.61441      0.0035         0.0003427014  -3.427014      -11.080995     -2.4812252      116.38717      112.88605      113.07268     -49540.014      3033.2078      4083.9573      2101.7777    
     36000   199.46559      0.0036         0.0043684412  -43.684412      10.538643      11.626113      116.39876      112.80672      113.13938     -49536.821      3043.7579      4030.2784      2102.5394    
     37000   199.76953      0.0037         0.0011065181  -11.065181      2.8530021     -4.4086011      116.41036      112.81835      113.23022     -49470.271      3012.8507      3975.8427      2116.1853    
     38000   200.75833      0.0038        -0.0024630806   24.630806      10.687297      2.3190338      116.42196      112.81651      112.973       -49603.929      3000.185       4011.7641      2109.7158    
     39000   200.79043      0.0039         0.0016736794  -16.736794     -0.9064204     -29.969298      116.43356      112.94542      112.95448     -49696.986      3018.6878      4017.2985      2108.1666    
     40000   200.43379      0.004          0.0074065066  -74.065066     -11.405308     -25.702504      116.44516      112.9343       113.08179     -49616.761      3041.3332      3943.5517      2116.8623    
     41000   200.39452      0.0041         0.0062577515  -62.577515     -6.03525        7.7951011      116.45675      112.82292      112.88861     -49750.003      3016.846       4105.3601      2102.4829    
     42000   200.60016      0.0042         0.0043429537  -43.429537     -14.518387      1.5822771      116.46835      112.74474      113.09371     -49689.184      3004.83        4006.5149      2098.3164    
     43000   200.46521      0.0043         0.0086204868  -86.204868      5.8175097     -10.595857      116.47995      112.77368      113.0107      -49681.624      2982.0208      4055.8748      2101.4359    
     44000   199.88647      0.0044         0.010547938   -105.47938     -9.5337902     -38.44578       116.49155      112.7046       113.16829     -49621.136      3016.3756      4034.0909      2102.3931    
     45000   198.7723       0.0045         0.004509285   -45.09285       23.895206     -21.953798      116.50315      112.81243      113.09075     -49541.628      2989.9518      3975.7783      2097.7064    
     46000   199.05304      0.0046         0.0084302778  -84.302778     -23.653855     -20.51309       116.51474      112.62177      113.20949     -49620.94       3025.5964      3966.1725      2111.2664    
     47000   199.81241      0.0047         0.012782422   -127.82422     -1.6203063     -7.7669267      116.52634      112.52416      113.26847     -49612.956      2957.9759      4023.5203      2106.6744    
     48000   199.41822      0.0048         0.010903213   -109.03213     -6.2241204     -31.379821      116.53794      112.55181      113.36421     -49595.119      3008.7184      4007.0555      2098.2019    
     49000   200.15112      0.0049         0.011108299   -111.08299      3.4405943      21.79158       116.54954      112.57323      113.26714     -49575.619      2997.3218      3926.59        2101.4301    
     50000   199.80991      0.005          0.0114462     -114.462       -21.083076      1.2408429      116.56114      112.53655      113.19463     -49700.321      3028.0524      3952.1174      2107.868     
     51000   199.80525      0.0051         0.012619097   -126.19097      12.169743     -48.109706      116.57274      112.58099      113.23618     -49606.687      3008.4709      3997.9894      2097.8502    
     52000   200.24687      0.0052         0.0050167956  -50.167956      29.396578     -1.5526814      116.58433      112.52639      113.26119     -49647.543      3012.5427      4028.3902      2096.3569    
     53000   198.17085      0.0053         0.010753896   -107.53896     -11.156239      6.9047154      116.59593      112.70039      113.22267     -49547.417      3043.6456      3977.5051      2097.7798    
     54000   201.52068      0.0054         0.0078082349  -78.082349     -8.4258182     -5.5399691      116.60753      112.78679      113.16579     -49527.24       2994.9119      3934.7556      2090.9097    
     55000   199.33312      0.0055         0.0066666024  -66.666024     -30.428591      20.897141      116.61913      112.63477      113.11071     -49621.616      2978.8374      3986.8147      2103.1469    
     56000   199.33544      0.0056         0.004712366   -47.12366      -15.433836      7.6585909      116.63073      112.77179      112.86849     -49668.915      3011.6263      3965.3871      2097.7062    
     57000   199.89737      0.0057         0.0042045241  -42.045241      10.583156      9.7435322      116.64232      112.47272      113.0435      -49688.899      2981.887       3979.0841      2097.3031    
     58000   199.72802      0.0058         0.003668391   -36.68391      -28.663579     -3.2286912      116.65392      112.59408      113.17141     -49620.076      3063.7502      3912.7865      2102.3361    
     59000   199.57161      0.0059         0.0060811142  -60.811142      11.433968      2.4614099      116.66552      112.45093      113.25133     -49637.2        3023.356       3944.5649      2090.2913    
     60000   199.90487      0.006          0.001406376   -14.06376      -18.992583      5.9552741      116.67712      112.58986      113.02407     -49653.572      3027.9362      3930.4467      2093.3706    
     61000   201.1414       0.0061         0.0074644567  -74.644567      19.279105      8.0255712      116.68872      112.65461      112.93412     -49706.328      2996.3676      4004.5022      2092.4705    
     62000   199.73565      0.0062         0.00053329444 -5.3329444      4.756418       19.966698      116.70031      112.42366      112.96577     -49741.385      3007.918       3922.9784      2087.3988    
     63000   199.06521      0.0063         0.0032438472  -32.438472      5.3747304     -2.8614773      116.71191      112.58024      113.15764     -49584.219      3063.4667      3861.136       2101.7896    
     64000   201.06195      0.0064         0.0033510476  -33.510476     -18.311807      9.5268117      116.72351      112.69457      112.9666      -49681.603      3021.7597      3876.6028      2107.1665    
     65000   199.411        0.0065         0.0080235294  -80.235294     -5.8158951      14.472096      116.73511      112.58693      113.06872     -49686.133      3058.3512      3937.2252      2099.194     
     66000   199.05933      0.0066         0.0018427537  -18.427537      36.880314     -8.8970357      116.74671      112.46476      113.13669     -49616.563      3023.6263      3956.3466      2093.7108    
     67000   201.16616      0.0067         0.007008048   -70.08048       34.36864       6.3689517      116.75831      112.42075      113.10289     -49686.223      3022.8937      3853.5809      2105.3651    
     68000   202.36141      0.0068         0.0023455975  -23.455975     -3.0195477     -30.802093      116.7699       112.36056      113.26807     -49656.896      2985.067       3921.4174      2091.3025    
     69000   200.23486      0.0069         0.0073564902  -73.564902     -36.504557     -24.815724      116.7815       112.64287      112.98242     -49654.309      3000.3387      3913.1232      2094.9454    
     70000   200.5664       0.007          0.0080300941  -80.300941      2.1193682     -23.144241      116.7931       112.75112      112.95531     -49638.302      3028.4976      3883.5264      2091.7882    
     71000   200.55233      0.0071         0.0035682699  -35.682699      6.4904656     -5.6687021      116.8047       112.61774      112.9689      -49656.213      2977.1919      3904.1236      2086.739     
     72000   201.84507      0.0072         0.0038062351  -38.062351      4.7996161     -0.29101152     116.8163       112.34013      113.19851     -49716.533      2990.1242      3894.5139      2099.413     
     73000   197.71086      0.0073         0.007219931   -72.19931      -1.4841081      14.13106       116.82789      112.56779      112.94638     -49663.033      3080.0265      3885.0597      2075.989     
     74000   200.26459      0.0074         0.0071405673  -71.405673      18.827304      0.34667825     116.83949      112.56512      113.00737     -49699.122      2990.7088      3914.505       2091.3426    
     75000   200.42989      0.0075         0.0057764939  -57.764939     -16.89486      -29.6089        116.85109      112.54273      112.97583     -49692.586      3051.6147      3896.5332      2092.0035    
     76000   200.4245       0.0076         0.0037143392  -37.143392     -16.339723      12.900128      116.86269      112.64362      112.81913     -49707.377      2991.8638      3940.022       2090.9936    
     77000   201.48421      0.0077         0.014368726   -143.68726      2.4913407      15.212264      116.87429      112.65069      112.76907     -49789.221      3017.1337      3931.0664      2086.5098    
     78000   200.55829      0.0078         0.0029585039  -29.585039     -21.010578      26.560529      116.88588      112.45594      113.02222     -49687.718      2986.5392      3862.7938      2089.0125    
     79000   199.88489      0.0079         0.0038709806  -38.709806      37.525473     -12.81074       116.89748      112.28392      113.07828     -49744.359      3005.6504      3948.72        2086.6084    
     80000   199.65861      0.008          0.0067448057  -67.448057     -22.64165      -17.168363      116.90908      112.44484      112.98735     -49756.93       3055.8479      3890.753       2089.3648    
     81000   198.96512      0.0081         0.0068754838  -68.754838      1.1646952      63.437059      116.92068      112.48562      112.8183      -49724.948      3050.726       3890.4771      2086.0056    
     82000   200.70649      0.0082         0.0070994904  -70.994904      22.597656     -28.151022      116.93228      112.31951      113.06628     -49765.37       2996.9549      3912.5044      2071.9155    
     83000   200.113        0.0083         0.0053343991  -53.343991     -0.35970027    -0.81235793     116.94388      112.21575      112.9904      -49801.839      3026.91        3877.1918      2081.9142    
     84000   199.79729      0.0084         0.004027313   -40.27313       7.4509253     -1.2122257      116.95547      112.09678      113.04294     -49834.248      3047.5179      3915.8261      2079.7718    
     85000   200.01673      0.0085         0.0071904861  -71.904861      17.604875      6.8147793      116.96707      112.11418      113.1538      -49760.648      3058.1486      3949.807       2070.6648    
     86000   201.68455      0.0086         0.0031718028  -31.718028      19.153874      23.047235      116.97867      112.1648       112.95876     -49854.506      3032.2804      3878.3518      2076.6619    
     87000   199.95115      0.0087        -0.0010701033   10.701033     -8.6439077      3.8728808      116.99027      112.2684       112.8935      -49805.117      3082.3867      3874.7295      2073.9019    
     88000   200.10894      0.0088        -0.0024111109   24.111109     -3.8521014     -3.4977587      117.00187      112.13395      112.93886     -49808.782      3097.6027      3864.4708      2063.6976    
     89000   201.02266      0.0089         0.012850578   -128.50578      12.978959     -51.265463      117.01346      112.32337      112.96164     -49835.636      3056.0487      3948.0749      2073.9991    
     90000   200.32352      0.009         -0.002593878    25.93878       29.694474      14.154322      117.02506      112.24804      112.81634     -49805.046      3038.3388      3897.6279      2082.5661    
     91000   200.47738      0.0091         0.0031375163  -31.375163      6.3052644     -30.255955      117.03666      112.20629      113.04937     -49744.006      3010.8097      3900.8318      2093.2854    
     92000   201.43168      0.0092         0.0052982752  -52.982752     -21.864833     -65.052402      117.04826      112.27186      112.93734     -49843.668      3020.1332      3993.0809      2075.5062    
     93000   199.45535      0.0093         0.0029135451  -29.135451      8.8218772      33.564409      117.05986      112.33023      112.83319     -49736.814      3043.0377      3854.4129      2073.5102    
     94000   200.7568       0.0094        -0.0013461755   13.461755      11.669307     -12.482596      117.07145      112.24029      112.90658     -49685.897      2985.345       3876.8341      2076.2914    
     95000   200.43584      0.0095         0.0053301821  -53.301821     -41.618835     -18.052206      117.08305      112.20997      113.19057     -49677.26       3026.803       3907.6488      2069.1492    
     96000   199.69066      0.0096         0.0051860371  -51.860371     -21.289441     -10.291602      117.09465      112.09668      113.14643     -49708.904      3045.04        3907.0411      2072.7157    
     97000   198.96372      0.0097         0.0098466963  -98.466963     -0.22120211    -25.219042      117.10625      111.95833      113.30631     -49698.099      3028.504       3882.1686      2079.7666    
     98000   198.40615      0.0098         0.0081701788  -81.701788      38.490287     -10.574212      117.11785      112.14011      113.00421     -49713.067      3046.9786      3891.6199      2078.9955    
     99000   200.53948      0.0099         0.015941549   -159.41549     -8.0973103      6.4601636      117.12945      112.14459      113.02429     -49740.609      3022.9577      3873.8899      2078.8829    
    100000   200.75539      0.01           0.0064266501  -64.266501     -1.7619039     -20.982847      117.14104      112.04927      113.27561     -49645.36       3013.2185      3850.0065      2072.3196    
    101000   201.1067       0.0101         0.0019360624  -19.360624     -29.523408      24.015182      117.15264      112.18242      113.11938     -49689.279      3018.4109      3884.5753      2061.468     
    102000   198.25287      0.0102         0.0016533248  -16.533248     -23.579994      1.7638857      117.16424      112.09628      113.11064     -49671.891      3001.7758      3877.9937      2066.2031    
    103000   199.69804      0.0103         0.0030390274  -30.390274     -0.83711744    -4.226251       117.17584      112.16934      113.07543     -49612.192      3045.0348      3799.9145      2057.5811    
    104000   200.20809      0.0104         0.004058926   -40.58926       37.505341      0.10955911     117.18744      112.02721      113.0228      -49753.375      3037.624       3888.6237      2055.2739    
    105000   199.81216      0.0105         0.012733678   -127.33678     -6.0305732      9.0737472      117.19903      111.8965       113.11162     -49770.281      2985.8409      3859.7302      2074.4757    
    106000   200.06398      0.0106         0.0044124935  -44.124935      44.367953     -33.302369      117.21063      111.81319      113.29164     -49745.368      3051.7136      3892.2168      2058.7473    
    107000   200.67921      0.0107         0.0096055836  -96.055836     -25.758827      2.1587172      117.22223      112.03403      113.04578     -49785.474      3000.723       3843.9244      2056.7867    
    108000   199.21025      0.0108         0.0043548928  -43.548928     -3.7255604     -16.329807      117.23383      112.0261       113.03136     -49718.719      3056.4618      3864.6666      2050.2095    
    109000   199.42768      0.0109         0.0041975451  -41.975451      26.058474     -12.411469      117.24543      111.95859      112.92073     -49841.488      3042.2929      3884.8774      2054.0313    
    110000   199.44758      0.011          0.0046089546  -46.089546     -7.4494279     -7.2101328      117.25702      112.14798      112.94068     -49730.027      3031.6911      3815.5492      2055.8208    
    111000   198.47892      0.0111         0.0052225793  -52.225793     -13.328269     -1.0554301      117.26862      111.98969      112.94802     -49788.689      3028.2436      3827.3905      2056.1109    
    112000   199.12814      0.0112         0.0014832353  -14.832353     -7.4990913     -11.926935      117.28022      111.8776       113.23115     -49745.882      3058.3957      3862.6136      2047.479     
    113000   200.09366      0.0113         0.0015449761  -15.449761     -24.111191     -24.759383      117.29182      111.77863      113.32618     -49731.9        3039.3234      3870.5094      2059.2936    
    114000   200.77859      0.0114         0.002299648   -22.99648      -24.369903     -9.4333754      117.30342      111.89614      113.14974     -49729.619      3042.0322      3866.0727      2049.6221    
    115000   199.65029      0.0115         0.0064084355  -64.084355      11.130077     -26.222804      117.31502      111.84812      113.22553     -49711.211      3076.2069      3810.9764      2047.8908    
    116000   200.37556      0.0116         0.0073871852  -73.871852     -7.6729804      16.065326      117.32661      111.98226      112.80956     -49861.581      3084.9717      3867.9003      2053.551     
    117000   200.18665      0.0117         0.0053626342  -53.626342      8.7988196     -2.2569085      117.33821      111.90432      113.01281     -49793.262      3055.5629      3831.765       2059.955     
    118000   199.42862      0.0118         0.0032188696  -32.188696      6.4842887      28.080343      117.34981      111.78702      112.92797     -49828.994      3033.8206      3890.4139      2054.7707    
    119000   201.40198      0.0119         0.0081851046  -81.851046     -4.5422419     -9.701537       117.36141      111.75629      112.93559     -49924.263      3028.6303      3922.7703      2055.4941    
    120000   200.29627      0.012          0.0058775616  -58.775616     -43.548172      28.389001      117.37301      111.91319      113.10359     -49694.529      3038.772       3813.7698      2050.278     
    121000   197.96002      0.0121         0.0045153887  -45.153887      58.984075     -15.937537      117.3846       111.71345      113.2042      -49708.719      3049.8537      3821.1897      2044.2872    
    122000   200.13864      0.0122         0.0026125828  -26.125828     -4.0925497      29.310962      117.3962       111.77126      112.93613     -49816.281      3062.6369      3843.1899      2045.0875    
    123000   201.70636      0.0123         0.0082165481  -82.165481     -0.21300467     11.305364      117.4078       112.0413       112.76039     -49838.124      3032.8559      3867.5815      2042.4781    
    124000   200.58381      0.0124         0.0070909848  -70.909848      30.286931     -20.92531       117.4194       111.75278      113.05573     -49835.05       3084.9116      3826.1678      2049.2646    
    125000   200.32335      0.0125         0.0091188184  -91.188184     -7.2758251      5.523496       117.431        111.39186      113.35693     -49870.638      3053.337       3860.656       2045.597     
    126000   199.87212      0.0126         0.0037340157  -37.340157     -18.428352      28.791657      117.44259      111.59513      113.22342     -49737.311      3038.1671      3805.7008      2045.5606    
    127000   200.40872      0.0127         0.00053575155 -5.3575155      38.743724     -19.518427      117.45419      111.56266      113.32695     -49705.486      3038.1464      3784.4881      2045.6185    
    128000   199.10865      0.0128         0.0050391574  -50.391574      33.275216      0.99411469     117.46579      111.63727      113.10165     -49781.499      3026.7914      3818.7772      2048.1024    
    129000   200.86928      0.0129         0.00039851325 -3.9851325     -13.217574      15.283373      117.47739      111.51662      113.2536      -49738.423      2989.4511      3765.9857      2050.2422    
    130000   199.72275      0.013          0.0039822358  -39.822358     -19.191522      15.752592      117.48899      111.44623      113.20883     -49781.174      3026.7356      3837.8221      2045.2299    
    131000   199.57356      0.0131         0.0048829143  -48.829143      6.0428241     -21.473359      117.50059      111.66271      113.06051     -49785.451      3044.3123      3782.8097      2042.7936    
    132000   199.18781      0.0132         0.0062534311  -62.534311     -4.8162011     -0.021454466    117.51218      111.73287      112.985       -49816.665      3052.6754      3854.7103      2037.8856    
    133000   198.34668      0.0133         0.0045581919  -45.581919      24.33347       6.8312395      117.52378      111.71244      112.94198     -49740.891      3062.1412      3757.7408      2049.9404    
    134000   201.27773      0.0134         0.0033172562  -33.172562      34.13997      -1.8908386      117.53538      111.58034      113.00844     -49822.967      2986.2631      3820.9913      2046.9013    
    135000   200.17613      0.0135         0.00060046125 -6.0046125      28.678615     -38.223552      117.54698      111.6336       112.85356     -49908.238      3052.7972      3841.9146      2046.1521    
    136000   200.43513      0.0136         0.0078146487  -78.146487     -14.210325      16.601185      117.55858      111.87719      112.87125     -49706.753      3039.8134      3772.9686      2039.4841    
    137000   200.08601      0.0137         0.0035288444  -35.288444      41.766538      9.8102504      117.57017      111.88375      112.53228     -49851.9        3048.2186      3806.1474      2046.2934    
    138000   199.94641      0.0138         0.0079920409  -79.920409      23.932442     -1.7440571      117.58177      111.94981      112.57987     -49825.798      2999.5108      3844.4385      2047.8289    
    139000   199.90786      0.0139         0.0064334325  -64.334325      18.075656     -5.3264749      117.59337      112.05882      112.64049     -49771.199      3081.3275      3790.3103      2058.0192    
    140000   200.82595      0.014         -0.0024071443   24.071443      13.502664      16.609041      117.60497      111.90972      112.55417     -49870.268      3037.9217      3821.2454      2044.5391    
    141000   198.91492      0.0141        -0.0018419335   18.419335     -9.0036634     -18.683835      117.61657      111.94357      112.60131     -49867.848      3096.4165      3805.5371      2057.9161    
    142000   199.40061      0.0142         0.00072987754 -7.2987754      32.869598     -10.217217      117.62816      111.84284      112.55849     -49818.04       3039.6284      3814.2812      2049.1306    
    143000   198.78235      0.0143         0.0025869624  -25.869624      19.98206       11.828431      117.63976      112.05523      112.51212     -49755.573      3035.3752      3844.4696      2036.5309    
    144000   201.18563      0.0144         0.0021554183  -21.554183      1.8488382      40.636826      117.65136      111.91603      112.42397     -49946.392      3053.9435      3858.7217      2042.4906    
    145000   201.34894      0.0145         0.0041159665  -41.159665      12.529371      14.928508      117.66296      111.72605      112.54108     -49977.099      3063.7321      3902.0064      2041.5872    
    146000   200.39823      0.0146         0.0081101687  -81.101687      46.474767     -1.8456172      117.67456      111.78858      112.55281     -49895.243      3077.619       3782.0556      2041.3112    
    147000   200.07804      0.0147        -0.0027531675   27.531675     -1.3694809      14.972382      117.68616      111.72129      112.65664     -49893.911      3105.0405      3793.513       2044.2048    
    148000   201.33554      0.0148         8.891549e-05  -0.8891549     -0.53282501    -11.084325      117.69775      111.7097       112.64126     -49946.024      3034.8035      3783.2803      2050.6753    
    149000   200.73215      0.0149         0.0022181941  -22.181941      7.8073214     -7.4289569      117.70935      111.65142      112.63663     -49948.783      3003.3459      3822.1668      2038.7569    
    150000   199.32532      0.015          0.0078401129  -78.401129      28.898675      2.0081567      117.72095      111.7725       112.61943     -49829.946      3001.5474      3834.3939      2051.6694    
    151000   199.92371      0.0151         0.002503161   -25.03161      -24.732815     -11.242974      117.73255      111.57781      112.77399     -49959.43       3073.0418      3911.3009      2057.9217    
    152000   201.59436      0.0152        -0.0028883843   28.883843      4.4598979     -4.8699378      117.74415      111.76125      112.54035     -49957.482      3021.6606      3821.8328      2060.7759    
    153000   201.21647      0.0153         0.0078689678  -78.689678      2.8349651     -5.1763985      117.75574      111.82478      112.64432     -49865.401      3014.0705      3836.227       2041.428     
    154000   200.12256      0.0154         0.0038869484  -38.869484      8.739775      -13.118043      117.76734      111.47359      112.75318     -49973.46       3050.8199      3857.1648      2043.8935    
    155000   200.22786      0.0155         0.00081861715 -8.1861715      28.245866     -13.444229      117.77894      111.61036      112.59978     -49947.917      3024.9126      3848.9996      2035.6399    
    156000   199.92339      0.0156        -0.0001454497   1.454497      -32.506894      63.432065      117.79054      111.72956      112.5604      -49912.227      3027.7184      3797.2385      2050.5673    
    157000   200.09904      0.0157        -0.0011116733   11.116733     -3.7264617     -22.354457      117.80214      111.51977      112.67025     -50016.383      3088.1398      3853.4254      2043.6023    
    158000   199.16259      0.0158         0.00112574    -11.2574       -38.337744      1.0813666      117.81373      111.4741       112.8472      -49916.014      3099.6945      3800.0722      2044.2643    
    159000   198.71562      0.0159         0.0026643527  -26.643527      16.111403     -32.139873      117.82533      111.25204      112.89391     -49956.065      3081.037       3889.2223      2042.2975    
    160000   200.8782       0.016         -0.00059352045  5.9352045      9.6707227     -5.9162229      117.83693      111.47627      112.72871     -49988.793      3011.9196      3883.2016      2044.0005    
    161000   200.42813      0.0161         0.0051950136  -51.950136     -13.310479      5.6438791      117.84853      111.50847      113.0217      -49783.083      3060.9119      3775.298       2037.7162    
    162000   199.43833      0.0162         0.0041341893  -41.341893     -43.860009      0.65368037     117.86013      111.35521      112.74085     -50050.442      3064.5267      3937.2246      2043.8002    
    163000   199.33419      0.0163         0.0023345956  -23.345956      29.156527     -37.26253       117.87173      111.51811      112.64421     -49902.091      3039.6984      3881.8115      2030.0208    
    164000   199.27468      0.0164         0.0062106657  -62.106657      29.886261     -4.7021491      117.88332      111.34666      112.88018     -49855.691      3013.2348      3861.9531      2037.1644    
    165000   199.41791      0.0165         0.0038409971  -38.409971      25.164458      9.6396024      117.89492      111.37482      112.71518     -49922.392      3041.3688      3842.3911      2033.5128    
    166000   199.22672      0.0166         0.0015603858  -15.603858     -8.8572059      32.902508      117.90652      111.717        112.42743     -49914.359      3049.6275      3829.5614      2027.1886    
    167000   199.79227      0.0167         0.00063842928 -6.3842928      48.173        -7.8196087      117.91812      111.2591       112.90977     -49865.482      3050.2853      3816.8871      2025.0997    
    168000   199.1407       0.0168         0.0083631928  -83.631928     -14.621922      45.544366      117.92972      111.64713      112.65143     -49784.712      3010.7737      3820.7576      2026.6709    
    169000   199.45284      0.0169         0.0027673022  -27.673022     -22.699249      26.682945      117.94131      111.25786      112.78246     -50010.323      3053.9409      3886.3369      2028.8926    
    170000   198.78095      0.017          0.0079624312  -79.624312     -9.8152529      23.282985      117.95291      111.36388      112.72586     -49955.483      3039.6794      3905.0476      2040.3585    
    171000   198.3649       0.0171         0.012744501   -127.44501     -10.027921     -28.040474      117.96451      111.2124       113.01955     -49898.773      3010.8268      3840.9171      2028.2651    
    172000   198.63877      0.0172         0.0093821484  -93.821484     -3.1239934      27.004298      117.97611      111.23758      112.9182      -49860.617      3033.3096      3823.6328      2030.4422    
    173000   200.20619      0.0173         0.0017572422  -17.572422     -19.954492      5.3034156      117.98771      111.26061      112.75213     -49958.903      3073.7636      3840.9147      2032.5687    
    174000   200.04569      0.0174         0.0016967367  -16.967367      5.3183441      9.8793628      117.9993       111.25237      112.79996     -49930.503      3022.2801      3827.1968      2039.5348    
    175000   200.4396       0.0175         0.0048321687  -48.321687      12.142686      16.702926      118.0109       111.41763      112.60872     -49878.562      3026.2289      3836.4103      2026.775     
    176000   199.864        0.0176         0.0038138183  -38.138183     -22.142826      22.060813      118.0225       111.44113      112.6358      -49873.528      3040.826       3828.3961      2035.3262    
    177000   199.94383      0.0177         0.010189597   -101.89597      11.363161      20.046729      118.0341       111.44975      112.69499     -49836.642      3036.0484      3798.316       2031.3728    
    178000   199.44621      0.0178         0.0054104852  -54.104852      18.188549      21.468694      118.0457       111.44432      112.65451     -49864.643      3040.3397      3811.8278      2024.8735    
    179000   199.58198      0.0179         0.0027166607  -27.166607      23.63172      -12.608079      118.05729      111.51187      112.5842      -49890.415      3079.3724      3768.4314      2040.8505    
    180000   198.58951      0.018          0.0075669804  -75.669804      12.541821      0.63424422     118.06889      111.41325      112.66014     -49820.177      3053.2035      3822.6946      2028.6159    
    181000   200.05773      0.0181         0.0077865581  -77.865581      26.183707     -0.51122051     118.08049      111.40287      112.5893      -49839.273      3027.1012      3880.4374      2014.1317    
    182000   199.92637      0.0182         0.0072173236  -72.173236     -16.023692     -16.09937       118.09209      111.44836      112.72908     -49853.678      2993.4083      3839.7214      2032.4564    
    183000   202.02527      0.0183         0.0083579842  -83.579842     -19.726891      23.753049      118.10369      111.57797      112.55547     -49853.806      3005.6069      3810.1188      2027.7909    
    184000   199.98191      0.0184         0.0055734479  -55.734479     -25.580927     -4.4547974      118.11529      111.66513      112.52674     -49791.93       3023.9755      3738.5248      2026.1669    
    185000   200.66445      0.0185         0.0072632069  -72.632069     -12.383162     -21.861139      118.12688      111.61533      112.44037     -49903.962      3013.925       3832.461       2036.5349    
    186000   201.90781      0.0186         0.0018479768  -18.479768      10.407022      26.220816      118.13848      111.38952      112.48187     -49934.55       3016.2262      3855.1685      2035.7245    
    187000   201.06568      0.0187         0.0056667795  -56.667795      14.167041     -1.4076642      118.15008      111.45176      112.55197     -49907.362      3001.992       3853.0095      2030.9603    
    188000   200.12796      0.0188         0.0086969082  -86.969082     -13.451028     -19.845004      118.16168      111.48778      112.57921     -49859.359      3039.8661      3793.0799      2024.0662    
    189000   200.68506      0.0189         0.011518642   -115.18642     -8.8772722      10.30075       118.17328      111.43674      112.54899     -49884.861      3012.7922      3815.9688      2031.9791    
    190000   198.93127      0.019          0.01005654    -100.5654      -6.3149907      1.955885       118.18487      111.63527      112.32567     -49947.414      3086.7705      3825.3547      2034.4113    
    191000   200.30884      0.0191         0.0035799254  -35.799254     -5.5652483      17.521171      118.19647      111.61389      112.14738     -49962.141      3042.5513      3839.862       2028.8287    
    192000   199.59123      0.0192         0.0042393378  -42.393378     -22.884925     -24.744114      118.20807      111.65496      112.41538     -49810.971      3045.7743      3801.1053      2034.6137    
    193000   201.61627      0.0193         0.0048391402  -48.391402     -11.578257      13.876623      118.21967      111.61478      112.37055     -49888.662      3024.6094      3835.6373      2028.958     
    194000   200.7503       0.0194         0.0065707304  -65.707304     -39.922535     -36.905364      118.23127      111.77323      112.35562     -49813.393      3009.6597      3749.0099      2041.3354    
    195000   200.49704      0.0195         0.0053508974  -53.508974      12.896057      1.0963651      118.24286      111.51387      112.28932     -49923.322      3036.5881      3845.1098      2030.344     
    196000   199.16477      0.0196         0.0031074957  -31.074957      3.7591746     -36.146548      118.25446      111.44408      112.49955     -49893.084      3073.7768      3796.6438      2035.7457    
    197000   199.33826      0.0197         0.0005486221  -5.486221       15.928822     -9.2720927      118.26606      111.65509      112.06765     -49916.676      3053.2351      3769.5871      2045.4649    
    198000   199.28596      0.0198         0.0031350586  -31.350586      6.5278082      26.161978      118.27766      111.62033      112.23913     -49818.107      3013.4831      3749.4478      2029.9986    
    199000   201.05778      0.0199         0.014818494   -148.18494     -27.401432     -4.6124827      118.28926      111.64283      112.34933     -49849.051      3020.1174      3782.0465      2040.1065    
    200000   198.9092       0.02           0.0084167627  -84.167627      16.008157     -6.5788873      118.30086      111.52692      112.35327     -49877.667      3067.0634      3813.5761      2043.324     
    201000   198.46347      0.0201        -0.0015581374   15.581374     -12.835723      7.3498202      118.31245      111.68406      112.19962     -49828.814      3066.8985      3726.5123      2047.4637    
    202000   200.8148       0.0202         0.0079987872  -79.987872     -34.846015      35.717776      118.32405      111.68984      112.18852     -49824.41       3029.1061      3760.1104      2036.5863    
    203000   198.32489      0.0203         0.0061898328  -61.898328     -14.302297      24.511485      118.33565      111.68159      112.16694     -49875.403      3028.7989      3735.7411      2043.6391    
    204000   201.65811      0.0204         0.0065085155  -65.085155     -17.157968      3.6866145      118.34725      111.62199      112.21924     -49901.078      3031.0562      3769.3279      2040.6767    
    205000   198.78346      0.0205         0.012336669   -123.36669     -16.258453      27.144685      118.35885      111.74328      112.22384     -49827.358      3082.427       3753.7969      2034.2474    
    206000   200.25637      0.0206         0.010073946   -100.73946     -12.686817      9.1176089      118.37044      111.60616      112.41436     -49800.419      3044.0172      3714.0565      2045.1956    
    207000   199.44983      0.0207         0.0063647102  -63.647102      0.467999       16.863108      118.38204      111.79847      112.05317     -49809.651      3012.4021      3755.3303      2045.3063    
    208000   199.80376      0.0208         0.0063720399  -63.720399     -9.9318495      7.3425476      118.39364      111.52366      112.31824     -49856.779      3034.5493      3839.9889      2046.9134    
    209000   200.54079      0.0209         0.01080978    -108.0978      -22.994832      18.357054      118.40524      111.47138      112.31747     -49965.75       3056.5248      3783.2843      2046.4285    
    210000   199.26206      0.021          0.0014960274  -14.960274      47.422773     -40.555411      118.41684      111.39488      112.50926     -49842.091      3056.2914      3746.9068      2040.9755    
    211000   201.9334       0.0211         0.0011712122  -11.712122     -9.6531925      13.70622       118.42843      111.4659       112.27282     -49941.236      2996.0538      3745.2992      2046.4644    
    212000   199.52877      0.0212         0.0094261573  -94.261573     -35.906391      22.510081      118.44003      111.60201      112.36504     -49745.324      3051.0442      3662.304       2045.3945    
    213000   200.15179      0.0213         0.010801626   -108.01626      21.757033     -29.732178      118.45163      111.46412      112.37235     -49836.857      3022.5836      3770.1439      2045.383     
    214000   200.18834      0.0214         0.0044357165  -44.357165     -60.84624       9.3618591      118.46323      111.49509      112.39324     -49789.132      3006.35        3731.2574      2053.4097    
    215000   199.33293      0.0215         0.004115287   -41.15287       13.622496      25.462167      118.47483      111.39261      112.44628     -49708.259      3017.6341      3755.4619      2039.4059    
    216000   200.11396      0.0216         0.010540628   -105.40628     -17.535026      0.18082989     118.48643      111.44703      112.43134     -49812.896      2990.5845      3766.9118      2041.9072    
    217000   200.43096      0.0217         0.0010820582  -10.820582     -20.638359      4.247296       118.49802      111.38081      112.17256     -49929.702      3070.7059      3836.8526      2040.4546    
    218000   199.84848      0.0218         0.0054825238  -54.825238     -13.189723      9.2274545      118.50962      111.57119      112.08616     -49916.532      3037.8025      3777.6076      2040.8297    
    219000   200.06313      0.0219         0.0095571476  -95.571476     -9.5164639     -44.840103      118.52122      111.61104      112.33586     -49779.827      3071.6892      3733.8254      2051.4224    
    220000   198.9461       0.022          0.0077208903  -77.208903     -22.447122      28.561929      118.53282      111.72688      112.04138     -49818.347      3065.066       3779.6697      2035.768     
    221000   199.65982      0.0221         0.0084858486  -84.858486      12.429377     -5.4189155      118.54442      111.5112       112.13231     -49842.63       3016.6839      3771.2675      2035.5854    
    222000   199.84241      0.0222         0.0061524017  -61.524017      15.200046      20.685681      118.55601      111.40289      112.17481     -49840.804      3037.3045      3819.8819      2036.7718    
    223000   202.06498      0.0223         0.006125401   -61.25401      -0.34081823    -20.177299      118.56761      111.5246       111.96537     -50000.147      3018.1181      3807.4924      2025.0124    
    224000   198.57063      0.0224         0.0037112544  -37.112544     -21.678913      3.9568243      118.57921      111.3636       112.29477     -49882.076      3101.1974      3833.4576      2035.2981    
    225000   200.31653      0.0225         0.0080381513  -80.381513      4.259132      -30.651569      118.59081      111.25236      112.33953     -49972.551      3028.987       3813.7812      2038.626     
    226000   200.545        0.0226         0.0045837283  -45.837283      39.146101     -28.288225      118.60241      111.12015      112.36641     -49973.311      3068.7947      3788.4956      2041.1052    
    227000   200.68899      0.0227         0.0070479671  -70.479671     -18.045173      8.7428324      118.614        111.36448      112.12564     -49980.671      3060.432       3841.2606      2044.0134    
    228000   201.24908      0.0228         0.011837942   -118.37942      12.921263     -45.774258      118.6256       111.22403      112.40927     -49928.534      3033.5706      3760.8576      2043.3682    
    229000   200.75637      0.0229         0.0046974771  -46.974771      22.333247     -2.4143426      118.6372       111.15905      112.35829     -49908.159      3017.5513      3806.2254      2039.9968    
    230000   200.19685      0.023          0.002837316   -28.37316      -11.137525      16.152412      118.6488       111.4029       112.10643     -49913.947      3014.1797      3772.2242      2036.5202    
    231000   199.83582      0.0231         0.01060966    -106.0966       17.177202     -25.224166      118.6604       111.4096       112.18422     -49901.714      3031.1924      3781.1405      2036.6613    
    232000   200.45933      0.0232         0.0077720432  -77.720432     -7.9491134      16.574024      118.672        111.34559      112.13211     -49917.009      3002.4503      3812.857       2030.5656    
    233000   199.73391      0.0233         0.002459788   -24.59788      -7.4456865     -1.3438544      118.68359      111.09915      112.20508     -49997.037      3044.9263      3867.6386      2029.0825    
    234000   200.49198      0.0234         0.0040809013  -40.809013      50.561289     -25.266672      118.69519      111.10454      112.21111     -50001.665      3062.1222      3859.9944      2033.2992    
    235000   199.89282      0.0235         0.010926461   -109.26461      10.835437     -31.014242      118.70679      111.17649      112.15996     -50003.666      3018.046       3834.961       2035.9804    
    236000   200.48072      0.0236         0.0081541464  -81.541464      22.627834     -34.911284      118.71839      111.08594      112.40853     -49870.566      2995.9201      3770.536       2044.1572    
    237000   199.93203      0.0237         0.0063558312  -63.558312     -20.924188     -6.7194425      118.72999      111.44758      111.99046     -49955.242      3097.8939      3757.2455      2042.4853    
    238000   199.40353      0.0238         0.010279847   -102.79847     -6.0369827     -20.004505      118.74158      111.03694      112.39138     -49947.925      3062.0618      3824.91        2038.6874    
    239000   200.70355      0.0239         0.01255664    -125.5664      -9.7804533      39.637748      118.75318      111.29044      112.2496      -49865.902      3021.1016      3827.9658      2034.0113    
    240000   200.43206      0.024          0.0085895189  -85.895189      21.392534     -12.655153      118.76478      111.0692       112.36787     -49887.801      2991.7978      3747.5287      2038.5741    
    241000   199.59249      0.0241         0.011953143   -119.53143      10.228436     -4.7513403      118.77638      110.95431      112.45318     -49918.937      3063.2099      3798.6306      2036.6555    
    242000   200.71444      0.0242         0.0086323011  -86.323011     -16.185        -24.162109      118.78798      111.24858      112.23871     -49905.865      3039.7993      3800.202       2041.9085    
    243000   199.9505       0.0243         0.0083412886  -83.412886     -10.077642      16.812693      118.79957      111.44128      111.9487      -49929.71       3020.9773      3800.3916      2046.1626    
    244000   200.50686      0.0244         0.00091461668 -9.1461668      62.611761     -1.4668019      118.81117      111.18281      112.0413      -49927.913      3054.0166      3745.1159      2026.5593    
    245000   200.60321      0.0245         0.011053997   -110.53997     -31.044769      31.399064      118.82277      111.22896      112.13104     -49922.06       3027.4742      3757.9669      2032.0671    
    246000   199.80636      0.0246         0.0023790433  -23.790433     -3.9569644     -1.7319119      118.83437      111.31861      112.0251      -49908.451      3017.6794      3773.2974      2029.998     
    247000   200.45966      0.0247         0.0055442898  -55.442898     -23.960995     -38.881279      118.84597      111.38873      112.12503     -49825.494      3022.6398      3710.538       2035.5247    
    248000   200.24105      0.0248         0.013247271   -132.47271     -13.788218      3.7998733      118.85757      111.3315       112.0083      -49894.877      3009.124       3777.3725      2041.8621    
    249000   198.53434      0.0249         0.0052576264  -52.576264      38.050196     -9.0002427      118.86916      111.17062      112.16665     -49879.161      3070.8273      3779.0548      2040.2259    
    250000   200.36801      0.025          0.0088415494  -88.415494      7.7984209      39.349365      118.88076      111.09102      112.20628     -49912.053      3061.8327      3778.9515      2045.5564    
    251000   201.0108       0.0251         0.0082316904  -82.316904      8.8883047      8.2641426      118.89236      111.29254      112.05705     -49871.865      3032.4321      3751.9673      2027.7491    
    252000   199.34559      0.0252         0.010479348   -104.79348      9.192948      -15.365838      118.90396      111.49863      112.07897     -49767.543      3080.4828      3693.1013      2048.4732    
    253000   199.39749      0.0253         0.0079635477  -79.635477      8.6681447     -16.740293      118.91556      111.2757       112.14935     -49856.415      3069.2192      3715.076       2041.7935    
    254000   201.20019      0.0254         0.0065645439  -65.645439     -2.4391799     -16.599135      118.92715      111.31921      112.13814     -49887.584      3001.4828      3756.924       2045.7652    
    255000   199.51663      0.0255         0.0025409302  -25.409302      12.775639     -29.116766      118.93875      111.09797      112.21252     -49889.004      3027.6155      3758.7725      2032.5925    
    256000   200.17582      0.0256         0.005243644   -52.43644       10.493015      21.861787      118.95035      111.15772      112.16937     -49831.063      3010.8227      3657.2021      2047.4623    
    257000   199.31479      0.0257         0.0081233656  -81.233656     -8.5191933     -25.049787      118.96195      111.10398      112.15974     -49906.79       3040.218       3775.1163      2020.3077    
    258000   199.4527       0.0258         0.010310368   -103.10368     -16.101795     -11.481353      118.97355      111.14588      112.27536     -49841.623      3043.7596      3762.9824      2034.4694    
    259000   199.95455      0.0259         0.0025809479  -25.809479      12.509887      22.528673      118.98514      111.24337      112.00592     -49875.497      3044.7866      3717.5774      2041.4946    
    260000   198.49623      0.026          0.003937159   -39.37159      -31.3078       -15.829142      118.99674      111.16758      112.10455     -49901.69       3089.4397      3791.3951      2041.9902    
    261000   200.68744      0.0261         0.0048570441  -48.570441     -27.404557      29.836575      119.00834      111.0878       112.04258     -49970.158      3027.4463      3777.0502      2038.6829    
    262000   200.6309       0.0262         0.004240014   -42.40014      -17.334067      21.114348      119.01994      110.92263      112.17911     -49907.295      3048.3785      3763.4811      2038.6746    
    263000   198.85365      0.0263         0.012687632   -126.87632     -46.014831     -5.3745887      119.03154      111.01363      112.34696     -49837.607      3014.449       3727.962       2042.0533    
    264000   199.87848      0.0264         0.0077008499  -77.008499     -23.155515     -3.5962696      119.04314      110.96016      112.23437     -49887.412      2998.8213      3797.3938      2036.2009    
    265000   201.64148      0.0265         0.012126772   -121.26772      39.466574      14.580673      119.05473      110.61425      112.44472     -49996          3001.5266      3809.4462      2041.4772    
    266000   199.91303      0.0266         0.0068139642  -68.139642     -14.467002      12.19213       119.06633      110.95084      112.33272     -49813.255      3016.9544      3711.1004      2044.8386    
    267000   200.17363      0.0267         0.0087403594  -87.403594     -20.883474     -23.861506      119.07793      111.01454      112.42305     -49827.005      3022.3229      3718.0863      2050.8405    
    268000   200.50068      0.0268         0.008371852   -83.71852      -8.786589      -64.319995      119.08953      111.08331      112.20825     -49889.111      3014.6829      3737.0141      2042.6802    
    269000   199.13973      0.0269         9.8369908e-05 -0.98369908    -11.439987      42.63725       119.10113      111.14784      112.05903     -49765.226      3016.6146      3763.9698      2030.5666    
    270000   200.40966      0.027          0.0047307255  -47.307255      21.60672       3.3681069      119.11272      110.75258      112.35986     -49896.817      3026.6396      3755.7824      2036.2805    
    271000   199.98672      0.0271         0.0010466225  -10.466225     -3.1690609     -30.794347      119.12432      110.805        112.33546     -49990.136      3055.0141      3820.59        2039.9385    
    272000   199.5068       0.0272         0.0029344601  -29.344601      12.694417     -10.06937       119.13592      110.89861      112.28549     -49863.333      3053.8427      3733.973       2026.7919    
    273000   200.3272       0.0273         0.00023158413 -2.3158413      12.601425      8.0931159      119.14752      110.86606      112.24076     -49847.717      3005.3255      3720.3763      2031.751     
    274000   200.78412      0.0274         0.0050461911  -50.461911      22.018119     -7.3135508      119.15912      111.07068      112.11341     -49837.697      3040.9834      3687.9482      2024.3364    
    275000   200.01816      0.0275         0.011109009   -111.09009     -1.9479514      3.1879414      119.17071      111.18275      111.92504     -49872.232      3039.7412      3761.0022      2034.1699    
    276000   200.31921      0.0276         0.0080640892  -80.640892     -5.7522799     -12.949815      119.18231      111.21916      111.92636     -49950.833      3058.2148      3710.0975      2042.4588    
    277000   199.29094      0.0277         0.0082854555  -82.854555     -32.605129      31.877341      119.19391      111.20711      112.02602     -49797.596      3032.031       3698.5851      2032.8254    
    278000   199.37719      0.0278         0.0096300094  -96.300094     -37.147407     -2.0877931      119.20551      111.33238      111.83588     -49857.838      3028.812       3747.775       2030.0885    
    279000   201.68754      0.0279         0.0098750265  -98.750265     -44.878509      1.7108989      119.21711      111.12601      111.90439     -49991.833      3020.6014      3773.0617      2034.2402    
    280000   200.58139      0.028          0.0038976732  -38.976732     -10.363714     -12.334815      119.22871      111.01516      112.03633     -49898.021      3053.526       3698.0035      2025.2153    
    281000   200.22955      0.0281         0.0038553975  -38.553975      12.590912      4.0673006      119.2403       110.93469      111.99766     -49942.317      3036.258       3758.5373      2033.5769    
    282000   199.01076      0.0282         0.0012313961  -12.313961      7.3143564      26.403429      119.2519       111.12216      111.87717     -49904.603      3008.6719      3781.1536      2040.0934    
    283000   199.34392      0.0283         0.0048467613  -48.467613     -1.4556911     -23.824089      119.2635       111.05154      112.08343     -49865.941      3036.7539      3774.9504      2031.2311    
    284000   200.00932      0.0284         0.0055784533  -55.784533     -35.440435      14.443056      119.2751       111.06499      112.05356     -49827.808      3068.2962      3667.6911      2024.6147    
    285000   200.91891      0.0285         0.001851373   -18.51373       3.4663159      15.417452      119.2867       111.244        111.82157     -49840.475      2999.8892      3727.9667      2038.4649    
    286000   198.87012      0.0286         0.0082360695  -82.360695      13.793664      5.885086       119.29829      111.29589      111.78462     -49816.583      3020.5467      3665.6508      2041.0754    
    287000   199.57293      0.0287         0.013582247   -135.82247     -8.4981095      21.5725        119.30989      111.35452      111.63624     -49890.024      3005.3883      3765.4897      2032.3139    
    288000   200.88832      0.0288         0.0045176667  -45.176667      0.31117963     19.573713      119.32149      111.32524      111.63608     -49899.527      3025.3911      3747.408       2025.379     
    289000   200.49034      0.0289         0.0069858865  -69.858865      1.0419855      44.915478      119.33309      111.41024      111.59335     -49893.749      3035.7202      3722.0848      2033.8032    
    290000   200.1558       0.029          0.0067014428  -67.014428      47.848387     -15.40596       119.34469      111.28254      111.72775     -49861.615      3039.6163      3706.8656      2038.9504    
    291000   200.76065      0.0291         0.0005466425  -5.466425       10.511912     -13.277351      119.35628      111.28785      111.71171     -49878.568      3039.3782      3677.7095      2036.8367    
    292000   199.65673      0.0292         0.009263112   -92.63112      -35.579794      21.916349      119.36788      111.26746      111.73042     -49889.289      3065.9866      3714.1084      2023.1097    
    293000   200.06658      0.0293         0.0045943784  -45.943784      5.5153424     -18.715995      119.37948      111.01588      111.8852      -49894.378      3036.4039      3716.174       2038.2442    
    294000   201.44163      0.0294         0.0067654503  -67.654503     -23.292579     -19.700442      119.39108      111.25287      111.67328     -50006.359      3053.8787      3735.4531      2036.4025    
    295000   198.94914      0.0295         0.0059493677  -59.493677      17.98802       51.589787      119.40268      111.11634      111.60089     -49938.122      3040.752       3788.6587      2029.4125    
    296000   199.99493      0.0296         0.008739854   -87.39854      -3.3865748      19.303422      119.41428      111.07425      111.86368     -49885.675      2955.6021      3759.7214      2036.897     
    297000   200.46979      0.0297         0.0086142354  -86.142354     -27.022357      11.586676      119.42587      111.0609       111.85334     -49858.345      3046.9297      3677.0206      2035.9399    
    298000   200.73173      0.0298         0.0051469945  -51.469945      1.7731245      2.2075089      119.43747      111.07964      111.84754     -49918.146      3011.1828      3722.9163      2044.3117    
    299000   200.40146      0.0299         0.0073925335  -73.925335      32.17503       12.705787      119.44907      111.10732      111.77053     -49863.623      3030.2377      3711.3509      2042.4538    
    300000   200.27913      0.03           0.0073108237  -73.108237      7.8891885     -39.002217      119.46067      111.20841      111.73551     -49894.944      3031.3012      3747.259       2030.7274    
    301000   199.90003      0.0301         0.0069848372  -69.848372     -26.549555      13.795165      119.47227      111.22288      111.6976      -49849.572      3005.6592      3738.1143      2030.4567    
    302000   199.0933       0.0302         0.0033379675  -33.379675     -45.058078     -7.2100919      119.48386      111.17144      111.64479     -49915.218      3050.4512      3786.5533      2019.3455    
    303000   198.70954      0.0303         0.012910413   -129.10413     -6.4368699     -22.565945      119.49546      111.05915      111.87021     -49871.96       3008.5596      3713.9795      2024.7885    
    304000   198.69277      0.0304         0.013885285   -138.85285      11.22933       24.510565      119.50706      111.14148      111.60502     -49895.395      2993.6862      3736.0724      2024.1468    
    305000   199.56039      0.0305         0.014185369   -141.85369      9.0357434      34.683862      119.51866      111.23711      111.76578     -49755.161      3021.2492      3673.1208      2029.3628    
    306000   201.09625      0.0306         0.010773481   -107.73481     -5.8893563      21.931179      119.53026      111.17761      111.72642     -49889.411      2977.5251      3700.0434      2016.9121    
    307000   200.70559      0.0307         0.012067464   -120.67464     -6.923435      -29.852524      119.54185      111.32568      111.64742     -49821.762      3032.4115      3741.6465      2016.9954    
    308000   199.77823      0.0308         0.0032316602  -32.316602     -30.873583      17.755161      119.55345      111.12339      111.75759     -49823.386      3024.4382      3702.2077      2013.5265    
    309000   200.44479      0.0309         0.0086709494  -86.709494      1.3821        -0.03491254     119.56505      110.97587      111.86943     -49840.97       2981.5728      3765.6754      2020.6171    
    310000   200.69165      0.031          0.0061663178  -61.663178     -10.040158     -18.641087      119.57665      111.38243      111.59312     -49806.22       3020.6395      3693.838       2024.424     
    311000   200.18099      0.0311         0.0050643915  -50.643915     -6.4296759      32.818002      119.58825      111.05934      111.56838     -49962.604      3045.0086      3792.6163      2029.2384    
    312000   200.11372      0.0312         0.0050488483  -50.488483      7.5127045      12.718298      119.59985      111.14839      111.65598     -49790.345      3051.8496      3681.4408      2021.5641    
    313000   201.33339      0.0313         0.008164824   -81.64824       22.554211     -26.049411      119.61144      110.91317      111.81072     -49885.091      3055.7071      3667.4633      2020.2001    
    314000   200.42337      0.0314         0.0061874773  -61.874773     -23.065606      21.35772       119.62304      111.12708      111.61665     -49895.207      3029.4383      3730.5076      2026.8177    
    315000   200.91021      0.0315         0.0047657955  -47.657955     -16.582163     -31.595243      119.63464      111.04519      111.5681      -50008.341      3059.9911      3761.818       2031.7144    
    316000   201.64047      0.0316         0.0037536329  -37.536329     -2.5118023     -18.118727      119.64624      110.84997      111.72303     -49990.757      2995.7341      3764.5415      2030.395     
    317000   198.86024      0.0317         0.0066970589  -66.970589     -20.730435      40.302305      119.65784      110.92064      111.71934     -49875.111      2999.1824      3744.2297      2030.2172    
    318000   199.50794      0.0318         0.01170345    -117.0345       1.1560832      25.339773      119.66943      110.92992      111.73652     -49886.844      3016.8693      3802.7391      2027.057     
    319000   199.18606      0.0319         0.0083523781  -83.523781      6.962024       20.297078      119.68103      110.99779      111.68006     -49814.226      3026.1385      3673.3972      2034.2116    
    320000   199.74338      0.032          0.011126802   -111.26802      15.623938     -21.280939      119.69263      110.9566       111.78357     -49908.813      3032.7022      3751.5419      2035.3778    
    321000   198.81425      0.0321         0.012223797   -122.23797      14.742866     -9.4943172      119.70423      111.0262       111.62395     -49863.932      3056.9348      3714.9864      2029.1546    
    322000   200.2115       0.0322         0.014245311   -142.45311     -16.618889     -19.271607      119.71583      110.81382      111.86197     -49940.257      3047.1699      3726.1247      2030.6102    
    323000   199.33723      0.0323         0.014672804   -146.72804     -15.019009      4.6843606      119.72742      111.00788      111.65382     -49878.623      3065.2883      3706.8347      2031.9521    
    324000   200.74178      0.0324         0.0090306706  -90.306706     -7.7939242      19.093925      119.73902      110.87994      111.61896     -49942.029      2984.5715      3742.7376      2023.4925    
    325000   199.08326      0.0325         0.00581907    -58.1907       -11.523809      30.896055      119.75062      110.99384      111.57777     -49870.523      3009.6605      3760.8931      2026.5294    
    326000   200.9033       0.0326         0.006822441   -68.22441      -5.6806852      10.794568      119.76222      110.7706       111.80623     -49910.206      3021.4631      3684.9104      2028.8833    
    327000   198.9939       0.0327         0.010125392   -101.25392      31.032326      9.2844759      119.77382      110.67283      111.68282     -49999.266      3052.2788      3764.3688      2022.0705    
    328000   200.32541      0.0328         0.013693048   -136.93048      16.08992      -2.211107       119.78542      110.78969      111.67422     -49990.324      3038.9771      3740.0744      2031.7077    
    329000   200.56895      0.0329         0.0066844174  -66.844174     -22.628308      47.318572      119.79701      110.90937      111.59024     -49920.937      3056.7528      3745.5975      2025.8672    
    330000   199.63244      0.033          0.007714322   -77.14322       30.85238      -22.948045      119.80861      110.81804      111.72157     -49877.639      3074.0231      3715.7207      2027.5219    
    331000   200.52567      0.0331         0.007289636   -72.89636      -8.4137836     -15.924194      119.82021      110.85315      111.62573     -49948.581      3049.0798      3710.4069      2022.5992    
    332000   199.85845      0.0332         0.0062271843  -62.271843      14.322856     -6.366451       119.83181      110.58085      111.72144     -49999.777      3042.2179      3739.6882      2013.3353    
    333000   200.47037      0.0333         0.014507483   -145.07483      7.5930969     -36.502391      119.84341      110.63897      111.94358     -49850.833      2991.7894      3713.6036      2024.5525    
    334000   200.45699      0.0334         0.0085731278  -85.731278      9.7220014      23.905679      119.855        110.66386      111.77549     -49933.26       3030.9352      3772.5454      2018.6565    
    335000   198.74049      0.0335         0.0090920773  -90.920773     -16.624896     -29.90469       119.8666       110.83654      111.84286     -49799.167      3022.3729      3702.9588      2017.8966    
    336000   198.348        0.0336         0.0040967023  -40.967023     -26.305496      8.5498105      119.8782       110.83025      111.63744     -49855.444      3025.6914      3743.9571      2010.0057    
    337000   199.27984      0.0337         0.0091539983  -91.539983     -51.349834      21.525555      119.8898       110.78836      111.6182      -49913.98       2999.5674      3794.3059      2019.8212    
    338000   200.60376      0.0338         0.014016167   -140.16167      1.5821063     -15.806224      119.9014       110.75343      111.72502     -49902.087      3026.1803      3698.7546      2016.458     
    339000   200.54707      0.0339         0.011787826   -117.87826     -0.40259615    -4.5199346      119.91299      110.68184      111.50785     -50031.07       2997.48        3797.7622      2025.8318    
    340000   197.52353      0.034          0.010526878   -105.26878     -0.60952937    -26.500905      119.92459      110.67854      111.7407      -49868.403      3082.5423      3698.747       2025.87      
    341000   200.19102      0.0341         0.0071801765  -71.801765     -12.394865     -1.0572507      119.93619      110.8559       111.51399     -49900.14       2993.3954      3736.5604      2031.3939    
    342000   200.41731      0.0342         0.008014577   -80.14577      -1.7984267      15.908546      119.94779      110.72327      111.60899     -49862.09       2985.4909      3759.3911      2031.7873    
    343000   199.14026      0.0343         0.010725081   -107.25081     -14.116561      3.5437592      119.95939      110.7428       111.56113     -49955.043      3057.1225      3762.7017      2037.7599    
    344000   199.97816      0.0344         0.0072304414  -72.304414      13.758074     -27.845652      119.97099      110.61101      111.74784     -49891.902      3020.6764      3697.9194      2035.7211    
    345000   200.22016      0.0345         0.0083641899  -83.641899     -10.163598     -42.507871      119.98258      110.56502      111.78269     -49895.684      3030.6107      3712.6662      2036.3663    
    346000   199.82446      0.0346         0.0062918646  -62.918646     -24.359849     -26.333429      119.99418      110.61444      111.72398     -49924.223      3034.2524      3740.4642      2033.8121    
    347000   199.62492      0.0347         0.0032882573  -32.882573      35.617583      15.779675      120.00578      110.52479      111.53541     -49984.795      3019.7395      3738.199       2020.808     
    348000   200.23439      0.0348         0.00888773    -88.8773       -4.6278171     -40.287786      120.01738      110.86585      111.59349     -49855.838      2999.321       3703.1838      2023.3952    
    349000   199.66638      0.0349         0.0045728307  -45.728307     -36.219367     -14.907975      120.02898      110.7738       111.55574     -49928.075      3045.324       3737.8432      2018.9134    
    350000   200.08501      0.035          0.00030381273 -3.0381273     -6.0728917     -19.899195      120.04057      110.70843      111.49896     -49976.41       3033.6         3714.1712      2026.8423    
    351000   199.38393      0.0351         0.0084939841  -84.939841     -9.8865919     -15.977479      120.05217      110.91712      111.48569     -49958.832      3074.9212      3747.8537      2025.6552    
    352000   199.02115      0.0352         0.0074673707  -74.673707     -4.8693093     -14.743808      120.06377      110.88789      111.39099     -49942.171      3045.9263      3731.3816      2024.6553    
    353000   200.0263       0.0353         0.019272649   -192.72649     -26.810057      8.4446051      120.07537      110.83294      111.4962      -49973.1        3078.7565      3794.7283      2027.9014    
    354000   199.32838      0.0354         0.011417041   -114.17041     -16.371941     -31.387057      120.08697      110.82113      111.48923     -49970.048      3007.9711      3729.4163      2033.4457    
    355000   199.57357      0.0355         0.011274834   -112.74834     -2.4843511     -15.573325      120.09856      110.64639      111.55792     -49971.981      3069.8445      3670.8634      2026.3828    
    356000   199.80189      0.0356         0.004619482   -46.19482      -16.70874       38.800897      120.11016      110.7759       111.38052     -49940.952      3032.6312      3677.0921      2035.6334    
    357000   200.30576      0.0357         0.008249207   -82.49207       31.371662     -20.726         120.12176      110.5443       111.50334     -50009.198      3014.694       3761.5825      2028.7835    
    358000   200.88495      0.0358         0.010375656   -103.75656     -28.388714      2.7995363      120.13336      110.59259      111.61864     -49946.294      3014.8317      3743.9986      2025.3602    
    359000   199.77503      0.0359         0.01136001    -113.6001      -7.8141499      31.27081       120.14496      110.64157      111.67498     -49834.921      3010.8231      3713.2436      2030.4824    
    360000   202.33293      0.036         -0.00015945386  1.5945386      19.892274     -17.327448      120.15656      110.62164      111.54514     -49943.376      3017.9297      3630.6373      2033.5338    
    361000   201.53214      0.0361         0.0016890418  -16.890418     -32.033369      19.146973      120.16815      110.49004      111.53574     -50070.967      3017.1806      3768.4767      2028.4027    
    362000   200.54303      0.0362         0.0071872812  -71.872812     -18.632473      12.883803      120.17975      110.39829      111.58852     -50042.532      3025.1467      3773.7247      2033.8544    
    363000   199.99828      0.0363         0.0053031655  -53.031655      11.406602      2.2596392      120.19135      110.48606      111.7457      -49825.556      3018.2775      3662.213       2027.8212    
    364000   199.59783      0.0364         0.0058388307  -58.388307      7.6221758      37.301643      120.20295      110.57781      111.5431      -49872.691      3012.4436      3673.8774      2033.9581    
    365000   200.31006      0.0365         0.0087908611  -87.908611      13.00132       10.218574      120.21455      110.65481      111.48135     -49932.8        3038.04        3655.4208      2025.241     
    366000   199.8397       0.0366         0.0086002474  -86.002474      3.6618605     -19.156549      120.22614      110.47427      111.66507     -49861.905      3015.5315      3682.6115      2028.3579    
    367000   199.55001      0.0367         0.0034095364  -34.095364     -0.61708386     4.3876162      120.23774      110.51916      111.52457     -49950.902      3038.4724      3692.1276      2022.0344    
    368000   199.11864      0.0368         0.0047571482  -47.571482      5.722166       35.16725       120.24934      110.38007      111.73829     -49865.463      3040.3079      3650.772       2016.3527    
    369000   200.32401      0.0369         0.0070090641  -70.090641      9.8254482      0.58663295     120.26094      110.41242      111.69583     -49894.96       3021.3698      3688.018       2027.2464    
    370000   199.49142      0.037          0.0029274305  -29.274305     -11.445766      5.5018533      120.27254      110.3954       111.73024     -49876.185      3040.0026      3742.6252      2019.5339    
    371000   199.38735      0.0371         0.0052135568  -52.135568      33.468631     -1.5676061      120.28413      110.30547      111.81136     -49876.772      3043.3295      3658.6483      2023.8832    
    372000   198.3104       0.0372         0.0092452616  -92.452616      12.16992      -14.653056      120.29573      110.49468      111.75568     -49821.561      3089.1355      3669.9703      2017.1326    
    373000   200.47507      0.0373         0.0050879671  -50.879671      13.128357     -10.61153       120.30733      110.26787      111.63439     -50042.338      3028.2636      3799.7979      2020.6988    
    374000   200.42676      0.0374         0.0083386992  -83.386992      17.225537      2.4737712      120.31893      110.28338      111.75306     -49908.354      3040.9147      3743.1161      2011.8508    
    375000   199.64501      0.0375         0.014651944   -146.51944     -7.4470189     -17.963813      120.33053      110.16905      112.0352      -49841.124      3012.211       3726.7904      2013.6707    
    376000   200.84386      0.0376         0.0080711224  -80.711224      16.542917     -26.710382      120.34213      110.1657       111.94504     -49885.164      3004.5615      3775.1049      2017.0308    
    377000   200.53238      0.0377         0.0061463948  -61.463948      24.766196     -5.1313118      120.35372      110.12695      111.81365     -49929.087      2987.3052      3722.4561      2020.0846    
    378000   200.55284      0.0378         0.00681833    -68.1833       -4.0258955     -15.415054      120.36532      110.36545      111.73297     -49868.406      2970.4969      3717.4428      2022.7769    
    379000   198.61953      0.0379         0.011120073   -111.20073      27.704504      6.4492167      120.37692      110.3192       111.71997     -49819.346      3015.1453      3720.8972      2013.7965    
    380000   199.53593      0.038          0.0099224672  -99.224672     -27.265145      50.479272      120.38852      110.56453      111.47831     -49837.821      2993.1973      3736.5699      2019.3671    
    381000   200.58353      0.0381         0.0069544608  -69.544608     -22.321298      34.3736        120.40012      110.37665      111.64783     -49886.306      3046.5087      3760.4481      2014.9631    
    382000   201.40902      0.0382         0.01236826    -123.6826      -2.4442024     -4.0352685      120.41171      110.06392      112.06499     -49887.651      2984.9116      3681.5696      2013.928     
    383000   200.65426      0.0383         0.010498767   -104.98767     -21.336238     -18.68063       120.42331      110.20301      111.81964     -49900.675      2992.7061      3748.7063      2020.5555    
    384000   198.14921      0.0384         0.010891962   -108.91962     -2.0096927     -8.6176459      120.43491      110.23642      111.91703     -49746.453      3020.4764      3747.6104      2018.184     
    385000   200.98497      0.0385         0.0059122006  -59.122006      3.967116       23.035489      120.44651      110.0618       111.8296      -49888.439      2963.1464      3683.3282      2017.7493    
    386000   201.75102      0.0386         0.010689047   -106.89047      14.804748     -5.5416097      120.45811      110.01715      111.84654     -49966.04       2986.4556      3695.1735      2022.1152    
    387000   200.13992      0.0387         0.0085927445  -85.927445      9.1029773      8.4195961      120.4697       110.12241      111.81831     -49882.992      3003.15        3708.1086      2012.4688    
    388000   198.86339      0.0388         0.0067474739  -67.474739     -24.892088      28.701273      120.4813       110.43153      111.58672     -49838.274      3016.4677      3726.0441      2010.3339    
    389000   199.96062      0.0389         0.0075905458  -75.905458     -2.2524581      34.478207      120.4929       110.08486      111.64105     -49980.379      3017.1677      3748.1134      2016.4853    
    390000   200.93207      0.039          0.0083907817  -83.907817      32.849782     -17.043412      120.5045       109.99998      111.75881     -49904.428      3042.267       3717.8711      2007.8837    
    391000   199.78822      0.0391         0.0047815084  -47.815084     -0.90032009     21.606289      120.5161       110.00221      111.66886     -49949.95       3021.3847      3707.4001      2009.3272    
    392000   199.41132      0.0392         0.010373578   -103.73578     -32.78086      -16.651716      120.5277       110.25765      111.67188     -49870.891      3087.9353      3710.8885      2019.7547    
    393000   200.38491      0.0393         0.01632468    -163.2468      -21.120223      15.066662      120.53929      110.31903      111.50525     -49978.915      3038.0235      3666.3832      2015.9232    
    394000   200.55148      0.0394         0.010479299   -104.79299      22.282417     -27.130758      120.55089      110.14316      111.68833     -49917.692      3006.1073      3699.3813      2022.4379    
    395000   198.73542      0.0395         0.0059023171  -59.023171      16.372673     -0.10489999     120.56249      110.317        111.37587     -49964.608      3053.9218      3701.7442      2023.8091    
    396000   199.77395      0.0396         0.0067668268  -67.668268     -8.2119064      24.657525      120.57409      110.51291      111.26129     -49956.112      3072.1117      3718.1308      2025.8994    
    397000   199.88868      0.0397         0.011500128   -115.00128      27.242322     -27.030228      120.58569      110.29314      111.53241     -49961.477      3022.5111      3750.2814      2021.468     
    398000   200.33593      0.0398         0.0077747224  -77.747224      18.834653     -24.154354      120.59728      110.02953      111.62501     -50011.989      3006.4051      3717.2334      2021.1945    
    399000   200.34212      0.0399         0.015842344   -158.42344     -22.892431     -10.30197       120.60888      110.14566      111.49256     -50033.963      3034.0727      3802.959       2021.7176    
    400000   200.72483      0.04           0.010652415   -106.52415      36.006876     -15.308376      120.62048      110.07043      111.57378     -50004.498      3006.4546      3726.0122      2027.0973    
    401000   199.96961      0.0401         0.0081453668  -81.453668      9.5211112     -28.722766      120.63208      110.24019      111.34187     -50031.89       3027.6263      3740.4834      2020.562     
    402000   199.62179      0.0402         0.0071950962  -71.950962     -10.538319     -14.592485      120.64368      110.21205      111.69295     -49800.52       3023.2022      3644.9733      2031.5941    
    403000   198.77747      0.0403         0.0073389443  -73.389443      41.248449      3.0691337      120.65527      110.06614      111.55673     -49954.439      3075.7991      3705.7005      2016.4449    
    404000   200.15254      0.0404         0.010214576   -102.14576     -16.987256     -13.489957      120.66687      110.12769      111.67147     -49916.461      3047.3548      3695.2451      2027.8171    
    405000   199.32175      0.0405         0.013432414   -134.32414     -19.51936       27.507395      120.67847      110.03377      111.71687     -49916.092      3059.0009      3656.2541      2027.8149    
    406000   199.78898      0.0406         0.004338291   -43.38291      -15.317295     -32.277684      120.69007      110.18256      111.56622     -49959.056      3063.8169      3662.7907      2023.1138    
    407000   200.19751      0.0407         0.0043755241  -43.755241      16.853756      19.995601      120.70167      109.99913      111.46792     -49952.216      2991.044       3685.5477      2033.9265    
    408000   200.18006      0.0408         0.009555489   -95.55489       5.1411091     -4.9035679      120.71327      110.16721      111.33208     -50022.675      3016.9769      3741.9161      2034.4131    
    409000   199.30997      0.0409         0.00045642655 -4.5642655      3.4324643      19.871729      120.72486      110.11106      111.5281      -49910.172      3011.7339      3676.7319      2027.8772    
    410000   199.66398      0.041          0.010120411   -101.20411      14.051022      4.221004       120.73646      109.97474      111.58109     -49969.261      3044.6838      3729.015       2020.7591    
    411000   200.94078      0.0411         0.0069855571  -69.855571      45.929473     -22.96251       120.74806      110.06375      111.59228     -49898.927      3005.2166      3720.1593      2026.4869    
    412000   198.84713      0.0412         0.0060792798  -60.792798     -11.698639     -5.7793546      120.75966      110.34257      111.51921     -49843.208      3022.8473      3671.473       2039.6985    
    413000   200.22781      0.0413         0.016629793   -166.29793     -44.145925     -4.4731668      120.77126      110.27735      111.53687     -49890.153      3035.5585      3681.5272      2033.0591    
    414000   200.54541      0.0414         0.011255206   -112.55206     -20.147123      13.728572      120.78285      110.25997      111.50645     -49858.808      3003.1106      3670.4868      2027.7313    
    415000   199.73479      0.0415         0.0089265287  -89.265287     -35.414967     -18.664943      120.79445      110.24763      111.438       -49913.003      3050.8486      3667.9819      2032.6447    
    416000   200.30616      0.0416         0.0091401569  -91.401569      11.983925     -0.39747363     120.80605      110.27605      111.26393     -49981.781      3005.5392      3681.7339      2025.4746    
    417000   199.53603      0.0417         0.0059559235  -59.559235      29.26915       14.922545      120.81765      110.05756      111.35004     -50014.885      3043.7942      3716.5527      2034.0787    
    418000   198.89586      0.0418         0.010404992   -104.04992      33.465387     -18.394944      120.82925      110.09201      111.50198     -49918.524      3029.6663      3629.7798      2039.5498    
    419000   200.00315      0.0419         0.013452803   -134.52803      4.4221858     -1.6070356      120.84084      110.17408      111.37182     -49938.634      3023.7151      3650.3717      2030.0906    
    420000   200.16607      0.042          0.0079285029  -79.285029     -39.180928      1.4298312      120.85244      110.03816      111.61676     -49884.107      3048.0276      3654.6716      2035.2309    
    421000   200.10539      0.0421         0.0093551314  -93.551314     -34.216357      0.38906879     120.86404      110.17705      111.38245     -49965.866      3040.8447      3653.5556      2029.2259    
    422000   197.95715      0.0422         0.0082358353  -82.358353      23.805044     -9.5147678      120.87564      110.09099      111.32655     -49995.269      3077.4078      3671.9019      2038.6993    
    423000   199.67279      0.0423         0.012897111   -128.97111      33.637396      9.6590176      120.88724      110.34277      111.18382     -49885.765      2988.494       3721.4908      2027.4643    
    424000   200.58226      0.0424         0.002645969   -26.45969       9.5215668      9.4286625      120.89884      110.06446      111.34043     -49962.697      3058.0684      3611.2392      2036.3905    
    425000   200.60779      0.0425         0.011118308   -111.18308      25.742346     -0.6766325      120.91043      110.21326      111.31719     -49940.576      3016.6083      3584.9007      2038.584     
    426000   200.04539      0.0426         0.011038941   -110.38941     -7.1474968      26.116219      120.92203      110.17124      111.3818      -49905.507      3035.8752      3631.6264      2029.7503    
    427000   200.57253      0.0427         0.015259794   -152.59794      21.847834     -17.815113      120.93363      109.92402      111.68608     -49876.68       3031.7419      3632.3934      2031.8709    
    428000   199.36426      0.0428         0.015152184   -151.52184     -16.656315     -15.00228       120.94523      110.07254      111.41765     -49961.879      3070.455       3658.6043      2039.3389    
    429000   199.86108      0.0429         0.0092651796  -92.651796      36.643447      2.9653446      120.95683      109.98428      111.64726     -49833.506      3020.1876      3632.3438      2033.7098    
    430000   200.45476      0.043          0.0068620631  -68.620631      2.9361514      30.933384      120.96842      110.01772      111.44583     -49947.819      2980.3219      3685.0035      2029.2521    
    431000   201.8417       0.0431         0.014810367   -148.10367      32.81486      -7.1858439      120.98002      109.93249      111.37373     -50060.735      3001.6358      3782.7942      2031.9467    
    432000   199.69018      0.0432         0.013535008   -135.35008     -11.836504     -37.985991      120.99162      110.12129      111.52368     -49889.866      3039.7244      3657.2197      2029.1371    
    433000   199.78289      0.0433         0.011263202   -112.63202     -31.582989      26.389617      121.00322      110.15822      111.28766     -49971.877      3046.0395      3721.4674      2026.8507    
    434000   199.46015      0.0434         0.011112864   -111.12864      27.601946     -4.8106891      121.01482      110.20321      111.3536      -49847.493      3008.9454      3667.1632      2033.7578    
    435000   200.01797      0.0435         0.01084234    -108.4234       7.1526563     -6.3201899      121.02641      110.31368      111.26444     -49844.38       3019.9143      3673.9625      2033.8934    
    436000   200.02071      0.0436         0.0078575732  -78.575732      50.110025     -9.2941773      121.03801      110.15723      111.33208     -49834.351      2970.5649      3694.0776      2035.5178    
    437000   199.84118      0.0437         0.010613475   -106.13475     -9.2918733     -12.693641      121.04961      110.15583      111.31295     -49889.529      3027.5268      3718.1405      2031.3643    
    438000   199.39622      0.0438         0.0051075801  -51.075801     -6.5913721     -13.243956      121.06121      110.1957       111.30254     -49902.62       3061.512       3628.8335      2037.3868    
    439000   199.37924      0.0439         0.0069498452  -69.498452      1.588884      -61.430231      121.07281      110.22805      111.37219     -49825.772      3018.9301      3637.5111      2030.4803    
    440000   200.37613      0.044          0.0074825428  -74.825428      10.74041      -21.158969      121.08441      110.0756       111.2488      -49937.753      3010.4321      3680.0609      2023.0038    
    441000   199.48207      0.0441         0.0088115597  -88.115597     -46.180985      34.858167      121.096        110.21556      111.3164      -49783.389      2987.6067      3671.8988      2026.8632    
    442000   200.12689      0.0442         0.011566723   -115.66723      18.943826      19.519937      121.1076       109.9065       111.30867     -49966.415      2984.2624      3699.7908      2027.7633    
    443000   199.38735      0.0443         0.0062602847  -62.602847     -29.671416      23.813015      121.1192       109.99941      111.59424     -49794.429      2973.1315      3660.6629      2033.6627    
    444000   200.70004      0.0444         0.010036654   -100.36654      9.494455      -26.207015      121.1308       110.01225      111.45758     -49856.079      2914.3105      3748.822       2027.4823    
    445000   199.60425      0.0445         0.010000743   -100.00743     -19.594509      38.481159      121.1424       110.25648      111.18267     -49909.654      3036.4364      3722.8026      2023.2333    
    446000   199.70882      0.0446         0.0047117783  -47.117783     -3.4282296     -44.818252      121.15399      110.11888      111.30732     -49906.159      3056.9803      3776.8         2014.9317    
    447000   200.65889      0.0447         0.0071799295  -71.799295     -24.592694     -32.711605      121.16559      110.20951      111.20317     -49830.579      2964.9384      3677.1111      2031.1544    
    448000   200.97748      0.0448         0.013154562   -131.54562      25.412         4.1595865      121.17719      110.06887      111.26954     -49909.568      2995.3266      3727.3817      2025.6715    
    449000   199.70303      0.0449         0.018375242   -183.75242      18.940575     -2.7360548      121.18879      110.29459      111.31216     -49733.008      3000.9476      3667.996       2024.1941    
    450000   199.03729      0.045          0.011358849   -113.58849     -12.132687     -17.342067      121.20039      110.27684      111.15186     -49805.402      2978.4487      3708.4115      2031.4637    
    451000   199.22886      0.0451         0.011745669   -117.45669      10.906393     -34.589654      121.21198      110.26375      111.11207     -49827.653      2987.5379      3688.4333      2031.1429    
    452000   200.65347      0.0452         0.0072185369  -72.185369     -3.2110481      17.522338      121.22358      110.34389      111.07185     -49815.803      3033.1543      3685.1366      2023.1951    
    453000   199.60716      0.0453         0.0097205269  -97.205269      18.054755     -21.752473      121.23518      110.22454      111.09418     -49856.463      3046.2371      3668.8012      2025.6156    
    454000   200.38716      0.0454         0.009599885   -95.99885       7.3134653      18.733878      121.24678      110.20518      111.20545     -49771.096      2979.6564      3670.5017      2027.461     
    455000   199.87658      0.0455         0.0098297925  -98.297925      28.262683      4.120968       121.25838      110.18379      111.21547     -49711.349      3025.1705      3624.068       2026.6044    
    456000   199.30899      0.0456         0.010145796   -101.45796      26.545019      14.292357      121.26998      110.20054      111.02583     -49833.151      3058.3983      3673.7738      2018.4708    
    457000   199.33698      0.0457         0.0094870354  -94.870354      4.0471195     -32.808513      121.28157      110.01979      111.13044     -49922.427      3046.9758      3704.5529      2019.4498    
    458000   200.80898      0.0458         0.011405417   -114.05417      12.336872     -15.529991      121.29317      110.04631      111.0896      -49969.735      3024.5214      3744.8741      2026.839     
    459000   199.21414      0.0459         0.0084111277  -84.111277     -0.48348688     3.2900111      121.30477      110.24874      110.80987     -49947.854      3010.7034      3764.2585      2018.5602    
    460000   200.80561      0.046          0.0053877284  -53.877284     -11.820373     -29.353705      121.31637      110.24547      111.03904     -49872.889      3038.205       3680.9869      2019.3069    
    461000   200.14729      0.0461         0.0043879041  -43.879041     -3.4741222      0.08571835     121.32797      110.12795      110.99899     -49932.222      3081.5827      3694.4199      2024.4758    
    462000   201.34865      0.0462         0.0089040481  -89.040481      11.081764     -15.698801      121.33956      110.15679      111.23955     -49818.112      2961.97        3654.011       2017.5797    
    463000   200.07548      0.0463         0.0067898213  -67.898213     -40.238543      35.387749      121.35116      110.2245       110.98682     -49850.11       3011.1965      3690.3321      2010.867     
    464000   200.38988      0.0464         0.0022548512  -22.548512     -3.9961712     -8.2072848      121.36276      110.0178       111.04639     -49909.829      3040.3506      3665.3137      2016.7541    
    465000   199.93565      0.0465         0.0019621081  -19.621081      23.391938      5.9608771      121.37436      110.07591      111.00537     -49899.663      3056.7835      3684.0199      2018.5323    
    466000   199.07581      0.0466         0.0081050888  -81.050888     -21.49955       2.1706564      121.38596      110.15479      111.2123      -49730.393      3051.5753      3647.5339      2017.6278    
    467000   199.96865      0.0467         0.01019068    -101.9068      -25.6487       -33.666088      121.39755      110.09105      111.27832     -49822.982      3006.8539      3651.1001      2022.0687    
    468000   199.95167      0.0468         0.0018998898  -18.998898      14.249148     -12.630538      121.40915      109.89791      111.28062     -49822.633      3026.1355      3623.6099      2024.8767    
    469000   198.63047      0.0469         0.0015014638  -15.014638     -19.4954       -17.453494      121.42075      110.06631      111.01364     -49894.012      3069.8382      3677.5757      2016.1457    
    470000   200.64864      0.047          0.0036201501  -36.201501      6.2003556     -19.052202      121.43235      110.20976      110.96033     -49860.474      3060.8464      3658.8909      2015.8042    
    471000   200.22496      0.0471         0.0069852703  -69.852703      4.0435452     -17.521469      121.44395      110.04465      111.12873     -49858.298      3046.9056      3655.4032      2015.7243    
    472000   200.98908      0.0472         0.0087041818  -87.041818      26.026983     -43.555973      121.45555      110.11395      111.10823     -49830.273      3073.9442      3605.986       2010.0097    
    473000   199.73258      0.0473         0.0056037341  -56.037341      6.6931571      57.393256      121.46714      110.03681      110.91059     -49885.283      3013.4219      3725.2558      2022.0466    
    474000   199.42359      0.0474         0.010893394   -108.93394      12.360467     -6.5767665      121.47874      109.91885      111.35619     -49727.174      2994.8448      3622.2163      2028.7635    
    475000   200.36487      0.0475         0.0028098334  -28.098334      1.685274       6.3437197      121.49034      109.88782      111.17225     -49843.654      3042.2723      3656.8892      2014.0841    
    476000   198.83266      0.0476         0.008762908   -87.62908       2.6967008     -24.810182      121.50194      109.86345      111.20244     -49880.9        3042.5733      3717.5371      2024.066     
    477000   200.49365      0.0477         0.010909578   -109.09578     -15.253861      28.686517      121.51354      109.95331      111.09878     -49887.806      3000.8432      3686.406       2018.5537    
    478000   200.70254      0.0478         0.0058849337  -58.849337      3.2322796      30.569115      121.52513      110.05152      111.05725     -49849.262      2969.1995      3654.6211      2014.3663    
    479000   199.50363      0.0479         0.0037519536  -37.519536     -2.624784      -6.5859555      121.53673      110.29341      110.82833     -49783.787      3020.2213      3686.6282      2014.0291    
    480000   200.06695      0.048          0.0061176367  -61.176367      6.8513065     -0.19201556     121.54833      109.99601      110.89451     -49915.535      3018.7035      3700.444       2012.0498    
    481000   199.63664      0.0481        -0.00014057082  1.4057082     -0.95678096     14.626572      121.55993      110.10258      110.77363     -49859.566      3002.4231      3675.7511      2015.5937    
    482000   200.35629      0.0482         0.010127      -101.27        -25.970139      4.5679768      121.57153      110.02472      111.04164     -49828.878      3001.6272      3648.4162      2012.4164    
    483000   201.42049      0.0483         0.0030250006  -30.250006      8.8535045      4.3713126      121.58312      110.1267       110.74485     -49918.207      3022.9887      3693.7284      2016.1476    
    484000   199.92935      0.0484         0.007003227   -70.03227       3.2441458      13.272438      121.59472      110.13375      110.75828     -49815.168      2992.8147      3710.0724      2009.9494    
    485000   199.4088       0.0485         0.0055707602  -55.707602      35.284951     -8.3169149      121.60632      109.82776      111.0224      -49888.243      3037.1923      3683.8712      2017.1885    
    486000   198.81503      0.0486         0.0053715431  -53.715431     -2.9635618      28.947592      121.61792      110.05192      110.75945     -49892.859      3059.7988      3684.4356      2021.6791    
    487000   200.21947      0.0487         0.00021882743 -2.1882743      25.268646     -26.975776      121.62952      109.94045      110.81048     -49959.367      3079.1081      3613.6481      2018.9074    
    488000   201.35325      0.0488         0.0071320181  -71.320181      7.4447212     -15.05026       121.64112      110.09654      110.94996     -49813.565      3005.6512      3637.0546      2015.9263    
    489000   200.61825      0.0489         0.0087319136  -87.319136     -3.7591961      30.567998      121.65271      110.01252      110.71157     -49943.343      3041.2802      3642.842       2023.1177    
    490000   201.31698      0.049          0.0086470323  -86.470323     -44.582775      23.060796      121.66431      110.33235      110.58822     -49900.104      3015.2003      3643.6065      2022.7069    
    491000   199.43067      0.0491         0.011381174   -113.81174      16.294503     -31.323858      121.67591      110.04589      110.73686     -49934.642      3055.4512      3714.7447      2013.684     
    492000   199.62101      0.0492         0.009424735   -94.24735       18.4997       -1.7106201      121.68751      109.81731      110.92902     -49973.474      3065.4904      3645.4403      2009.4651    
    493000   199.75704      0.0493         0.011811609   -118.11609     -9.2793417      49.21792       121.69911      110.20545      110.78335     -49813.281      3065.5528      3601.898       2022.1503    
    494000   200.96683      0.0494         0.0016957765  -16.957765      2.1300256      27.020311      121.7107       109.9964       110.80095     -49917.149      3013.3744      3636.0406      2012.1628    
    495000   200.04099      0.0495         0.013190779   -131.90779      1.3452698     -3.9905726      121.7223       109.85247      111.01988     -49875.138      3029.6616      3641.5259      2018.5333    
    496000   199.56621      0.0496         0.0026136163  -26.136163      12.194898     -1.532233       121.7339       109.65879      111.0075      -49963.13       2993.2971      3732.4557      2010.5903    
    497000   199.81373      0.0497         0.013603336   -136.03336     -10.328278      20.216638      121.7455       109.8873       111.05073     -49829.279      3034.9891      3623.8287      2013.3312    
    498000   200.43737      0.0498         0.0048486842  -48.486842     -6.2496138      36.088133      121.7571       109.98345      110.78926     -49907.792      3045.0124      3659.1792      2013.3985    
    499000   200.70152      0.0499         0.01005029    -100.5029      -26.610433     -25.874077      121.76869      110.05418      110.9464      -49811.327      3059.005       3585.8435      2009.0478    
    500000   199.32369      0.05           0.00779824    -77.9824       -5.3318658     -13.967469      121.78029      110.00855      110.95138     -49837.756      3067.3373      3625.2749      2016.0507    
    501000   199.86831      0.0501         0.010990641   -109.90641      14.019928      14.364005      121.79189      109.79106      110.92767     -49921.461      3025.6002      3620.2613      2005.2451    
    502000   201.49302      0.0502         0.017237012   -172.37012      30.547344     -3.5566499      121.80349      109.8465       110.87773     -49965.02       2996.0214      3751.9192      2011.1803    
    503000   199.81206      0.0503         0.01819647    -181.9647       1.2674742      30.150942      121.81509      110.10216      110.67694     -49869.899      3019.0129      3644.4512      2009.3259    
    504000   200.62754      0.0504         0.011569589   -115.69589     -2.7091311      26.732561      121.82668      109.93885      110.68646     -49956.804      3011.0036      3761.7037      2005.2626    
    505000   201.21359      0.0505         0.010086926   -100.86926     -11.966669      2.8161986      121.83828      109.91312      110.78213     -49953.857      2975.7409      3655.9878      2013.1598    
    506000   201.50123      0.0506         0.010439199   -104.39199      3.4516343      9.6801073      121.84988      109.67563      111.09059     -49924.315      3001.395       3651.6306      2015.01      
    507000   199.61426      0.0507         0.011984273   -119.84273     -28.604173      16.764988      121.86148      109.69282      111.01168     -49903.862      3018.834       3616.1313      2005.5754    
    508000   200.03663      0.0508         0.0063174766  -63.174766     -10.478629     -33.473364      121.87308      109.71747      111.10493     -49873.737      3036.4013      3616.4368      2006.1501    
    509000   199.12562      0.0509         0.0035228406  -35.228406     -57.318343      5.191395       121.88468      110.02736      110.87066     -49773.885      3018.1893      3648.5821      2004.4627    
    510000   200.20493      0.051          0.0090170835  -90.170835      6.0410383     -21.937233      121.89627      109.64603      111.10403     -49874.374      3003.7142      3591.76        2006.1987    
    511000   200.22224      0.0511         0.0086118137  -86.118137     -20.572169      41.906745      121.90787      109.7602       110.76851     -49959.091      3029.8931      3687.7994      2003.9944    
    512000   199.24293      0.0512         0.0067338636  -67.338636      21.343026      17.192591      121.91947      109.73968      110.93123     -49801.389      2985.6503      3644.0477      2007.6028    
    513000   200.16275      0.0513         0.0068492881  -68.492881     -16.84815       33.557708      121.93107      109.94653      110.67533     -49907.096      3035.5135      3619.0531      1998.9586    
    514000   199.70753      0.0514         0.0084430973  -84.430973      31.967652      7.1634713      121.94267      109.77936      110.79351     -49873.469      3036.0332      3636.292       2012.2129    
    515000   199.45311      0.0515         0.0092881125  -92.881125      28.528871     -10.335606      121.95426      109.62962      110.9632      -49867.422      3051.9469      3655.8674      2003.1957    
    516000   201.02756      0.0516         0.016549211   -165.49211      16.914135     -6.194003       121.96586      109.71207      110.8333      -49945.082      2989.2177      3693.4542      2004.1645    
    517000   200.78989      0.0517         0.015397632   -153.97632      15.841944      9.0207028      121.97746      109.79816      110.83892     -49909.576      2989.1076      3692.1965      2025.0305    
    518000   199.05858      0.0518         0.0077780758  -77.780758     -2.7976668      9.8662659      121.98906      109.64944      110.90813     -49936.286      3004.7022      3663.5082      2010.0058    
    519000   200.55108      0.0519         0.012578694   -125.78694     -35.313785     -14.683931      122.00066      109.88749      110.73677     -49927.687      3040.9313      3586.5793      2010.9264    
    520000   200.52241      0.052          0.0098981392  -98.981392      28.932431      18.622681      122.01225      109.92385      110.57786     -49873.07       3012.4588      3626.3211      2020.5649    
    521000   200.64887      0.0521         0.005249992   -52.49992       19.48824       19.263579      122.02385      109.70818      110.68386     -49939.033      3004.1216      3653.9738      2005.9789    
    522000   199.82208      0.0522         0.0040552633  -40.552633     -25.312353      10.762587      122.03545      109.96387      110.56808     -49917.521      3073.6835      3600.5375      2019.8638    
    523000   198.69052      0.0523         0.0097500489  -97.500489     -10.960822      18.185918      122.04705      110.08318      110.47286     -49845.377      3020.0254      3640.3934      2005.9512    
    524000   200.37547      0.0524         0.011962577   -119.62577     -10.646274     -1.0304108      122.05865      109.89956      110.53199     -49922.703      3006.0471      3701.3618      2015.5408    
    525000   200.34612      0.0525         0.018065721   -180.65721     -29.486568     -23.316073      122.07025      110            110.59746     -49948.902      3028.2547      3701.6737      2014.5938    
    526000   199.80894      0.0526         0.018207063   -182.07063      6.9797763      18.37945       122.08184      109.71185      110.84486     -49872.965      3023.7415      3640.2563      2013.2809    
    527000   200.81811      0.0527         0.0099672638  -99.672638     -2.7391042      45.661124      122.09344      109.70297      110.68012     -49908.72       2999.2191      3628.6281      2011.0693    
    528000   198.86726      0.0528         0.013128429   -131.28429      29.54547      -13.991835      122.10504      109.74378      110.83551     -49816.607      3042.5789      3625.9254      2015.3706    
    529000   200.49563      0.0529         0.0075766482  -75.766482     -22.711548      15.546         122.11664      109.8667       110.5806      -49930.849      3029.5638      3669.9506      2012.7934    
    530000   201.05915      0.053          0.0080534463  -80.534463     -35.134462     -0.89262603     122.12824      109.75085      110.74872     -49904.574      3050.9943      3604.6206      2013.5105    
    531000   200.51386      0.0531         0.011410875   -114.10875     -11.490639     -7.6884024      122.13983      109.73745      110.76492     -49914.218      3055.3934      3603.2275      2020.5654    
    532000   200.22755      0.0532         0.010737682   -107.37682      9.6018447      5.6539758      122.15143      109.61707      110.87634     -49929.041      3021.1028      3630.7082      2026.2745    
    533000   199.57774      0.0533         0.013032044   -130.32044      5.8298218      7.506386       122.16303      109.52507      110.8808      -49932.587      3068.0253      3633.0081      2015.5821    
    534000   199.83917      0.0534         0.012429734   -124.29734     -24.431267     -8.912648       122.17463      109.57368      110.85852     -49932.001      3079.4754      3661.2696      2012.4414    
    535000   200.15609      0.0535         0.0078481711  -78.481711      37.65095       1.4119542      122.18623      109.5184       110.80825     -49911.872      3077.0815      3670.004       2013.7977    
    536000   200.52611      0.0536         0.0072345163  -72.345163     -4.5126645     -8.6506655      122.19782      109.37665      110.89132     -49972.916      3038.6108      3705.429       2010.2644    
    537000   198.60162      0.0537         0.0040338669  -40.338669      1.7203714      3.6192979      122.20942      109.36375      110.93742     -49921.109      3067.1131      3651.1706      2006.4637    
    538000   199.68564      0.0538         0.010579417   -105.79417      16.954024      0.85861892     122.22102      109.43         110.79445     -49974.306      3075.1108      3709.7082      2012.5832    
    539000   199.63521      0.0539         0.011424094   -114.24094      35.76248      -13.866049      122.23262      109.42042      110.84645     -49975.174      3070.5437      3629.6378      2007.3625    
    540000   199.32884      0.054          0.0033098045  -33.098045      7.4914785      37.969673      122.24422      109.40713      110.61068     -50046.417      3057.8191      3681.0331      2016.0662    
    541000   200.52017      0.0541         0.011509841   -115.09841     -16.24498       7.8626458      122.25582      109.60667      110.70511     -49971.9        3056.1868      3623.791       2021.4415    
    542000   200.32542      0.0542         0.0099542242  -99.542242      27.027348      46.214185      122.26741      109.72319      110.51986     -49953.615      3042.1908      3653.1286      2019.7591    
    543000   201.18043      0.0543         0.0084643926  -84.643926      29.885257      13.648486      122.27901      109.46047      110.64086     -49965.077      3022.3862      3629.1098      2018.4615    
    544000   199.95493      0.0544         0.0039890261  -39.890261     -13.141542      24.948796      122.29061      109.57844      110.66472     -49904.745      3063.9819      3605.9722      2014.9566    
    545000   200.00184      0.0545         0.0091276561  -91.276561     -3.4233143     -23.854735      122.30221      109.63112      110.86503     -49901.162      3054.7636      3607.8874      2023.9263    
    546000   200.77986      0.0546         0.0070393049  -70.393049      19.231729     -1.9308734      122.31381      109.52885      110.66457     -49986.237      3024.5912      3633.3228      2010.9511    
    547000   198.97594      0.0547         0.0081425261  -81.425261      12.756226     -10.166217      122.3254       109.67737      110.62459     -49871.546      3061.405       3645.4775      2012.5552    
    548000   199.57715      0.0548         0.0057111217  -57.111217     -21.341568      11.259959      122.337        109.56427      110.70568     -49926.449      3046.8934      3693.8805      2012.8835    
    549000   199.99694      0.0549         0.0080318812  -80.318812     -15.016271     -6.9151734      122.3486       109.44699      110.92956     -49864.981      3014.8818      3648.1304      2012.5406    
    550000   200.20352      0.055          0.019183626   -191.83626     -31.795762      41.347781      122.3602       109.35167      110.80898     -49986.31       3029.4162      3721.9072      2020.1202    
    551000   200.3897       0.0551         0.019964699   -199.64699     -15.093927     -15.689306      122.3718       109.35032      110.84748     -49932.955      3034.9806      3691.7612      2011.2943    
    552000   199.92761      0.0552         0.0087730716  -87.730716     -15.124683     -11.775449      122.38339      109.44925      110.94954     -49859.761      3064.1914      3616.1746      2011.0944    
    553000   199.7299       0.0553         0.007885552   -78.85552      -1.0606436      21.816965      122.39499      109.25686      110.87247     -50043.093      3020.4743      3700.2662      2011.8579    
    554000   199.67628      0.0554         0.015817649   -158.17649      5.4293113      18.479702      122.40659      109.39232      110.6919      -49993.785      3073.9611      3716.6983      2005.1259    
    555000   200.36046      0.0555         0.010997287   -109.97287      3.2123015      33.446016      122.41819      109.32042      110.82926     -49931.067      3035.7811      3642.0712      2012.8007    
    556000   199.81116      0.0556         0.009666106   -96.66106       23.82882       5.9962686      122.42979      109.36796      110.77387     -49882.084      2987.3777      3630.3129      2012.3439    
    557000   201.20339      0.0557         0.011636757   -116.36757      36.146188     -21.372427      122.44139      109.2107       111.06603     -49825.57       2977.6972      3632.9315      2009.9988    
    558000   199.31946      0.0558         0.0089998847  -89.998847      9.5525969      0.12935626     122.45298      109.34342      110.72732     -49923.68       3009.3579      3646.1491      2006.3622    
    559000   201.10868      0.0559         0.0080717132  -80.717132      18.696117     -11.983959      122.46458      109.34736      110.86586     -49905.91       3024.9319      3635.0396      2006.7731    
    560000   201.04147      0.056          0.0088460008  -88.460008      23.232892      5.437317       122.47618      109.31129      110.84437     -49899.834      3022.8923      3619.9202      2013.7404    
    561000   198.5047       0.0561         0.0068101665  -68.101665      10.6851        51.178835      122.48778      109.40604      110.59017     -49856.33       3010.7622      3628.1802      2007.0582    
    562000   199.71821      0.0562         0.0059980335  -59.980335     -6.6865367      9.9970223      122.49938      109.36049      110.7901      -49866.958      3038.2663      3639.4159      2015.3771    
    563000   199.26365      0.0563         0.011780648   -117.80648      17.412519      39.720298      122.51097      109.25801      110.71368     -49960.9        3039.5892      3655.4211      2013.0147    
    564000   200.10547      0.0564         0.014509198   -145.09198     -21.086359     -26.374375      122.52257      109.30291      110.92171     -49875.624      3048.5415      3562.2852      2014.8982    
    565000   199.96993      0.0565         0.012031208   -120.31208      21.890887      8.5315521      122.53417      109.32811      110.81053     -49887.969      3084.7886      3577.1281      2015.0562    
    566000   200.94603      0.0566         0.0038825349  -38.825349      8.0999935      28.709436      122.54577      108.95955      110.92829     -50064.927      3042.8395      3699.4974      2022.5333    
    567000   199.27716      0.0567         0.0021024056  -21.024056      7.4679683     -25.684295      122.55737      109.2512       110.88026     -49933.524      3033.2862      3605.8233      2022.4792    
    568000   199.55231      0.0568         0.0023074929  -23.074929      21.566789      18.384269      122.56896      109.23154      110.69294     -49970.134      3031.4463      3668.5805      2006.4223    
    569000   201.43587      0.0569         0.010573138   -105.73138      9.0524409      27.70021       122.58056      109.45833      110.57624     -49893.455      2955.9281      3582.4913      2015.9723    
    570000   199.76924      0.057          0.012732502   -127.32502     -45.849468     -3.7335497      122.59216      109.30817      110.80175     -49910.047      3059.7201      3617.2563      2010.7199    
    571000   200.44361      0.0571         0.0089164445  -89.164445      6.9794276      10.782576      122.60376      109.3781       110.55847     -50007.836      3034.4884      3611.4887      2018.3326    
    572000   199.84397      0.0572         0.0057791496  -57.791496      7.9048579      6.0327178      122.61536      109.26229      110.62206     -50000.408      2984.7114      3689.2926      2014.4294    
    573000   201.30716      0.0573         0.0084233522  -84.233522     -16.02083       13.376271      122.62696      109.345        110.52301     -49980.278      2979.621       3658.417       2011.0831    
    574000   199.42018      0.0574         0.0071617301  -71.617301      38.867819     -16.368616      122.63855      109.33236      110.70138     -49902.538      2994.6825      3658.3668      2009.7769    
    575000   199.128        0.0575         0.0097729949  -97.729949     -11.079225      21.226693      122.65015      109.34311      110.72058     -49853.519      3032.5195      3590.5508      2010.2519    
    576000   200.10024      0.0576         0.014278864   -142.78864     -26.143433     -0.81885132     122.66175      109.23746      110.91273     -49825.044      3022.9899      3632.8509      2008.2779    
    577000   199.94377      0.0577         0.0079270006  -79.270006     -22.661708     -32.307244      122.67335      109.31386      110.67564     -49947.593      3054.7463      3681.0531      2005.5331    
    578000   200.29551      0.0578         0.010644018   -106.44018      1.3961864     -34.24202       122.68495      109.32909      110.67653     -49929.762      3011.4818      3702.1918      2009.1266    
    579000   200.33874      0.0579         0.012195765   -121.95765     -7.9725202     -8.6306617      122.69654      109.39888      110.55525     -49915.683      3039.5444      3684.7904      2007.645     
    580000   200.28045      0.058          0.010118123   -101.18123     -5.5177733     -2.0598263      122.70814      109.41281      110.4905      -49942.433      3012.7803      3663.8028      2018.5773    
    581000   200.57074      0.0581         0.0034865472  -34.865472      24.746131      26.508765      122.71974      109.27737      110.49916     -49935.206      3008.656       3681.9123      2008.907     
    582000   201.00635      0.0582         0.017822402   -178.22402     -9.6984515     -49.720906      122.73134      109.35545      110.72313     -49856.963      3002.0864      3635.9588      2013.072     
    583000   200.32802      0.0583         0.0085875792  -85.875792      2.5864536      23.265943      122.74294      109.07291      110.6878      -49951.331      3000.5166      3692.0749      2018.2549    
    584000   200.16719      0.0584         0.0030512003  -30.512003      10.886357     -15.713286      122.75453      108.98338      110.9197      -49868.747      2989.9992      3694.0878      2016.7754    
    585000   199.8091       0.0585         0.0035744282  -35.744282     -12.987593     -6.9418158      122.76613      109.21461      110.70351     -49868.748      3013.7944      3683.0104      2009.4182    
    586000   200.58767      0.0586         0.007028315   -70.28315       7.0437469     -14.696615      122.77773      109.31229      110.44032     -49939.522      2960.2275      3654.2517      2014.9972    
    587000   200.30216      0.0587         0.0083742204  -83.742204      34.97688      -10.190978      122.78933      109.27333      110.59494     -49858.905      3016.0418      3668.0345      2013.2636    
    588000   201.03363      0.0588         0.0052688586  -52.688586      27.78323      -6.0045682      122.80093      109.18265      110.5925      -49891.259      3007.3781      3653.2607      2021.5563    
    589000   200.60898      0.0589         0.0098505742  -98.505742     -14.623747     -8.6835554      122.81253      109.21075      110.61921     -49925.202      3038.6774      3664.9304      2016.711     
    590000   200.93466      0.059          0.0099663633  -99.663633     -12.148556      8.494973       122.82412      109.47156      110.47229     -49827.922      2991.4316      3659.6817      2010.2355    
    591000   198.79988      0.0591         0.005381482   -53.81482       18.400122     -29.985418      122.83572      109.31421      110.53787     -49881.824      3009.3117      3712.362       2013.6476    
    592000   200.542        0.0592         0.011200292   -112.00292     -21.82501      -13.253441      122.84732      109.42811      110.58959     -49843.676      3037.6966      3596.4928      2003.0445    
    593000   200.02048      0.0593         0.0079279617  -79.279617      22.129274     -19.191512      122.85892      109.36827      110.49986     -49904.767      2997.8127      3652.1847      2011.2546    
    594000   199.35312      0.0594         0.0056000283  -56.000283      25.997372      5.6962168      122.87052      109.52842      110.42693     -49814.123      2985.8341      3620.0689      2016.5657    
    595000   200.71091      0.0595         0.006392688   -63.92688      -4.7415789      41.4451        122.88211      109.52272      110.29368     -49822.314      2982.0449      3591.2014      2014.5418    
    596000   199.43239      0.0596         0.0067384364  -67.384364      8.3032492      8.7489429      122.89371      109.74163      110.12587     -49778.84       3039.8643      3618.6231      2014.9245    
    597000   199.67193      0.0597         0.012695976   -126.95976      4.6425279     -13.144513      122.90531      109.63134      110.30113     -49808.676      3023.3977      3614.0424      2017.2046    
    598000   199.61421      0.0598         0.013409541   -134.09541     -18.174899      2.7171395      122.91691      109.5339       110.3703      -49827.706      2989.4504      3640.9215      2015.4524    
    599000   199.62836      0.0599         0.015427735   -154.27735      32.430326     -14.184209      122.92851      109.29881      110.57926     -49790.841      2969.7583      3547.8232      2015.486     
    600000   199.56573      0.06           0.0086112552  -86.112552     -12.790213     -28.52072       122.9401       109.44369      110.56066     -49737.191      3021.8256      3558.9271      2007.4546    
    601000   199.25198      0.0601         0.012544679   -125.44679     -22.569791      10.411021      122.9517       109.46609      110.35784     -49841.405      3078.5635      3592.8294      1996.8813    
    602000   199.5424       0.0602         0.012031156   -120.31156     -7.5616415     -15.125172      122.9633       109.52369      110.43068     -49770.993      3051.5265      3605.4389      2004.5346    
    603000   199.54387      0.0603         0.010314707   -103.14707     -8.216883       48.086705      122.9749       109.35509      110.49546     -49740.599      2972.1705      3600.6484      1995.6235    
    604000   199.57381      0.0604         0.013161474   -131.61474     -12.016738      18.938085      122.9865       109.28745      110.49045     -49836.517      2971.9042      3638.056       2009.6212    
    605000   201.44284      0.0605         0.012532252   -125.32252      5.3534693      33.609556      122.9981       109.33817      110.33681     -49844.992      2969.0174      3647.0359      2004.9642    
    606000   200.48051      0.0606         0.012454293   -124.54293     -6.9719184     -21.49099       123.00969      109.49491      110.2936      -49883.399      2982.7746      3631.0717      2007.8446    
    607000   199.3398       0.0607         0.011601235   -116.01235     -30.405994     -9.956734       123.02129      109.53285      110.19351     -49873.689      3033.9935      3703.3141      2009.0872    
    608000   200.50416      0.0608         0.010133492   -101.33492     -19.166372      12.53585       123.03289      109.55244      110.09847     -49932.654      3010.9338      3607.1244      2018.2975    
    609000   198.96929      0.0609         0.0075124159  -75.124159      3.3648085     -1.9321749      123.04449      109.24526      110.41031     -49917.917      3071.9426      3667.4304      2016.0101    
    610000   201.37155      0.061          0.0065992589  -65.992589     -29.341534      23.057871      123.05609      109.43332      110.22453     -49936.309      3022.2226      3620.7248      2014.3945    
    611000   200.32518      0.0611         0.012382126   -123.82126      0.20242629    -17.598583      123.06768      109.46487      110.24688     -49912.915      3041.2099      3642.4161      2009.7249    
    612000   198.75802      0.0612         0.009164689   -91.64689       26.629406      6.8573984      123.07928      109.51667      110.08251     -49882.722      3051.5841      3595.9316      2008.0138    
    613000   201.93518      0.0613         0.0058892845  -58.892845     -4.5526787      35.358028      123.09088      109.3203       110.06202     -49993.902      2992.8538      3683.132       2012.2134    
    614000   199.30718      0.0614         0.0051432005  -51.432005     -34.897226      9.0181536      123.10248      109.54217      110.10707     -49852.67       3063.7631      3609.4638      2015.565     
    615000   200.76204      0.0615         0.0064703236  -64.703236      25.956319     -28.424271      123.11408      109.36095      110.09756     -49993.974      3044.0377      3612.8307      2018.7292    
    616000   200.44727      0.0616         0.0036462421  -36.462421      21.53635       1.39756        123.12567      109.33579      110.25981     -49929.074      3050.9841      3613.2397      2016.7394    
    617000   200.85677      0.0617         0.012037728   -120.37728      21.912804     -9.9841248      123.13727      109.16142      110.33889     -49953.305      3022.3505      3637.0293      2006.087     
    618000   200.94778      0.0618         0.010704536   -107.04536     -7.6025841     -18.226067      123.14887      109.49919      110.21437     -49847.747      3020.2616      3616.138       2010.6323    
    619000   199.95555      0.0619         0.01081495    -108.1495      -17.184213     -3.5338997      123.16047      109.36441      110.20618     -49870.508      3077.7044      3625.8437      2001.39      
    620000   201.42925      0.062          0.0062963299  -62.963299      43.25136      -9.7641311      123.17207      109.34771      109.99399     -49981.044      3029.8036      3656.2973      2011.8651    
    621000   201.55718      0.0621         0.010113768   -101.13768      3.1598542     -11.79926       123.18367      109.62104      109.89031     -49978.098      3023.7578      3638.3343      2017.2029    
    622000   201.05241      0.0622         0.0069078101  -69.078101     -11.837522     -43.318778      123.19526      109.4189       110.14762     -49928.155      3043.1599      3657.4767      2014.5359    
    623000   200.23097      0.0623         0.002343858   -23.43858      -11.272118     -8.3015134      123.20686      109.42664      110.0595      -49930.763      3038.3522      3635.5818      2001.9803    
    624000   200.82445      0.0624         0.011876601   -118.76601     -1.3020783     -12.541247      123.21846      109.40764      110.04497     -49974.466      3061.9972      3629.3965      2014.1122    
    625000   199.46009      0.0625         0.0092289267  -92.289267      9.8400191      20.855226      123.23006      109.49611      109.86269     -49962.364      3029.2522      3655.0849      2007.1178    
    626000   201.05912      0.0626         0.0091705278  -91.705278      18.637959      1.8242694      123.24166      109.39316      110.17289     -49823.778      2982.2524      3553.2828      2020.8231    
    627000   199.33075      0.0627         0.0063606905  -63.606905     -20.042251     -20.96628       123.25325      109.25632      110.10301     -49969.791      3060.032       3639.7863      2011.0757    
    628000   200.48033      0.0628         0.0094189753  -94.189753      25.930613     -15.96741       123.26485      109.26062      110.07603     -49994.078      3041.127       3634.7238      2015.2971    
    629000   201.40251      0.0629         0.0031082357  -31.082357      6.0833918      3.1585472      123.27645      109.46041      109.88147     -49984.411      3023.1724      3592.1704      2021.825     
    630000   200.37192      0.063          0.0043584368  -43.584368     -4.2974827      19.523743      123.28805      109.3368       110.0234      -49932.766      3087.7388      3568.775       2018.7886    
    631000   199.17227      0.0631         0.00064253713 -6.4253713     -40.333077      18.600806      123.29965      109.29616      110.08448     -49908.669      3069.693       3620.4898      2008.8486    
    632000   199.80353      0.0632         0.011295286   -112.95286      11.602895     -34.967743      123.31124      109.0906       110.37792     -49935.482      3046.428       3648.7001      2012.379     
    633000   200.76276      0.0633         0.01134629    -113.4629      -8.2992229      21.524507      123.32284      109.22748      110.22557     -49873.378      3021.532       3559.0089      2018.7012    
    634000   199.90048      0.0634         0.014163235   -141.63235      0.73641334     6.2554951      123.33444      109.01267      110.40104     -49940.553      3027.5202      3618.5939      2012.159     
    635000   199.93023      0.0635         0.0074493193  -74.493193     -26.741162      17.092649      123.34604      109.20273      110.23774     -49906.805      3039.382       3626.7544      2011.5361    
    636000   198.64807      0.0636         0.0081003133  -81.003133      11.414393      28.347523      123.35764      109.26644      110.18659     -49832.297      3040.8301      3598.134       2003.9891    
    637000   200.5307       0.0637         0.011032307   -110.32307      38.082927     -3.4441208      123.36924      109.175        110.19362     -49870.49       3004.4374      3554.9624      2011.8667    
    638000   199.79524      0.0638         0.012275896   -122.75896     -19.762626      7.2688412      123.38083      109.16027      110.20741     -49918.698      3030.2561      3628.437       2012.4355    
    639000   200.31877      0.0639         0.0079573031  -79.573031      15.945134     -37.09562       123.39243      109.03792      110.3687      -49941.405      3048.8598      3570.828       2008.7048    
    640000   201.37701      0.064          0.0042865559  -42.865559     -12.378877      4.0684572      123.40403      108.98429      110.42051     -49889.76       3005.06        3587.7794      2013.8608    
    641000   199.56618      0.0641         0.011111105   -111.11105      2.8815415     -14.307841      123.41563      109.12012      110.30016     -49838.715      3034.3691      3585.1115      2010.0988    
    642000   201.82678      0.0642         0.010036795   -100.36795      6.9359679      23.794519      123.42723      109.3666       110.03587     -49828.129      2992.0857      3560.4296      2008.1937    
    643000   198.97776      0.0643         0.0085342801  -85.342801     -4.8318195     -39.354604      123.43882      109.44895      110.068       -49804.334      3049.4837      3541.4577      2013.1337    
    644000   200.60714      0.0644         0.012772098   -127.72098      2.0740939      6.1759383      123.45042      109.44643      109.95181     -49878.116      3051.968       3601.2335      2011.5509    
    645000   201.00416      0.0645         0.0086161962  -86.161962     -18.253765     -22.672244      123.46202      109.27087      110.03308     -49898.172      3019.154       3593.7609      2009.2025    
    646000   200.57322      0.0646         0.013256529   -132.56529     -15.104625      15.840959      123.47362      109.21477      110.09227     -49893.567      3057.6508      3578.1338      2004.3962    
    647000   200.53512      0.0647         0.010696884   -106.96884      35.838999     -44.623172      123.48522      109.20311      110.14658     -49854.98       3035.1444      3582.808       2013.362     
    648000   200.81876      0.0648         0.0060266236  -60.266236      19.636263      32.743289      123.49681      109.30893      109.96974     -49842.965      3018.7614      3614.1598      2006.6844    
    649000   200.05541      0.0649         0.010798045   -107.98045      8.7355147      27.152958      123.50841      109.36918      109.89667     -49935.872      3015.3622      3607.755       2005.4152    
    650000   198.28807      0.065          0.0093515194  -93.515194      28.400264     -27.508587      123.52001      109.15532      110.19842     -49820.76       3010.1694      3516.2289      2006.9361    
    651000   200.25715      0.0651         0.01786254    -178.6254      -6.8468105      0.64008307     123.53161      109.21872      109.9828      -49963.845      3022.2603      3657.279       2009.6941    
    652000   199.664        0.0652         0.012732291   -127.32291     -19.474839      24.912078      123.54321      109.42393      109.87804     -49860.895      3051.3903      3595.6568      2006.1047    
    653000   200.49447      0.0653         0.010295492   -102.95492      44.927007     -42.932459      123.55481      109.08377      110.16982     -49843.227      3002.8736      3624.0577      1997.2289    
    654000   200.61489      0.0654         0.004878469   -48.78469      -11.752442      11.103854      123.5664       109.44009      109.83943     -49838.445      2975.8742      3643.6784      2005.7847    
    655000   199.53189      0.0655         0.008661325   -86.61325       10.762892      17.183885      123.578        109.36814      109.78116     -49859.067      2957.6405      3606.3842      2002.4018    
    656000   199.87785      0.0656         0.0094685421  -94.685421      0.087148029    12.513736      123.5896       109.2424       109.87491     -49890.648      3030.7449      3594.3707      2000.3688    
    657000   200.871        0.0657         0.018735727   -187.35727     -0.1494745     -16.115492      123.6012       109.08858      110.13165     -49881.263      2975.3854      3612.7522      1993.617     
    658000   199.14555      0.0658         0.007774106   -77.74106       40.478273     -2.0281989      123.6128       109.12841      109.89453     -49857.058      3033.8853      3657.499       1996.9148    
    659000   200.80593      0.0659         0.0066420995  -66.420995      11.18068       16.888624      123.62439      109.1198       110.00316     -49869.361      3025.7864      3618.4747      1994.6596    
    660000   201.97129      0.066          0.0039661519  -39.661519     -1.7074481      10.876594      123.63599      109.28586      109.94992     -49852.445      3025.5287      3575.3944      1997.1291    
    661000   199.23689      0.0661         0.010454466   -104.54466     -3.2091511      9.2179818      123.64759      109.31992      109.83824     -49882.062      3090.9062      3628.3952      1985.8903    
    662000   201.20356      0.0662         0.0061874737  -61.874737      2.8082656      28.458301      123.65919      109.16665      109.73088     -49988.86       3032.4549      3626.5546      1995.234     
    663000   199.93386      0.0663         0.0061792332  -61.792332     -6.7016121      30.255713      123.67079      109.20062      109.82725     -49931.12       3029.3943      3650.5433      1998.5841    
    664000   199.00956      0.0664         0.0071630544  -71.630544      0.80804634     7.023118       123.68238      109.18905      109.87235     -49907.84       3009.0125      3638.2139      2002.6862    
    665000   201.12643      0.0665         0.00042559024 -4.2559024     -4.2928141     -21.759503      123.69398      109.08602      109.93203     -49962.971      3058.5468      3631.3267      2009.0257    
    666000   198.98425      0.0666         0.0022021633  -22.021633     -5.5646328      32.35037       123.70558      109.12714      109.93203     -49884.791      3091.7353      3637.0679      1997.2439    
    667000   200.14686      0.0667         0.0089013267  -89.013267      34.358954      11.606468      123.71718      109.22229      109.74654     -49985.745      3096.3037      3649.7333      1995.0243    
    668000   201.81316      0.0668         0.0020921549  -20.921549      32.061143      58.645774      123.72878      109.11577      109.76144     -49931.529      2994.9699      3618.6065      1992.4861    
    669000   199.05259      0.0669         0.0023531609  -23.531609     -20.880994     -26.68605       123.74038      109.24046      109.88796     -49860.121      3061.062       3588.7385      1987.5556    
    670000   199.39901      0.067          0.0076969254  -76.969254      32.153044     -13.443732      123.75197      109.31934      109.72351     -49818.804      3020.2864      3660.8761      1986.8064    
    671000   200.20181      0.0671         0.011198954   -111.98954     -44.15182       16.062903      123.76357      109.20178      109.84287     -49883.946      3001.0824      3619.2248      1992.726     
    672000   199.72068      0.0672         0.014447499   -144.47499      20.731853     -9.0655926      123.77517      109.23448      109.81957     -49888.162      2989.4338      3681.086       1994.3428    
    673000   201.61897      0.0673         0.012340067   -123.40067      10.313941      15.742776      123.78677      109.33231      109.59267     -49912.005      2974.5703      3641.3224      1986.2333    
    674000   199.37717      0.0674         0.010387976   -103.87976      7.1514525      29.051125      123.79837      109.16191      109.8393      -49858.153      3016.9458      3665.9532      1993.9577    
    675000   199.11784      0.0675         0.010258452   -102.58452     -5.2728473     -27.549627      123.80996      109.08937      110.07561     -49829.707      3030.1516      3641.2149      1993.105     
    676000   199.9425       0.0676         0.0094176555  -94.176555      8.3655847     -15.737143      123.82156      108.95744      110.05182     -49925.582      2990.9592      3653.8295      1995.7436    
    677000   199.36274      0.0677         0.010847241   -108.47241      18.90193       1.2807352      123.83316      108.97485      109.91112     -49910.781      3033.4499      3645.034       1986.5581    
    678000   198.20526      0.0678         0.011189817   -111.89817      38.622573     -21.100934      123.84476      108.90574      110.26062     -49757.857      3019.9837      3608.1691      1991.4455    
    679000   199.3074       0.0679         0.013967281   -139.67281     -33.566145     -27.68445       123.85636      109.26286      109.9664      -49815.957      3058.8133      3606.0442      1988.1057    
    680000   199.80644      0.068          0.0085460908  -85.460908     -0.0021092664  -18.820973      123.86795      108.99292      110.00147     -49878.407      3051.7834      3653.569       1994.4801    
    681000   199.52601      0.0681         0.010801483   -108.01483     -11.277293      47.258985      123.87955      109.08868      109.85873     -49828.812      3006.1707      3599.9608      1987.353     
    682000   200.15935      0.0682         0.0085657277  -85.657277     -7.5481613      15.387548      123.89115      108.97873      109.98576     -49835.512      3012.2207      3541.3641      1989.2737    
    683000   199.66117      0.0683         0.0056950016  -56.950016      13.306755     -24.749388      123.90275      108.96015      110.13705     -49783.167      3023.5673      3515.147       1992.4956    
    684000   199.49609      0.0684         0.010311529   -103.11529     -25.094104     -10.077228      123.91435      108.91249      110.0711      -49893.014      3095.1759      3602.1095      1997.5351    
    685000   198.83906      0.0685         0.0098449441  -98.449441     -14.714324     -25.463489      123.92595      108.98894      109.98643     -49814.197      3014.4314      3564.4171      1995.5945    
    686000   200.17161      0.0686         0.0094158421  -94.158421     -12.991739     -26.042834      123.93754      109.10812      109.99057     -49812.381      2987.6035      3508.8581      2000.2609    
    687000   199.36551      0.0687         0.006243677   -62.43677       8.2609757     -37.194122      123.94914      108.86514      110.11042     -49882.792      3059.1731      3629.3099      1995.7891    
    688000   199.47182      0.0688         0.0038080061  -38.080061      4.9248622      18.490819      123.96074      108.9886       109.92733     -49884.526      3031.1002      3577.7237      1996.6838    
    689000   200.61529      0.0689         0.0054349063  -54.349063     -10.488873      19.577526      123.97234      108.85504      109.92921     -49936.32       3052.947       3576.1769      1997.0227    
    690000   199.22835      0.069          0.012456342   -124.56342     -16.753792     -9.2206764      123.98394      108.81015      110.14299     -49891.534      3035.6569      3565.9586      2001.0399    
    691000   198.98637      0.0691         0.0058310447  -58.310447      13.359744     -18.804187      123.99553      108.78295      109.99161     -49930.283      3031.9405      3631.457       1989.9729    
    692000   201.01609      0.0692         0.010207294   -102.07294     -10.650317     -11.801309      124.00713      109.06944      109.82538     -49904.467      3027.1493      3607.1264      1992.7102    
    693000   198.38323      0.0693         0.0054022587  -54.022587     -5.7355795     -12.902935      124.01873      108.96978      109.96675     -49803.592      3048.8024      3569.6489      1995.5843    
    694000   200.10189      0.0694         0.0037141052  -37.141052     -28.785065      9.3123448      124.03033      108.88543      109.92851     -49874.937      2982.3145      3608.8795      1990.6355    
    695000   200.5451       0.0695         0.0091567256  -91.567256     -19.963376     -42.353302      124.04193      108.81449      110.03988     -49892.388      2996.0972      3615.0126      1983.3961    
    696000   199.40216      0.0696         0.0099787774  -99.787774     -16.77803       1.5933187      124.05352      108.89621      110.01355     -49814.59       2998.0052      3558.3126      1994.6925    
    697000   201.69177      0.0697         0.0095766753  -95.766753      11.125535      15.321181      124.06512      108.67041      110.10325     -49935.337      2977.8934      3633.2528      1990.7687    
    698000   200.32544      0.0698         0.013689301   -136.89301      27.937513      13.879304      124.07672      108.67289      110.01653     -49934.612      2967.3307      3619.3166      1989.5632    
    699000   199.49504      0.0699         0.011813732   -118.13732     -24.282525      11.513688      124.08832      108.77855      109.93317     -49989.933      3010.4878      3654.511       1984.4237    
    700000   198.39011      0.07           0.0057563878  -57.563878      31.272043     -7.2472478      124.09992      108.88369      109.83663     -49918.671      3062.4947      3638.1802      1992.2178    
    701000   201.2311       0.0701         0.013039794   -130.39794      12.781466      17.617996      124.11152      108.77801      109.94195     -49908.94       3011.3011      3565.2752      1994.885     
    702000   200.42517      0.0702         0.010885054   -108.85054      22.748112     -31.721813      124.12311      108.70232      110.06712     -49906.232      3017.6453      3561.6175      2000.3168    
    703000   200.37854      0.0703         0.0021508589  -21.508589     -5.1910607      0.76718155     124.13471      108.63389      109.9767      -49923.072      2989.1873      3573.743       2002.5459    
    704000   200.83051      0.0704         0.0087482318  -87.482318      1.1695408     -20.062237      124.14631      108.5925       110.10798     -49904.233      3015.2154      3601.3845      1993.3269    
    705000   198.64651      0.0705         0.011758516   -117.58516     -4.8444124      16.198347      124.15791      108.61605      110.14008     -49823.296      3035.1567      3574.315       1991.18      
    706000   199.10536      0.0706         0.016900948   -169.00948     -13.408594      9.6466217      124.16951      108.74618      109.96592     -49947.158      3055.118       3638.4508      1998.4672    
    707000   199.65311      0.0707         0.0085653451  -85.653451      31.954681     -17.464454      124.1811       108.55515      109.89761     -49984.738      3010.818       3677.5812      1993.0358    
    708000   200.5241       0.0708         0.015203528   -152.03528     -4.8056212     -13.15164       124.1927       108.68344      110.04861     -49882.808      3038.6198      3608.3847      1997.7922    
    709000   199.21983      0.0709         0.0078909065  -78.909065     -37.070747     -3.6816795      124.2043       108.64242      110.01117     -49926.746      3074.4088      3637.6804      1996.6908    
    710000   198.96593      0.071          0.015229478   -152.29478      15.460745     -6.4917361      124.2159       108.73602      109.94114     -49878.288      3031.193       3618.4799      1996.2836    
    711000   200.8546       0.0711         0.012850399   -128.50399      5.9232939     -27.605005      124.2275       108.76155      109.89915     -49893.384      3012.6582      3651.1309      1995.4544    
    712000   199.71742      0.0712         0.012918365   -129.18365      1.6859471     -20.590096      124.23909      108.76949      109.8838      -49898.296      3034.9227      3688.0277      1995.3138    
    713000   198.42533      0.0713         0.011452607   -114.52607      39.000684     -47.726164      124.25069      108.90774      109.7589      -49839.45       3055.9255      3598.5036      1997.0311    
    714000   200.58016      0.0714         0.0079345232  -79.345232     -5.3673558     -20.223428      124.26229      109.06717      109.64617     -49793.278      2992.9048      3593.2419      2000.5724    
    715000   199.38077      0.0715         0.012542338   -125.42338     -19.102429     -16.448244      124.27389      108.99945      109.59152     -49909.245      3065.814       3643.3908      1996.2499    
    716000   199.11043      0.0716         0.0044052519  -44.052519      30.584109     -16.830381      124.28549      109.0754       109.61555     -49813.603      3097.7278      3591.3779      1994.7693    
    717000   200.10979      0.0717         0.0069915788  -69.915788     -22.087273     -3.870175       124.29709      108.93589      109.64114     -49862.398      3020.0961      3644.3298      1990.5355    
    718000   201.12949      0.0718         0.0089476907  -89.476907      0.45951541    -22.3694        124.30868      109.12263      109.51998     -49880.934      3005.4035      3619.2357      1992.874     
    719000   200.31245      0.0719         0.01296222    -129.6222      -28.176001      18.87083       124.32028      109.30384      109.46377     -49782.905      3025.1293      3595.7124      1998.4564    
    720000   201.10184      0.072          0.0098080499  -98.080499     -1.9292003     -31.456908      124.33188      108.9987       109.63401     -49856.802      3012.4984      3599.752       1989.5504    
    721000   199.77528      0.0721         0.01262968    -126.2968      -34.247372     -21.160103      124.34348      109.13993      109.71781     -49775.06       3043.435       3577.4412      1984.9607    
    722000   199.73444      0.0722         0.011727475   -117.27475      19.322916     -32.703393      124.35508      109.13408      109.65569     -49755.994      3041.1882      3603.9662      1991.9886    
    723000   199.38985      0.0723         0.0071678006  -71.678006      27.171672     -24.983922      124.36667      108.95512      109.67238     -49796.487      3035.5412      3640.3394      1994.7534    
    724000   200.4969       0.0724         0.0079444725  -79.444725     -9.7614323     -11.78125       124.37827      108.97634      109.61115     -49842.401      3031.8604      3551.14        1987.3596    
    725000   198.68994      0.0725         0.0050059227  -50.059227      8.4003695     -1.7464994      124.38987      108.99832      109.6331      -49729.601      3017.1218      3579.0215      1987.1744    
    726000   200.821        0.0726         0.012793877   -127.93877      13.40065       2.8484962      124.40147      108.85379      109.63113     -49900.19       2995.8013      3582.7943      1988.6393    
    727000   200.36285      0.0727         0.011302304   -113.02304      11.570308      64.867127      124.41307      108.90184      109.48841     -49939.047      2996.3858      3597.4689      1996.1836    
    728000   198.72981      0.0728         0.0077974249  -77.974249     -6.8932171      35.612073      124.42466      108.99326      109.52586     -49794.767      3045.9862      3547.9669      1987.2028    
    729000   200.6501       0.0729         0.0050284049  -50.284049     -27.139997      15.601808      124.43626      108.96677      109.53071     -49861.134      3019.4277      3584.9443      1989.7311    
    730000   199.83972      0.073          0.0067191839  -67.191839     -12.328345     -11.498927      124.44786      108.8153       109.71098     -49881.935      3032.9479      3615.9703      1999.149     
    731000   200.65468      0.0731         0.0089146162  -89.146162     -3.6935578      22.952387      124.45946      108.73922      109.53649     -50020.027      3048.4156      3679.0964      1992.4991    
    732000   200.2194       0.0732         0.0063577222  -63.577222      51.558175      10.964382      124.47106      108.71829      109.74202     -49848.274      3008.2939      3584.0838      1992.2723    
    733000   199.39518      0.0733         0.012103195   -121.03195     -5.4171279      7.3572095      124.48266      108.58574      109.80873     -49892.961      3009.0915      3601.324       1994.0117    
    734000   199.82407      0.0734         0.014975225   -149.75225     -34.025983     -1.2700814      124.49425      108.93014      109.68612     -49837.183      3051.2242      3584.6311      1988.5177    
    735000   199.44962      0.0735         0.01520999    -152.0999      -17.200571      5.9775378      124.50585      108.83007      109.71181     -49849.237      3054.6729      3630.6164      1982.6217    
    736000   200.79143      0.0736         0.0080789523  -80.789523     -27.429657      22.094127      124.51745      108.82687      109.52691     -49911.307      3032.1798      3642.2273      1988.1872    
    737000   200.59004      0.0737         0.013135544   -131.35544      22.428232     -21.502855      124.52905      108.8907       109.49686     -49928.065      2997.5595      3593.4156      1996.5626    
    738000   201.14116      0.0738         0.014764896   -147.64896     -0.6391101     -23.288401      124.54065      108.63827      109.68475     -49960.183      3004.2455      3654.9187      1993.8208    
    739000   200.83337      0.0739         0.011312768   -113.12768     -7.1820219     -23.885476      124.55224      108.56032      109.64317     -50070.66       3037.2044      3738.2627      1981.5068    
    740000   198.5903       0.074          0.0079787828  -79.787828     -5.354961       1.4649114      124.56384      108.69757      109.59498     -49961.475      3025.489       3680.4118      1990.1776    
    741000   198.04664      0.0741         0.013727844   -137.27844     -2.5420383     -18.920826      124.57544      108.61713      109.73102     -49919.628      3023.0091      3636.7741      1990.9034    
    742000   199.28239      0.0742         0.013422675   -134.22675     -34.868864     -5.9336965      124.58704      108.88418      109.68148     -49774.949      3026.9803      3598.3304      1989.3288    
    743000   199.07077      0.0743         0.016117938   -161.17938      12.165796     -2.6424046      124.59864      108.70384      109.79555     -49763.726      2987.2797      3573.5631      1980.0871    
    744000   199.40804      0.0744         0.0066482657  -66.482657      2.5082875     -16.066564      124.61023      108.57691      109.72217     -49871.08       2998.7979      3630.811       1989.9279    
    745000   200.05288      0.0745         0.0079830519  -79.830519      38.380192     -23.671413      124.62183      108.56021      109.68018     -49926.964      2949.1999      3648.4559      1994.5876    
    746000   201.81432      0.0746         0.011186191   -111.86191     -27.825617     -7.8324759      124.63343      108.73158      109.52238     -49920.24       2942.7699      3665.251       1990.4932    
    747000   200.96529      0.0747         0.0083163159  -83.163159     -16.692299      4.5033479      124.64503      108.53023      109.73337     -49929.899      2971.2967      3641.1205      1992.3493    
    748000   199.28103      0.0748         0.005048814   -50.48814       41.267745     -18.659043      124.65663      108.58286      109.75018     -49823.725      3033.8426      3616.604       1979.8841    
    749000   199.04793      0.0749         0.014525307   -145.25307      4.4250586      33.410457      124.66823      108.61377      109.51864     -49949.381      3038.4883      3651.6223      1993.842     
    750000   199.59798      0.075          0.0064958583  -64.958583      43.114559     -8.302479       124.67982      108.4858       109.71658     -49879.891      3009.8364      3573.2707      1983.5165    
    751000   199.49294      0.0751         0.0098722817  -98.722817     -14.468283     -33.522034      124.69142      108.60374      109.80289     -49855.286      3048.1255      3650.7037      1987.0509    
    752000   199.83077      0.0752         0.012627208   -126.27208     -45.024944     -7.3102862      124.70302      108.66709      109.70869     -49909.76       3059.7705      3578.4026      1983.1947    
    753000   202.04952      0.0753         0.011401471   -114.01471     -24.048943     -13.349911      124.71462      108.6367       109.59709     -49952.403      2997.2029      3607.8411      1990.6608    
    754000   199.96638      0.0754         0.0092835374  -92.835374     -11.220808     -0.53446861     124.72622      108.38728      109.62178     -50058.614      3043.9645      3675.5171      1986.9122    
    755000   200.41685      0.0755         0.010446946   -104.46946      10.094472     -14.962323      124.73781      108.53834      109.51762     -50048.523      3055.5537      3641.0979      1983.0469    
    756000   199.27824      0.0756         0.010681024   -106.81024     -13.874035     -18.373545      124.74941      108.38419      109.80268     -49997.047      3051.0466      3645.1321      1993.9352    
    757000   199.65779      0.0757         0.009243648   -92.43648       29.951174      7.947361       124.76101      108.31212      109.75342     -49977.594      3039.2187      3659.3369      1983.8677    
    758000   200.87417      0.0758         0.010329447   -103.29447      12.483973     -10.015978      124.77261      108.38518      109.64216     -49988.752      3027.2503      3654.4667      1990.8448    
    759000   199.17982      0.0759         0.0070365142  -70.365142      19.084416      41.058603      124.78421      108.46737      109.5252      -49959.618      2996.2543      3628.7223      1993.3072    
    760000   199.93337      0.076          0.0070874123  -70.874123      1.4327221      5.7461154      124.7958       108.51032      109.66293     -49871.495      3020.2887      3672.7431      1986.0763    
    761000   199.7709       0.0761         0.011793047   -117.93047      19.463053      18.168434      124.8074       108.3391       109.59878     -49990.305      3050.6028      3749.4408      1983.7571    
    762000   199.70802      0.0762         0.013700033   -137.00033     -14.710294      12.136623      124.819        108.40042      109.63458     -49985.127      3004.2674      3703.6569      1989.3747    
    763000   201.08554      0.0763         0.0116697     -116.697        14.920658     -30.543299      124.8306       108.62699      109.50833     -49946.759      3016.8008      3587.1436      1993.1928    
    764000   199.07363      0.0764         0.0061795114  -61.795114      29.589654     -0.864217       124.8422       108.31219      109.63922     -49920.678      3044.0537      3648.807       1987.6734    
    765000   201.15444      0.0765         0.0019840295  -19.840295      21.449974      7.7707832      124.8538       108.3772       109.68834     -49886.891      3014.1917      3587.247       1992.9609    
    766000   200.53862      0.0766         0.01322717    -132.2717       22.639243     -4.6996111      124.86539      108.44582      109.568       -49955.919      3069.6202      3639.9089      1986.4699    
    767000   201.75539      0.0767         0.013138302   -131.38302      8.3739153      0.87258625     124.87699      108.68855      109.32339     -49996.309      3047.9139      3658.0294      1988.0901    
    768000   198.99524      0.0768         0.0081283114  -81.283114      22.926902      4.4766143      124.88859      108.40221      109.48185     -50002.118      3013.5437      3647.859       1983.055     
    769000   200.57178      0.0769         0.010947393   -109.47393     -4.2033694      5.8284736      124.90019      108.5424       109.48992     -49954.004      3028.7273      3640.7837      1994.4169    
    770000   200.81179      0.077          0.010132841   -101.32841     -13.349373     -0.34740243     124.91179      108.43776      109.47483     -50008.236      3009.0229      3623.0434      1983.8714    
    771000   199.88297      0.0771         0.010892877   -108.92877      7.9731709     -4.1666006      124.92338      108.47176      109.43434     -49959.641      3071.5736      3658.0207      1997.4479    
    772000   200.58952      0.0772         0.0081215014  -81.215014      2.5588126     -28.582344      124.93498      108.42726      109.65673     -49939.67       3039.8873      3563.3085      1997.7356    
    773000   199.38333      0.0773         0.0072906104  -72.906104      3.1871573      34.509165      124.94658      108.54863      109.36984     -49952.952      3031.5402      3604.4231      1991.649     
    774000   200.02297      0.0774         0.013667175   -136.67175     -18.894441      4.7040616      124.95818      108.32655      109.7229      -49946.414      3076.0023      3655.796       1989.555     
    775000   200.71272      0.0775         0.011188763   -111.88763     -7.2869933     -8.1057627      124.96978      108.2214       109.72368     -49939.502      3041.7983      3609.2262      1989.7641    
    776000   198.86444      0.0776         0.012013908   -120.13908      24.834475      25.435829      124.98137      108.53159      109.30312     -49966.783      3057.0191      3615.5175      1996.2985    
    777000   199.6951       0.0777         0.01119703    -111.9703       6.3882031      27.596328      124.99297      108.70795      109.24873     -49860.112      3021.5718      3624.965       1990.2057    
    778000   198.97033      0.0778         0.007445764   -74.45764       6.3393207      2.246271       125.00457      108.45965      109.53346     -49871.481      3023.9273      3610.2468      1994.2854    
    779000   199.76324      0.0779         0.017803981   -178.03981      33.122202      25.694542      125.01617      108.38268      109.53991     -49861.268      3021.3827      3594.1703      1995.4092    
    780000   200.95894      0.078          0.013185286   -131.85286     -9.159384      -14.238509      125.02777      108.31416      109.59965     -49961.566      3048.1427      3681.9291      1990.666     
    781000   200.08329      0.0781         0.011379443   -113.79443      11.399695      5.9032281      125.03937      108.42866      109.45        -49905.089      3005.1221      3608.2441      1990.7759    
    782000   199.46659      0.0782         0.010298321   -102.98321      15.028281      21.055406      125.05096      108.57865      109.2464      -49929.062      3024.6025      3605.8784      2000.8672    
    783000   201.16013      0.0783         0.014287753   -142.87753     -30.694396      42.560764      125.06256      108.66251      109.24658     -49908.434      3014.6841      3622.2318      1994.4378    
    784000   200.36329      0.0784         0.0053300598  -53.300598      16.921593     -13.367788      125.07416      108.54061      109.24632     -49974.394      3017.7385      3615.5311      1991.8398    
    785000   200.16346      0.0785         0.014330724   -143.30724     -8.8669628      9.8551753      125.08576      108.6584       109.15942     -49980.868      3066.4005      3608.7057      1986.3016    
    786000   200.65346      0.0786         0.010031461   -100.31461     -9.7002402      6.1747568      125.09736      108.50468      109.30086     -50004.086      3041.6693      3659.4808      1982.7636    
    787000   199.27241      0.0787         0.0084731974  -84.731974     -34.956343      10.84473       125.10895      108.61418      109.15072     -49968.462      3025.301       3680.6603      1981.7799    
    788000   199.91811      0.0788         0.0098865515  -98.865515      21.102549     -2.6181531      125.12055      108.43124      109.4063      -49961.85       3053.6569      3613.4958      1994.2096    
    789000   199.50165      0.0789         0.0087050609  -87.050609      43.624985     -24.66786       125.13215      108.42797      109.22847     -50041.696      3046.3842      3664.1995      1994.3029    
    790000   201.23971      0.079          0.0099810818  -99.810818      3.9157134      10.616798      125.14375      108.67541      109.08857     -49960.36       3004.353       3631.0191      1990.8143    
    791000   200.6078       0.0791         0.0095662857  -95.662857      22.568077      0.33853868     125.15535      108.57016      109.27877     -49924.663      3019.3039      3589.2384      2000.8956    
    792000   200.75809      0.0792         0.014831118   -148.31118     -30.279848     -1.581081       125.16694      108.42429      109.50581     -49890.243      3016.2034      3576.6618      1998.918     
    793000   200.17117      0.0793         0.012338466   -123.38466      25.513246     -20.145161      125.17854      108.31739      109.53852     -49915.017      3008.5733      3655.5378      1993.6381    
    794000   200.28962      0.0794         0.0093583898  -93.583898     -5.4352512      19.504419      125.19014      108.29507      109.35479     -49994.482      3030.0482      3664.341       1981.8244    
    795000   201.0088       0.0795         0.0068265923  -68.265923      15.61627      -18.320552      125.20174      108.21985      109.4429      -50025.214      3026.9         3645.7501      1976.6387    
    796000   200.35748      0.0796         0.010630838   -106.30838     -21.698958      11.712142      125.21334      108.34228      109.35722     -49965.518      3051.9046      3646.7625      1981.9974    
    797000   199.86631      0.0797         0.0086946981  -86.946981     -3.9188733     -1.2936806      125.22494      108.15948      109.4197      -49992.467      3056.5094      3646.1043      1995.1686    
    798000   200.55683      0.0798         0.0034888044  -34.888044      11.612093      14.055883      125.23653      108.37329      109.06806     -50084.575      3015.2985      3699.9483      1984.5375    
    799000   199.81336      0.0799         0.0062025327  -62.025327     -17.426286     -12.006946      125.24813      108.34603      109.32256     -49990.815      3030.8154      3671.1975      1981.1492    
    800000   200.47254      0.08           0.0094676569  -94.676569     -10.093388     -8.8484383      125.25973      108.42797      109.22823     -49953.489      2999.8175      3617.1904      1978.382     
    801000   201.82844      0.0801         0.016650994   -166.50994      22.155605      14.045724      125.27133      108.38343      109.11806     -50042.936      3007.843       3670.1046      1980.9033    
    802000   201.19851      0.0802         0.015175614   -151.75614      2.2764027     -23.295623      125.28293      108.4496       109.2628      -49896.7        3027.6776      3620.7191      1980.1717    
    803000   199.03453      0.0803         0.0093285994  -93.285994      13.119343      34.629941      125.29452      108.3979       109.07792     -50011.439      3044.1084      3688.8071      1984.137     
    804000   197.87987      0.0804         0.0070539233  -70.539233      14.920618      16.358338      125.30612      108.51335      109.17213     -49896.621      3011.037       3684.1844      1981.5799    
    805000   199.93004      0.0805         0.012101413   -121.01413      4.949505      -43.526238      125.31772      108.47071      109.29394     -49887.63       3032.724       3681.1891      1977.5313    
    806000   200.41912      0.0806         0.0081583236  -81.583236      4.9398773      13.815264      125.32932      108.41167      109.16454     -49960.258      2971.1232      3677.3581      1973.961     
    807000   202.03061      0.0807         0.0099272062  -99.272062     -28.22916      -23.079068      125.34092      108.32563      109.28742     -50035.364      2996.9023      3723.759       1975.2394    
    808000   197.73258      0.0808         0.0089193361  -89.193361      6.0173961     -0.6734053      125.35251      108.39545      109.2726      -49880.489      3072.4869      3656.778       1974.2255    
    809000   200.53611      0.0809         0.0029989537  -29.989537      10.407536     -18.223804      125.36411      108.332        109.08776     -50016.625      3036.1995      3730.2185      1984.2505    
    810000   199.01999      0.081          0.010608144   -106.08144     -44.764833     -7.6742965      125.37571      108.50031      109.02023     -50036.01       3071.8252      3684.9114      1980.8021    
    811000   199.94922      0.0811         0.0051913856  -51.913856      18.02996      -23.91961       125.38731      108.4369       109.09456     -50009.087      3038.4681      3623.6714      1988.407     
    812000   199.35493      0.0812         0.0082737708  -82.737708     -19.882099      37.395933      125.39891      108.75918      108.73375     -49959.922      3023.104       3623.6489      1988.9838    
    813000   200.32099      0.0813         0.006718719   -67.18719       17.522705     -3.7537783      125.41051      108.35886      109.10757     -49964.851      3015.9569      3571.6249      1992.3832    
    814000   199.07713      0.0814        -0.001463543    14.63543      -17.003118     -5.2850708      125.4221       108.47772      108.95925     -49943.453      3036.4025      3619.2776      1986.2637    
    815000   199.49999      0.0815         0.0066541989  -66.541989     -34.076984      8.5523425      125.4337       108.56694      108.8457      -50020.635      3036.3574      3718.5268      1988.8865    
    816000   200.82088      0.0816         0.010444827   -104.44827      1.5718915     -12.645572      125.4453       108.33834      108.98536     -50074.402      3002.667       3666.1873      1991.3561    
    817000   201.42135      0.0817         0.012000847   -120.00847     -32.727392     -23.972514      125.4569       108.57609      108.97868     -49986.21       3033.3045      3621.802       1995.439     
    818000   201.61251      0.0818         0.011491082   -114.91082      11.261926     -24.553085      125.4685       108.30619      109.03839     -50082.621      3001.4915      3680.7185      1981.9816    
    819000   198.74791      0.0819         0.015431424   -154.31424      12.894952      46.457518      125.48009      108.22747      109.13127     -49963.817      3028.8682      3648.4431      1990.0438    
    820000   200.66144      0.082          0.0092609055  -92.609055     -14.031241      21.351784      125.49169      108.34945      109.16757     -49975.897      3016.822       3612.245       1991.2724    
    821000   200.54216      0.0821         0.010589746   -105.89746      22.607809      9.581015       125.50329      108.26066      109.23725     -49981.605      3037.3733      3618.1713      1990.6323    
    822000   198.90189      0.0822         0.0067844658  -67.844658      34.714922     -33.066706      125.51489      108.12534      109.30982     -49970.766      3086.6917      3657.6453      1982.038     
    823000   198.72898      0.0823         0.010931157   -109.31157     -18.935831     -27.987538      125.52649      108.18958      109.16273     -50016.104      3053.7729      3698.9279      1985.8266    
    824000   200.60731      0.0824         0.010713464   -107.13464      0.2008479     -14.477203      125.53808      108.47941      108.85476     -50056.073      3043.9746      3663.5152      1982.2055    
    825000   200.35634      0.0825         0.0074591183  -74.591183     -14.103393      9.8834707      125.54968      108.38209      108.92125     -50068.47       3037.513       3651.397       1986.829     
    826000   199.55264      0.0826         0.01487378    -148.7378       32.515463      13.843696      125.56128      108.33447      109.00485     -49939.64       3036.0406      3645.8393      1980.636     
    827000   200.55335      0.0827         0.011691961   -116.91961     -9.2918017     -4.9607886      125.57288      108.37485      109.14438     -49919.761      3009.7354      3615.757       1982.8307    
    828000   200.14492      0.0828         0.0094259365  -94.259365      0.99937684     18.480635      125.58448      108.30169      109.17516     -49946.206      3053.0455      3640.8741      1979.8706    
    829000   199.68925      0.0829         0.013598458   -135.98458     -16.375481      2.6203724      125.59607      108.25572      109.10258     -50061.132      3090.1806      3664.6876      1979.0197    
    830000   199.3202       0.083          0.015867703   -158.67703      34.10634       3.2349395      125.60767      108.16369      109.16322     -49990.252      3021.1644      3654.0214      1990.3287    
    831000   201.33605      0.0831         0.011367634   -113.67634      14.891693     -17.783874      125.61927      108.15537      109.23427     -49963.571      3029.1644      3563.9851      1982.0263    
    832000   200.70969      0.0832         0.017320043   -173.20043      3.0406138     -16.829953      125.63087      108.07136      109.20007     -50021.1        3067.3993      3699.3024      1975.4312    
    833000   200.38671      0.0833         0.0071419078  -71.419078      9.9942546      13.87131       125.64247      108.14632      108.99493     -50008.162      3014.6964      3686.0257      1976.17      
    834000   201.06193      0.0834         0.011007917   -110.07917      4.143282      -32.341715      125.65407      108.33388      109.03616     -49964.441      3040.7631      3628.9825      1980.7136    
    835000   200.0516       0.0835         0.0088318252  -88.318252     -5.3299361     -16.826945      125.66566      108.08368      109.19881     -49965.741      3009.8235      3667.2944      1988.0801    
    836000   200.45654      0.0836         0.015572154   -155.72154      4.771928       17.894686      125.67726      108.16487      109.08451     -50000.898      3049.729       3713.2692      1977.1452    
    837000   199.74352      0.0837         0.012044102   -120.44102     -33.130227      33.3894        125.68886      108.01322      109.12426     -50006.891      3004.4984      3679.0717      1979.0141    
    838000   201.65064      0.0838         0.015072847   -150.72847      14.463567     -0.067069366    125.70046      108.03599      109.24432     -50004.503      3031.0327      3624.8728      1990.2373    
    839000   200.1543       0.0839         0.012771024   -127.71024     -7.3262978     -8.2246231      125.71206      108.01209      109.1923      -50044.944      3067.2603      3715.2851      1990.0247    
    840000   200.22465      0.084          0.0089401847  -89.401847     -23.575091      30.349288      125.72365      108.10496      109.23038     -49845.993      3021.0706      3607.2356      1981.7681    
    841000   199.40837      0.0841         0.012385481   -123.85481      18.679721      16.978527      125.73525      107.94168      109.22313     -49969.726      3023.0396      3682.9094      1990.7971    
    842000   198.92252      0.0842         0.017642888   -176.42888     -10.894935     -8.5832423      125.74685      108.06045      109.35374     -49921.792      3038.6144      3672.9709      1994.3575    
    843000   199.24391      0.0843         0.0081945253  -81.945253     -39.268929      20.011153      125.75845      108.20296      109.03783     -49905.575      3078.1835      3643.9431      1991.3219    
    844000   200.49713      0.0844         0.013360635   -133.60635      22.086403     -27.695397      125.77005      107.97779      109.18329     -50010.285      3038.1264      3699.0499      1991.7203    
    845000   200.31016      0.0845         0.014141402   -141.41402     -13.898713      5.046898       125.78164      108.03258      109.25285     -49857.647      3030.7965      3622.5382      1992.5405    
    846000   199.99318      0.0846         0.0086101271  -86.101271      20.154146     -5.7946993      125.79324      107.8206       109.4359      -49912.635      3059.6578      3692.0496      1986.2429    
    847000   198.88088      0.0847         0.00285601    -28.5601        18.711712      8.715198       125.80484      107.92627      109.27211     -49908.667      3068.4721      3686.9377      1986.6853    
    848000   201.07504      0.0848         0.008259598   -82.59598      -0.53242899    -23.36289       125.81644      108.09511      109.10364     -49919.772      3009.7691      3656.4407      1987.7256    
    849000   200.3656       0.0849         0.0065780689  -65.780689     -1.2963457     -12.51266       125.82804      108.06728      109.11123     -49943.831      3065.0857      3694.2949      1966.4437    
    850000   200.38109      0.085          0.018439069   -184.39069      24.267589      5.4806961      125.83964      108.0893       109.20113     -49883.405      3013.9286      3646.665       1974.2625    
    851000   200.34179      0.0851         0.01286255    -128.6255       6.4618813      13.363149      125.85123      108.06279      109.0241      -50020.447      3058.5096      3713.9103      1986.6923    
    852000   199.64729      0.0852         0.012181305   -121.81305     -21.046953     -19.696198      125.86283      108.17416      109.01931     -49926.001      3072.2429      3671.1802      1981.9287    
    853000   199.73234      0.0853         0.015485492   -154.85492     -13.21383       7.4766698      125.87443      108.32719      108.90862     -49913.894      3041.0571      3627.6546      1987.2263    
    854000   199.74994      0.0854         0.012962469   -129.62469      33.385987      12.4233        125.88603      108.08079      109.0302      -49962.972      3052.966       3663.944       1979.5392    
    855000   199.78913      0.0855         0.0098628222  -98.628222      25.901203      21.595829      125.89763      108.08617      109.11229     -49838.256      3050.9397      3570.1757      1987.5289    
    856000   200.02684      0.0856         0.0093181104  -93.181104      2.5265988      29.277325      125.90922      107.89672      109.0244      -50006.659      3041.9131      3714.242       1976.7663    
    857000   201.07529      0.0857         0.0083249929  -83.249929     -6.0322824      0.12582753     125.92082      108.09331      108.9852      -49964.262      3046.2298      3622.9111      1973.8848    
    858000   202.03685      0.0858         0.0038456937  -38.456937      11.122482      25.450409      125.93242      108.14908      108.91751     -49954.693      3000.219       3659.9825      1979.9702    
    859000   199.95937      0.0859         0.0070484716  -70.484716     -3.722004       32.658672      125.94402      108.16033      108.96113     -49863.221      2975.4376      3618.4535      1985.0774    
    860000   199.99623      0.086          0.0094269959  -94.269959     -15.22898      -44.754118      125.95562      108.18586      109.08701     -49819.402      2978.4887      3602.4162      1989.0469    
    861000   198.71226      0.0861         0.013533408   -135.33408     -33.805555     -20.635735      125.96721      108.26866      109.15236     -49718.143      3027.3449      3607.5999      1993.442     
    862000   200.36191      0.0862         0.012483933   -124.83933     -6.0445664      22.791597      125.97881      108.16775      108.93333     -49882.283      2973.0031      3663.0948      1982.5778    
    863000   199.01229      0.0863         0.014331596   -143.31596     -52.184334      35.647902      125.99041      108.26017      109.01376     -49805.302      2986.2624      3660.3782      1983.1566    
    864000   199.88245      0.0864         0.0088468621  -88.468621     -12.734422      8.5949255      126.00201      108.36609      108.80218     -49807.414      2949.1307      3696.1441      1980.2101    
    865000   198.50308      0.0865         0.010569704   -105.69704      37.401208      16.628656      126.01361      108.45375      108.72541     -49773.617      2989.5093      3668.179       1972.7628    
    866000   201.01278      0.0866         0.014105597   -141.05597      23.961671     -3.5886332      126.02521      108.22919      108.92164     -49845.562      2969.5694      3669.0197      1981.5128    
    867000   200.45002      0.0867         0.012312744   -123.12744      24.358549     -8.4994806      126.0368       108.26707      108.86568     -49832.781      2994.8763      3651.9193      1977.4651    
    868000   199.77864      0.0868         0.0059562688  -59.562688      39.071497     -12.628078      126.0484       108.12724      108.87698     -49857.314      2989.6428      3643.1444      1978.4091    
    869000   200.78525      0.0869         0.0045349413  -45.349413     -23.571614      0.10094835     126.06         108.20092      108.93769     -49886.674      2982.4863      3671.2323      1976.4378    
    870000   200.21189      0.087          0.012711806   -127.11806     -27.406816     -13.828106      126.0716       108.10534      109.03942     -49964.096      3053.4371      3699.9543      1980.1161    
    871000   198.96609      0.0871         0.0071013014  -71.013014      17.6016        16.310855      126.0832       107.98301      108.98641     -49921.875      3031.9951      3650.679       1985.9082    
    872000   199.74117      0.0872         0.0088410537  -88.410537      30.660851     -1.6412687      126.09479      107.93543      109.031       -49966.191      3024.436       3602.9916      1986.2139    
    873000   201.17419      0.0873         0.0079714676  -79.714676      1.0559473      25.975901      126.10639      108.14572      108.78745     -49940.136      3018.5204      3665.8522      1974.0307    
    874000   199.43232      0.0874         0.0041844027  -41.844027      7.3784655      2.6289342      126.11799      107.93102      109.21651     -49828.251      3063.3301      3620.0661      1980.467     
    875000   199.81133      0.0875         0.0061379954  -61.379954      12.226689     -18.971825      126.12959      107.95987      108.99469     -49903.134      3023.7371      3672.0823      1981.0834    
    876000   201.20912      0.0876         0.015891031   -158.91031     -9.6137808      2.355988       126.14119      108.2132       108.87401     -49892.293      3032.1769      3636.5483      1974.7511    
    877000   200.07719      0.0877         0.011337301   -113.37301      22.347077      14.714528      126.15278      108.21231      108.65719     -49917.682      3068.3858      3658.8204      1968.9207    
    878000   197.35497      0.0878         0.0097114338  -97.114338      30.784974      5.5277621      126.16438      108.11594      108.74876     -49929.526      3027.0932      3714.7831      1986.2086    
    879000   200.25472      0.0879         0.009654154   -96.54154      -32.061679      27.756005      126.17598      108.27012      108.66527     -49943.048      3011.8148      3689.7798      1986.9807    
    880000   199.98722      0.088          0.0087378777  -87.378777      11.079743      8.2889534      126.18758      108.08996      108.71356     -49933.526      3022.8945      3710.3939      1978.6604    
    881000   200.87471      0.0881         0.0065089036  -65.089036      8.9998067      11.045497      126.19918      108.04491      108.78947     -49966.023      3049.6398      3692.3396      1980.4448    
    882000   200.82142      0.0882         0.0066493748  -66.493748     -16.478216      12.500789      126.21078      108.24345      108.61277     -49953.61       3001.6864      3685.4969      1975.5212    
    883000   200.02509      0.0883         0.010657597   -106.57597      16.608778     -11.555893      126.22237      108.0742       108.86451     -49928.074      3029.6269      3604.7885      1982.1302    
    884000   199.74158      0.0884         0.004400239   -44.00239       28.739574      9.7312988      126.23397      107.9084       108.86073     -49956.516      3071.3211      3666.5915      1975.6145    
    885000   200.49988      0.0885         0.010140552   -101.40552      25.663537     -22.540827      126.24557      108.05949      108.7358      -49957.075      3011.8512      3713.928       1988.7071    
    886000   200.31179      0.0886         0.012247725   -122.47725      4.6724417      2.8982873      126.25717      108.08012      108.7893      -49903.082      3008.2741      3629.1629      1996.8889    
    887000   199.22887      0.0887         0.013214915   -132.14915     -41.41474      -0.37493854     126.26877      108.21802      108.79889     -49842.763      3042.6215      3650.4751      1987.9631    
    888000   200.54904      0.0888         0.0079590769  -79.590769      12.49995      -40.580954      126.28036      108.18648      108.67343     -49949.125      3049.1919      3655.2828      1992.3477    
    889000   200.56025      0.0889         0.011705802   -117.05802     -8.8457936      29.559097      126.29196      108.17367      108.70043     -49872.888      3022.8056      3619.7574      1984.9986    
    890000   201.18063      0.089          0.017912936   -179.12936     -18.124482     -50.95405       126.30356      108.14412      108.89243     -49899.358      3049.1057      3650.5573      1977.1935    
    891000   200.37827      0.0891         0.011482298   -114.82298     -21.209452      27.349812      126.31516      108.20368      108.64951     -49925.618      3046.5538      3673.2993      1983.1379    
    892000   201.06887      0.0892         0.014318778   -143.18778     -25.604112      41.179896      126.32676      108.02758      108.80362     -49939.073      2991.8952      3691.0172      1977.185     
    893000   199.48391      0.0893         0.01096086    -109.6086       8.1258189     -3.4819223      126.33835      107.67829      109.05059     -49965.395      3035.7786      3710.6277      1984.1224    
    894000   200.25287      0.0894         0.011253556   -112.53556     -56.647417     -13.417853      126.34995      108.06785      108.99633     -49835.038      3036.6936      3556.8923      1991.2833    
    895000   198.93859      0.0895         0.010612863   -106.12863      1.5259868     -44.403113      126.36155      107.792        109.17548     -49803.865      3054.0172      3632.7244      1987.1641    
    896000   200.35027      0.0896         0.0083158877  -83.158877      9.1054333      20.431573      126.37315      107.84681      108.90375     -49875.786      3034.2312      3639.7345      1986.7489    
    897000   199.61922      0.0897         0.0077289407  -77.289407      38.969061      37.069091      126.38475      107.89869      108.80009     -49886.4        3015.7362      3613.7427      1983.8693    
    898000   200.4154       0.0898         0.0036321269  -36.321269      29.961596      25.116655      126.39635      108.0483       108.5999      -49885.394      2984.2583      3641.1426      1979.2563    
    899000   199.95722      0.0899         0.013101236   -131.01236      3.8695341      8.0975609      126.40794      108.08998      108.76519     -49818.057      3039.5569      3603.4557      1987.6722    
    900000   199.3264       0.09           0.013981937   -139.81937     -17.404614      4.7517286      126.41954      108.09089      108.82776     -49859.459      3033.861       3674.6585      1987.4605    
    901000   198.28055      0.0901         0.0097975212  -97.975212      11.776187      14.224974      126.43114      107.99781      108.82637     -49795.082      2974.2416      3666.5623      1987.46      
    902000   200.31499      0.0902         0.013524739   -135.24739     -13.770675     -18.890918      126.44274      108.0495       108.8308      -49815.037      3001.4886      3632.3567      1993.821     
    903000   199.73949      0.0903         0.0082820205  -82.820205      20.229256     -13.973073      126.45434      108.18142      108.72839     -49713.383      3007.6302      3544.9159      1984.842     
    904000   200.3716       0.0904         0.011766518   -117.66518      17.348524     -1.8954973      126.46593      108.0542       108.6126      -49915.965      3024.5501      3667.5169      1982.1991    
    905000   198.72825      0.0905         0.012192404   -121.92404     -28.166499      29.354478      126.47753      107.99868      108.68685     -49847.207      3018.0187      3642.1002      1981.4191    
    906000   201.07913      0.0906         0.011150335   -111.50335     -35.535473      19.511172      126.48913      108.25484      108.49494     -49842.801      3021.6736      3592.6172      1981.0146    
    907000   199.89496      0.0907         0.016960667   -169.60667     -10.949596      7.9844531      126.50073      108.02474      108.59842     -49931.107      3025.5852      3653.237       1980.1935    
    908000   200.14629      0.0908         0.0077847124  -77.847124      28.311129     -17.867048      126.51233      107.84641      108.89173     -49821.95       3049.3926      3601.9893      1983.8956    
    909000   199.07623      0.0909         0.010212317   -102.12317      15.004339      6.3961755      126.52392      107.87718      108.80798     -49781.322      3038.3948      3590.6434      1976.1567    
    910000   200.77338      0.091          0.011590406   -115.90406      3.9101692      4.3124561      126.53552      107.84478      108.75832     -49894.601      3009.2405      3609.3579      1991.4815    
    911000   200.19396      0.0911         0.0092737293  -92.737293     -5.5651627      36.032006      126.54712      107.91284      108.61029     -49884.399      3009.5268      3619.1018      1983.1456    
    912000   199.32934      0.0912         0.012804622   -128.04622      10.977057      7.9883713      126.55872      108.09449      108.5754      -49787.453      3047.9812      3599.9414      1978.2727    
    913000   199.50418      0.0913         0.0091739449  -91.739449      4.8513025     -23.766799      126.57032      108.03255      108.62996     -49861.715      3046.0392      3613.0547      1979.4234    
    914000   198.32155      0.0914         0.0073878421  -73.878421      2.7981818      8.0944032      126.58192      107.99548      108.67361     -49837.505      3059.7542      3611.6942      1975.9117    
    915000   198.86627      0.0915         0.0099358563  -99.358563     -20.666292     -11.08289       126.59351      108.23749      108.54445     -49732.879      3025.7658      3572.9608      1975.2812    
    916000   200.0986       0.0916         0.010563693   -105.63693     -24.308352     -3.7065837      126.60511      108.28113      108.43982     -49795.071      3053.9142      3563.3133      1978.3904    
    917000   198.82091      0.0917         0.0053971668  -53.971668      20.287916      14.592457      126.61671      107.76495      108.66509     -49931.531      3038.7392      3656.375       1977.1106    
    918000   200.75746      0.0918         0.0054529607  -54.529607      35.172581      0.071600875    126.62831      107.80089      108.67047     -49898.227      3034.2311      3650.7187      1989.4417    
    919000   199.18202      0.0919         0.013178326   -131.78326     -9.7102374      12.930111      126.63991      108.00926      108.54321     -49888.574      3053.4987      3633.6659      1978.3554    
    920000   200.10307      0.092          0.006672904   -66.72904      -36.81662       17.556553      126.6515       108.1761       108.37759     -49835.156      3022.4993      3607.4503      1980.224     
    921000   199.77468      0.0921         0.009189853   -91.89853       3.3431575     -14.304463      126.6631       107.98424      108.58996     -49850.271      3061.9126      3648.5774      1979.679     
    922000   198.63846      0.0922         0.0066264355  -66.264355     -8.81528        41.716752      126.6747       107.95525      108.39969     -49933.759      3023.1987      3683.6518      1980.516     
    923000   199.84156      0.0923         0.0029588066  -29.588066     -4.8857565      30.191921      126.6863       108.08199      108.32313     -49939.137      3063.5725      3646.04        1977.9269    
    924000   199.68807      0.0924         0.012810608   -128.10608      14.108627     -19.256511      126.6979       107.81809      108.71683     -49890.406      2999.7222      3642.0144      1973.5678    
    925000   199.58807      0.0925         0.0080018464  -80.018464      28.001651      0.32643486     126.70949      107.84893      108.5378      -49940.728      3051.4208      3684.6084      1995.8438    
    926000   198.88045      0.0926         0.015658366   -156.58366      8.6413565      32.442762      126.72109      108.1267       108.35032     -49863.415      3019.0643      3666.3309      1983.4703    
    927000   199.34328      0.0927         0.010746823   -107.46823      33.316959     -18.041784      126.73269      107.69047      108.84297     -49842.498      3060.6278      3578.118       1988.8599    
    928000   200.35541      0.0928         0.014097558   -140.97558      42.138217      23.257202      126.74429      107.93324      108.4837      -49917.7        3002.049       3641.096       1986.6062    
    929000   199.63327      0.0929         0.0094612121  -94.612121      17.017619     -34.094113      126.75589      107.89024      108.73982     -49814.961      3031.4423      3584.4933      1996.4992    
    930000   200.33482      0.093          0.010130121   -101.30121     -39.830302     -10.310819      126.76749      108.11295      108.57123     -49805.394      3000.2625      3615.3202      1991.0433    
    931000   200.01276      0.0931         0.012182506   -121.82506      6.5158879     -22.367156      126.77908      107.78627      108.87362     -49795.86       3011.9695      3594.435       1991.6951    
    932000   199.62844      0.0932         0.011155513   -111.55513      34.229493      12.782586      126.79068      107.77034      108.67907     -49813.644      2989.879       3630.0391      1992.2341    
    933000   198.40423      0.0933         0.0061591167  -61.591167     -21.065031      20.65688       126.80228      107.70886      108.79163     -49781.76       3031.0716      3613.9416      1995.8002    
    934000   199.83883      0.0934         0.008236034   -82.36034       11.209886      15.198004      126.81388      107.57604      108.95727     -49787.967      3048.1577      3607.6584      1984.298     
    935000   199.99227      0.0935         0.012229528   -122.29528      9.1573083     -0.073306323    126.82548      107.73494      108.75429     -49824.437      3001.8101      3650.078       2000.6713    
    936000   201.69025      0.0936         0.0080856777  -80.856777     -10.890706      32.512033      126.83707      107.73547      108.77532     -49797.491      3005.4584      3538.884       2001.6233    
    937000   198.64557      0.0937         0.0067151308  -67.151308      26.718556     -12.492686      126.84867      107.89334      108.66606     -49775.356      3017.6683      3610.8523      1996.5236    
    938000   201.03248      0.0938         0.010722273   -107.22273      22.711103     -3.015189       126.86027      107.85384      108.61281     -49898.068      2983.4914      3602.7457      1993.9327    
    939000   198.83145      0.0939         0.013833612   -138.33612      34.415329      7.9230424      126.87187      107.6899       108.84209     -49785.02       3004.8892      3644.6414      1987.4744    
    940000   198.53615      0.094          0.0097752788  -97.752788     -3.7165244     -31.500433      126.88347      107.62278      108.89253     -49822.591      3064.1153      3687.7068      1985.6007    
    941000   198.47736      0.0941         0.012290125   -122.90125      25.086558     -4.2627674      126.89506      107.79629      108.6736      -49796.043      3071.5093      3643.0465      1987.8079    
    942000   200.73276      0.0942         0.01431019    -143.1019      -17.81706      -1.2633651      126.90666      107.73984      108.62687     -49943.491      2998.1204      3654.9644      1996.9432    
    943000   199.10625      0.0943         0.0085917776  -85.917776     -10.962719      22.992319      126.91826      107.66154      108.62354     -49875.169      3016.8319      3638.3812      1975.8205    
    944000   200.93656      0.0944         0.0059444281  -59.444281      16.913833     -2.5242618      126.92986      107.84249      108.53624     -49841.688      3063.4129      3588.7886      1980.6627    
    945000   200.24211      0.0945         0.0082937069  -82.937069      16.491468      26.859209      126.94146      107.80436      108.58649     -49788.498      3075.7588      3581.8895      1984.735     
    946000   201.35123      0.0946         0.011548741   -115.48741      14.952123     -10.34117       126.95306      107.79022      108.61061     -49844.662      3028.1311      3660.449       1980.2732    
    947000   199.23679      0.0947         0.0070420678  -70.420678     -11.088741      13.404439      126.96465      107.76969      108.55203     -49837.079      3019.144       3653.6318      1984.5758    
    948000   200.56973      0.0948         0.0093197312  -93.197312      3.5012945      9.720642       126.97625      107.95891      108.43682     -49783.082      3038.4749      3598.5784      1981.8025    
    949000   200.71147      0.0949         0.0095568454  -95.568454      31.380387      40.419118      126.98785      107.99276      108.32559     -49812.594      3011.9815      3643.5045      1983.0056    
    950000   200.2056       0.095          0.017585507   -175.85507     -4.7435292      2.1911856      126.99945      107.76616      108.70721     -49771.673      3025.6699      3657.4842      1983.5203    
    951000   198.75698      0.0951         0.011482388   -114.82388     -2.0764843     -13.214766      127.01105      107.70632      108.60245     -49879.358      3020.8973      3730.9527      1992.9313    
    952000   199.50888      0.0952         0.012002525   -120.02525      0.86432484     15.713137      127.02264      107.94719      108.41688     -49777.426      3014.7132      3636.5023      1983.8848    
    953000   200.13835      0.0953         0.015061303   -150.61303      9.8216333     -8.3105258      127.03424      107.59514      108.672       -49876.698      3018.122       3694.4383      1984.1282    
    954000   199.85837      0.0954         0.01126733    -112.6733       7.7708009      3.8039174      127.04584      107.78314      108.4907      -49769.403      2987.495       3619.3883      1978.7344    
    955000   200.42246      0.0955         0.008178537   -81.78537       9.3584398      0.22793288     127.05744      107.81219      108.59381     -49766.727      2976.4133      3628.5069      1981.6119    
    956000   199.96092      0.0956         0.0087225357  -87.225357     -4.8449105      32.688417      127.06904      107.65119      108.63959     -49800.68       3039.8722      3627.6838      1986.6118    
    957000   200.3521       0.0957         0.007913583   -79.13583       9.9895007      10.610413      127.08063      107.77669      108.55273     -49795.083      2998.6937      3610.2571      1984.2576    
    958000   201.09027      0.0958         0.0094853142  -94.853142      36.016445     -23.259934      127.09223      107.73154      108.79443     -49638.043      2996.7874      3553.4672      1980.1672    
    959000   199.75741      0.0959         0.010931568   -109.31568      21.983882     -17.563456      127.10383      107.77818      108.41553     -49833.715      3042.0423      3629.01        1986.9471    
    960000   198.72745      0.096          0.0096054364  -96.054364      24.542863     -0.73226765     127.11543      107.84353      108.42769     -49729.172      3018.6556      3588.381       1987.1013    
    961000   201.27119      0.0961         0.017039848   -170.39848      4.0130583      8.745074       127.12703      107.87038      108.50873     -49722.088      2994.5596      3668.3325      1977.4749    
    962000   199.8585       0.0962         0.01235519    -123.5519      -3.6962682      4.1201935      127.13863      107.69881      108.46823     -49875.476      3040.477       3656.3696      1984.5478    
    963000   199.68883      0.0963         0.0091036775  -91.036775     -0.3099972     -19.930218      127.15022      107.60368      108.65518     -49820.422      3052.3325      3627.5752      1986.6715    
    964000   200.64312      0.0964         0.0063633329  -63.633329      24.053499     -15.52166       127.16182      107.71915      108.55469     -49783.397      3031.8341      3573.5979      1998.626     
    965000   201.22235      0.0965         0.010697177   -106.97177     -4.2652436      33.841764      127.17342      107.80874      108.37117     -49837.425      3056.6416      3617.3285      1995.8344    
    966000   199.70381      0.0966         0.019405859   -194.05859     -9.7910017     -5.035583       127.18502      107.78074      108.48337     -49866.456      3047.054       3641.5884      1982.7069    
    967000   200.34853      0.0967         0.020214845   -202.14845      8.569531       1.5392153      127.19662      107.66262      108.51023     -49886.842      3004.7727      3665.157       1992.8028    
    968000   200.38777      0.0968         0.011058092   -110.58092      4.272111       24.335932      127.20821      107.5231       108.52695     -49902.145      3020.1835      3628.9071      1978.9443    
    969000   199.66142      0.0969         0.0068076141  -68.076141      9.2299361     -3.1352118      127.21981      107.6207       108.34251     -49950.395      3019.1967      3671.3219      1988.2664    
    970000   199.69225      0.097          0.0034163885  -34.163885     -4.8296533      51.955229      127.23141      107.68459      108.25218     -49907.981      2965.6465      3657.4049      1990.5858    
    971000   199.79193      0.0971         0.0064364906  -64.364906      18.233132     -28.035817      127.24301      107.69076      108.38513     -49896.174      3041.0256      3661.0393      1994.0656    
    972000   200.41376      0.0972         0.0074864149  -74.864149      45.041855      6.6187815      127.25461      107.67756      108.51262     -49820.906      3025.8591      3615.6708      1997.8416    
    973000   199.88217      0.0973         0.011460743   -114.60743      58.630146      5.197798       127.2662       107.32687      108.67487     -49866.862      2929.9402      3663.116       1992.0192    
    974000   199.2297       0.0974         0.013779009   -137.79009      9.2687933     -7.6502683      127.2778       107.30413      108.71375     -49872.022      3057.7522      3662.5679      1983.5605    
    975000   199.94065      0.0975         0.0092448488  -92.448488     -6.3017864     -21.625198      127.2894       107.33379      108.57237     -49954.871      3025.1213      3637.078       1985.8654    
    976000   200.96797      0.0976         0.011841927   -118.41927      21.287153     -13.800003      127.301        107.42182      108.50396     -49929.619      2955.5304      3677.7048      1981.8788    
    977000   200.10325      0.0977         0.0076977577  -76.977577     -25.642793      22.501963      127.3126       107.62709      108.36051     -49843.889      2993.7802      3630.2576      1979.2957    
    978000   199.07582      0.0978         0.012304562   -123.04562     -16.482483     -1.0031798      127.3242       107.62237      108.49301     -49811.257      3060.9839      3572.891       1985.9798    
    979000   199.55886      0.0979         0.0067118533  -67.118533     -19.767884     -11.979673      127.33579      107.43873      108.75906     -49825.246      3019.741       3572.7236      1983.7755    
    980000   201.06592      0.098          0.0085479957  -85.479957     -30.447541     -4.7610423      127.34739      107.38894      108.67317     -49912.977      3058.1432      3662.7894      1979.8386    
    981000   200.56498      0.0981         0.0088907175  -88.907175      1.545663      -0.95627329     127.35899      107.23526      108.77146     -49901.022      2990.8575      3611.7546      1983.5334    
    982000   200.86209      0.0982         0.0063517092  -63.517092     -4.0914159     -21.414099      127.37059      107.16195      108.74768     -49936.359      3020.0966      3659.9852      1979.1813    
    983000   201.01144      0.0983         0.011525308   -115.25308      25.059305      6.7116622      127.38219      107.15681      108.76467     -49934.082      3017.6938      3608.4937      1982.5353    
    984000   200.83773      0.0984         0.010209389   -102.09389      20.763517     -4.3565457      127.39378      107.18077      108.67049     -49983.397      3012.9739      3626.169       1984.4934    
    985000   199.67501      0.0985         0.014197575   -141.97575     -22.426359      41.646303      127.40538      107.41992      108.55652     -49821.215      3054.2478      3621.683       1981.9459    
    986000   198.71024      0.0986         0.011819932   -118.19932      24.000639      20.992564      127.41698      107.1152       108.68683     -49898.064      3022.1563      3661.9451      1978.0917    
    987000   201.59787      0.0987         0.0041975491  -41.975491     -7.0657751     -13.597066      127.42858      107.2228       108.67437     -49914.466      3020.0503      3596.4118      1981.4773    
    988000   200.34917      0.0988         0.0060160771  -60.160771      24.121534      19.423352      127.44018      106.97329      108.63004     -50074.589      3004.3002      3677.4641      1990.4481    
    989000   199.2226       0.0989         0.013850144   -138.50144     -20.344798      21.762948      127.45177      106.95683      108.93422     -49886.726      3031.2793      3582.8169      1989.1727    
    990000   200.29923      0.099          0.012140947   -121.40947     -1.6064803     -40.549765      127.46337      107.05429      108.76584     -49967.439      3022.9271      3648.0779      1988.8531    
    991000   199.05232      0.0991         0.0057947852  -57.947852      2.8136881      45.751985      127.47497      107.32162      108.47028     -49885.043      3010.1827      3598.7231      1991.381     
    992000   200.52538      0.0992         0.012409204   -124.09204     -10.729938      17.243959      127.48657      107.00345      108.76165     -49956.555      2996.816       3658.7831      1997.24      
    993000   199.79416      0.0993         0.012762728   -127.62728      29.081927     -12.844937      127.49817      107.11557      108.61329     -49875.651      3005.4507      3681.8936      1984.9505    
    994000   201.47327      0.0994         0.011455797   -114.55797     -29.371359      15.047131      127.50977      107.16394      108.73183     -49926.52       2977.6658      3649.1955      2000.4855    
    995000   199.05015      0.0995         0.0018652892  -18.652892      23.134745     -0.67585188     127.52136      107.18063      108.72488     -49776.988      3002.186       3581.4808      1998.3904    
    996000   199.51419      0.0996         0.013083109   -130.83109     -19.739566     -6.4169658      127.53296      107.06546      108.87282     -49857.959      3025.1233      3616.4054      1980.4111    
    997000   199.80083      0.0997         0.013910351   -139.10351     -7.8538848      27.673804      127.54456      107.17055      108.53108     -50024.788      3042.1039      3717.9939      1992.7504    
    998000   199.54378      0.0998         0.0091379361  -91.379361     -21.639987      10.554136      127.55616      107.09566      108.51872     -50044.543      3023.6485      3677.5874      1985.9777    
    999000   199.62182      0.0999         0.011214294   -112.14294     -7.4052974     -32.94073       127.56776      107.17299      108.62862     -49905.604      3069.3693      3618.6854      1984.2257    
   1000000   199.01762      0.1            0.016565579   -165.65579     -1.6752486      16.206982      127.57935      107.0669       108.6764      -49928.606      3043.4364      3640.7075      1987.5378    
Loop time of 506.622 on 16 procs for 1000000 steps with 12350 atoms

Performance: 170.541 ns/day, 0.141 hours/ns, 1973.857 timesteps/s, 24.377 Matom-step/s
97.8% CPU use with 16 MPI tasks x no OpenMP threads

MPI task timing breakdown:
Section |  min time  |  avg time  |  max time  |%varavg| %total
---------------------------------------------------------------
Pair    | 199.84     | 202.97     | 207.13     |  13.8 | 40.06
Bond    | 72.951     | 73.477     | 74.353     |   4.7 | 14.50
Neigh   | 18.327     | 18.357     | 18.392     |   0.3 |  3.62
Comm    | 131.23     | 135.04     | 138.6      |  17.5 | 26.65
Output  | 0.56432    | 0.62237    | 0.70446    |   4.8 |  0.12
Modify  | 63.151     | 64.468     | 65.677     |   9.9 | 12.73
Other   |            | 11.69      |            |       |  2.31

Nlocal:        771.875 ave         783 max         759 min
Histogram: 1 3 0 2 0 2 1 4 1 2
Nghost:           2382 ave        2400 max        2363 min
Histogram: 1 0 1 4 3 1 2 1 2 1
Neighs:        27152.6 ave       27671 max       26641 min
Histogram: 2 1 3 1 1 1 2 2 0 3

Total # of neighbors = 434441
Ave neighs/atom = 35.177409
Ave special neighs/atom = 5.76
Neighbor list builds = 14818
Dangerous builds = 0
unfix               1
unfix               2
Total wall time: 0:12:29
