LAMMPS (29 Aug 2024)
# LAMMPS输入文件示例：使用Martini 3粗粒化力场计算PDMS的均方回转半径
# -----------------------------------------------------
# 1. 初始化设置
# -----------------------------------------------------
units               real
dimension           3
boundary            p p p
atom_style          full

# 读取包含PDMS分子结构的data文件
read_data           bad_pdms_50_box.data
Reading data file ...
  orthogonal box = (-5.002 -4.881 -5.027) to (134.004 134.002 134)
  2 by 2 by 4 MPI processor grid
  reading atoms ...
  12350 atoms
  scanning bonds ...
  1 = max bonds/atom
  scanning angles ...
  1 = max angles/atom
  scanning dihedrals ...
  1 = max dihedrals/atom
  orthogonal box = (-5.002 -4.881 -5.027) to (134.004 134.002 134)
  2 by 2 by 4 MPI processor grid
  reading bonds ...
  12103 bonds
  reading angles ...
  11856 angles
  reading dihedrals ...
  11609 dihedrals
Finding 1-2 1-3 1-4 neighbors ...
  special bond factors lj:    0        0        0       
  special bond factors coul:  0        0        0       
     2 = max # of 1-2 neighbors
     2 = max # of 1-3 neighbors
     4 = max # of 1-4 neighbors
     6 = max # of special neighbors
  special bonds CPU = 0.002 seconds
  read_data CPU = 0.092 seconds

# -----------------------------------------------------
# 2. 力场参数设置（Martini 3参数）
# -----------------------------------------------------
# 定义非键相互作用（示例：Lennard-Jones势，截断距离可参考Martini 3常用取值）
pair_style lj/cut   12.0
special_bonds       lj 0.0 0.0 0.5
Finding 1-2 1-3 1-4 neighbors ...
  special bond factors lj:    0        0        0.5     
  special bond factors coul:  0        0        0       
     2 = max # of 1-2 neighbors
     2 = max # of 1-3 neighbors
     4 = max # of 1-4 neighbors
     6 = max # of special neighbors
  special bonds CPU = 0.001 seconds
pair_coeff          1 1 0.7337 5.1
# 定义键、角、二面角势（示例参数，实际参数请参考相关文献）
bond_style          harmonic
bond_coeff          1 13.243 4.48
angle_style         harmonic
angle_coeff         1 5.48 86.0
dihedral_style      harmonic
dihedral_coeff      1 0.3346  1  1
# -----------------------------------------------------
# 3. 邻域列表设置
# -----------------------------------------------------
neigh_modify        one 1000
neighbor            1 bin
neigh_modify        delay 0 every 1 check yes

# -----------------------------------------------------
# 4. 能量最小化与预平衡
# -----------------------------------------------------
minimize            1.0e-4 1.0e-6 1000 10000

CITE-CITE-CITE-CITE-CITE-CITE-CITE-CITE-CITE-CITE-CITE-CITE-CITE

Your simulation uses code contributions which should be cited:

- Type Label Framework: https://doi.org/10.1021/acs.jpcb.3c08419

@Article{Gissinger24,
 author = {Jacob R. Gissinger, Ilia Nikiforov, Yaser Afshar, Brendon Waters, Moon-ki Choi, Daniel S. Karls, Alexander Stukowski, Wonpil Im, Hendrik Heinz, Axel Kohlmeyer, and Ellad B. Tadmor},
 title = {Type Label Framework for Bonded Force Fields in LAMMPS},
 journal = {J. Phys. Chem. B},
 year =    2024,
 volume =  128,
 number =  13,
 pages =   {3282–-3297}
}

CITE-CITE-CITE-CITE-CITE-CITE-CITE-CITE-CITE-CITE-CITE-CITE-CITE

Generated 0 of 0 mixed pair_coeff terms from geometric mixing rule
Neighbor list info ...
  update: every = 1 steps, delay = 0 steps, check = yes
  max neighbors/atom: 1000, page size: 100000
  master list distance cutoff = 13
  ghost atom cutoff = 13
  binsize = 6.5, bins = 22 22 22
  1 neighbor lists, perpetual/occasional/extra = 1 0 0
  (1) pair lj/cut, perpetual
      attributes: half, newton on
      pair build: half/bin/newton
      stencil: half/bin/3d
      bin: standard
Per MPI rank memory allocation (min/avg/max) = 8.322 | 8.377 | 8.835 Mbytes
   Step          Temp          E_pair         E_mol          TotEng         Press     
         0   0              3.9089163e+10  48083.546      3.9089211e+10  3.994779e+09 
      1000   0             -46501.708      15382.758     -31118.95       64.90019     
Loop time of 1.09409 on 16 procs for 1000 steps with 12350 atoms

96.2% CPU use with 16 MPI tasks x no OpenMP threads

Minimization stats:
  Stopping criterion = max iterations
  Energy initial, next-to-last, final = 
      39089211425.7266  -31111.5333150795  -31118.9498667529
  Force two-norm initial, final = 3.8331257e+10 35.167927
  Force max component initial, final = 1.7252804e+09 17.390564
  Final line search alpha, max atom move = 0.010087998 0.17543597
  Iterations, force evaluations = 1000 1010

MPI task timing breakdown:
Section |  min time  |  avg time  |  max time  |%varavg| %total
---------------------------------------------------------------
Pair    | 0.10762    | 0.30571    | 0.58298    |  24.1 | 27.94
Bond    | 0.025642   | 0.064563   | 0.097413   |   7.9 |  5.90
Neigh   | 0.22443    | 0.22585    | 0.22784    |   0.2 | 20.64
Comm    | 0.12975    | 0.39199    | 0.61281    |  21.4 | 35.83
Output  | 4.2991e-05 | 5.4122e-05 | 0.00012942 |   0.0 |  0.00
Modify  | 0          | 0          | 0          |   0.0 |  0.00
Other   |            | 0.1059     |            |       |  9.68

Nlocal:        771.875 ave        1112 max         317 min
Histogram: 1 0 2 1 4 0 3 0 2 3
Nghost:        1462.38 ave        1906 max        1006 min
Histogram: 4 1 3 0 0 0 1 0 2 5
Neighs:        24033.8 ave       40377 max        9581 min
Histogram: 2 1 2 3 1 1 2 1 1 2

Total # of neighbors = 384540
Ave neighs/atom = 31.136842
Ave special neighs/atom = 5.76
Neighbor list builds = 137
Dangerous builds = 0
# npt系综下驰豫
fix    1 all npt temp 300 300 50 iso 0 0 1000 drag 2
thermo_style  custom step temp press epair ebond eangle edihed pxx pyy pzz lx ly lz
thermo          1000
run    500000
Generated 0 of 0 mixed pair_coeff terms from geometric mixing rule
Per MPI rank memory allocation (min/avg/max) = 7.198 | 7.265 | 7.71 Mbytes
   Step          Temp          Press          E_pair         E_bond        E_angle        E_dihed          Pxx            Pyy            Pzz             Lx             Ly             Lz      
      1000   0              64.90019      -46501.708      987.56021      11759.46       2635.7373      36.292009      44.279755      114.12881      139.006        138.883        139.027      
      2000   89.33198       32.563273     -45586.406      965.96922      10396.86       2628.6566      14.024118      12.45968       71.206021      139.96837      139.84452      139.98951    
      3000   253.83676      24.718368     -40954.333      1367.729       9470.2948      2599.5262      22.588708      10.423929      41.142467      142.91711      142.79065      142.9387     
      4000   296.71081      3.0996713     -37961.848      1996.0088      8504.586       2532.4358     -18.713999      5.293347       22.719666      144.76507      144.63697      144.78694    
      5000   299.26514      0.011836988   -37251.996      2508.2718      7781.617       2484.285       14.36934      -10.562843     -3.7709858      144.76373      144.63563      144.7856     
      6000   299.93503     -1.6611953     -37095.08       2878.8895      7187.2325      2459.4513     -2.5389923     -28.911502      26.466909      144.26223      144.13458      144.28402    
      7000   301.79784     -13.78811      -37226.509      3181.6979      6761.7758      2444.7315      20.98441      -51.745606     -10.603135      143.5306       143.4036       143.55229    
      8000   301.08266      3.189265      -37654.324      3404.6562      6653.107       2419.1439      37.574458     -3.7615536     -24.245109      142.61656      142.49037      142.63811    
      9000   301.02799     -3.8214263     -38210.756      3553.5226      6489.0719      2411.6451      30.050883     -30.287129     -11.228033      141.59221      141.46692      141.6136     
     10000   300.88872     -10.431727     -38434.412      3687.4124      6294.1035      2399.7875     -5.3699244      4.4396413     -30.364899      140.9168       140.7921       140.93808    
     11000   301.67857     -10.672088     -38739.22       3736.4449      6084.2959      2379.703       25.142617      5.3383247     -62.497207      140.37206      140.24785      140.39326    
     12000   299.7251      -1.3950881     -39160.756      3885.5485      6193.9293      2368.3395      27.513413     -25.828947     -5.8697306      139.70688      139.58326      139.72799    
     13000   299.62538     -1.0581068     -39289.92       3924.9462      5908.2817      2367.9922     -22.303844      42.77706      -23.647537      139.14906      139.02593      139.17008    
     14000   301.81657     -8.9574817     -39569.837      3866.1025      5934.0457      2366.09        19.365558     -22.766869     -23.471134      138.50474      138.38218      138.52567    
     15000   300.70034      6.7621021     -39763.357      3948.2366      5877.7464      2354.3787      29.535483      12.943294     -22.192471      137.8935       137.77149      137.91433    
     16000   299.64564     -11.205016     -39959.015      4035.6138      5863.2293      2345.1313     -15.201825      8.7000658     -27.113288      137.42638      137.30477      137.44714    
     17000   299.98835      2.6166567     -39978.712      4025.4717      5774.5587      2333.8442      27.325151     -8.4582158     -11.016965      136.86877      136.74766      136.88945    
     18000   299.7661      -12.791019     -40031.806      4111.6424      5605.7197      2337.8059     -24.755466      3.165135      -16.782727      136.4022       136.2815       136.42281    
     19000   300.23325      4.7939557     -40199.99       4056.3049      5676.5068      2319.507       0.20536626     19.932238     -5.7557368      135.71753      135.59744      135.73803    
     20000   297.02289      9.0078002     -40436.382      4144.2242      5632.0341      2323.8121     -3.6192284      33.278212     -2.6355825      135.00385      134.8844       135.02425    
     21000   300.48934      10.38718      -40485.307      4033.9321      5609.2513      2320.7226      2.665951       21.630141      6.8654484      134.48459      134.36559      134.5049     
     22000   299.73581     -10.148667     -40437.632      4116.5012      5492.01        2325.4026     -11.55405       6.8264768     -25.718428      134.05373      133.93511      134.07398    
     23000   298.97789      1.0242227     -40670.227      4159.9819      5538.0135      2297.9088     -1.820898       9.8340736     -4.9405074      133.39879      133.28075      133.41894    
     24000   301.04029     -3.5800621     -40821.171      4108.7737      5487.468       2283.847       2.0382387     -12.225376     -0.55304895     132.75704      132.63957      132.7771     
     25000   298.09259     -7.2811556     -40981.96       4139.7111      5519.4999      2275.4646     -55.087146      11.015938      22.227741      132.06552      131.94866      132.08547    
     26000   300.28935      11.42567      -41163.312      4122.9886      5574.7387      2268.7823     -12.260815      19.137598      27.400225      131.4439       131.32759      131.46376    
     27000   301.90041     -14.49117      -41253.913      4163.0511      5376.2277      2265.6761     -23.809407      23.328571     -42.992674      130.9121       130.79626      130.93188    
     28000   300.0147      -23.052476     -41462.96       4164.2486      5510.521       2270.7973     -27.80163      -7.0283935     -34.327404      130.32821      130.21289      130.3479     
     29000   300.09137     -8.8575517     -41515.979      4135.3216      5485.4387      2254.4266      4.0709781      8.2394942     -38.883128      129.81863      129.70375      129.83824    
     30000   300.14073     -5.2862375     -41541.279      4119.7154      5514.7092      2264.6874     -32.234464      33.129506     -16.753755      129.3987       129.2842       129.41825    
     31000   300.36646      14.344813     -41519.194      4122.8215      5395.5279      2267.6935      10.427702     -22.767294      55.374029      128.86735      128.75332      128.88681    
     32000   300.1891      -17.720387     -41554.116      4118.6039      5297.258       2273.6259      2.4060578     -21.888544     -33.678674      128.50638      128.39267      128.52579    
     33000   300.30526     -5.289344      -41746.96       4131.5872      5344.3665      2254.6365     -26.321067      16.484997     -6.0319624      127.93433      127.82112      127.95365    
     34000   302.53643     -4.909853      -42026.374      4063.8683      5349.9808      2257.7144      4.86116       -9.8877957     -9.7029234      127.35508      127.24239      127.37432    
     35000   302.03594      3.1851239     -42055.963      4126.8831      5239.1888      2247.386       40.447802     -7.4473863     -23.445044      127.0061       126.89372      127.02529    
     36000   300.80286     -6.8346625     -42056.216      4163.4074      5299.2292      2230.7406     -14.43957      -33.294174      27.229757      126.66351      126.55143      126.68264    
     37000   299.33761      11.140167     -42193.286      4157.4021      5277.6658      2219.8457      44.154357      9.8549014     -20.588756      126.26527      126.15354      126.28435    
     38000   299.22634      1.1150249     -42199.152      4192.7739      5256.3569      2241.3669      4.8464661     -4.5415419      3.0401504      125.98309      125.87161      126.00212    
     39000   301.67132     -10.744436     -42409.45       4120.3907      5372.6142      2218.1675     -30.767049     -17.469857      16.003599      125.49603      125.38499      125.51499    
     40000   299.11478      6.4975641     -42342.926      4104.1072      5370.3763      2207.9617     -15.102455     -11.292723      45.88787       125.16483      125.05408      125.18374    
     41000   299.43754     -11.918439     -42417.205      4164.5614      5390.8361      2231.3066     -51.100358     -15.309251      30.654291      124.87673      124.76623      124.8956     
     42000   301.55209     -8.91532       -42649.668      4136.6841      5277.6487      2225.537       0.087341323   -38.126415      11.293114      124.53499      124.4248       124.55381    
     43000   300.92465     -14.284795     -42458.933      4150.011       5263.7084      2224.2271     -72.34685      -29.480815      58.97328       124.43555      124.32544      124.45435    
     44000   300.44991      7.5716369     -42705.511      4144.3407      5291.449       2238.5126     -0.21000608    -1.9375133      24.86243       123.95824      123.84855      123.97697    
     45000   300.85182     -4.2086951     -42691.558      4176.5089      5235.0177      2226.4273      14.64916      -10.062319     -17.212927      123.75751      123.648        123.77621    
     46000   301.76826     -3.3918132     -42889.108      4183.9518      5285.1679      2223.9947     -5.9651906     -28.618182      24.407933      123.44658      123.33735      123.46523    
     47000   301.6049       9.1233301     -42937.47       4079.6097      5192.0743      2219.2035      53.586215     -65.946812      39.730588      123.2068       123.09778      123.22541    
     48000   299.3026      -6.5905685     -43051.434      4190.9843      5334.9366      2206.1453     -39.965631      18.835399      1.3585261      122.99555      122.88671      123.01413    
     49000   299.2748      -10.073694     -42909.023      4250.4552      5248.2868      2206.367      -47.667796      3.2678156      14.178899      122.8792       122.77047      122.89776    
     50000   300.52518     -24.016423     -42965.779      4183.8149      5224.151       2208.1854     -23.000179     -24.793806     -24.255284      122.77544      122.6668       122.79398    
     51000   298.63542      3.9330652     -43165.773      4253.9805      5280.4642      2203.0563     -31.317577      23.041424      20.075349      122.42806      122.31973      122.44656    
     52000   302.34499      0.54249109    -43079.396      4227.5654      5239.3044      2209.3562     -16.133264     -22.114628      39.875365      122.38327      122.27498      122.40176    
     53000   302.76967     -9.9408291     -43243.805      4164.6737      5136.9168      2214.962      -5.8524794     -16.563343     -7.4066646      122.07538      121.96736      122.09382    
     54000   300.49044     -5.0397554     -42970.401      4173.6478      5064.6818      2202.6571      16.563764      0.18588074    -31.868911      122.14272      122.03464      122.16117    
     55000   298.68972     -9.5243596     -43275.609      4231.3261      5183.0389      2203.2446     -45.068956      6.5805035      9.9153735      121.77978      121.67203      121.79818    
     56000   300.5112       2.6178998     -43329.618      4223.8258      5225.0151      2205.9891     -20.618717      33.673117     -5.2007012      121.5922       121.48461      121.61057    
     57000   299.64303      1.6468196     -43351.076      4251.383       5222.0844      2222.3492     -7.7203053     -52.594715      65.255479      121.44718      121.33972      121.46553    
     58000   301.21053      12.27749      -43377.721      4146.3586      5279.4019      2209.7083      1.5349467      7.5368107      27.760712      121.35003      121.24266      121.36837    
     59000   298.57196      23.089181     -43276.7        4111.4041      5226.819       2196.3456      41.037619      14.518835      13.711089      121.19998      121.09273      121.21829    
     60000   298.38334      19.69376      -43358.486      4176.4772      5179.7134      2198.3171      31.873058      14.52477       12.683452      121.06144      120.95432      121.07973    
     61000   299.73584     -8.1051094     -43294.66       4138.928       5134.8572      2183.8989     -7.810477       20.408457     -36.913308      120.94453      120.83751      120.9628     
     62000   298.48476      2.7953508     -43448.265      4174.7453      5219.4036      2172.5758      14.969131     -16.613053      10.029975      120.6833       120.57651      120.70153    
     63000   301.18064      0.0071288929  -43519.858      4082.5993      5238.3674      2187.3139     -42.54998       38.529527      4.0418395      120.5089       120.40227      120.52711    
     64000   302.11462      22.343786     -43455.072      4078.3777      5105.3865      2169.9249     -26.945389      46.365727      47.61102       120.35411      120.24762      120.37229    
     65000   301.27649      5.3731717     -43586.804      4132.0754      5198.7316      2168.3722      4.3148423     -1.8616358      13.666309      120.19031      120.08396      120.20847    
     66000   299.83123     -25.645303     -43634.833      4173.4502      5242.9522      2168.4557     -64.922791     -32.471927      20.458808      120.10485      119.99857      120.12299    
     67000   299.37499     -16.992506     -43797.836      4178.8614      5220.2594      2152.7124     -46.246516     -55.134505      50.403504      119.93426      119.82813      119.95238    
     68000   300.07802      25.007985     -43788.242      4179.9142      5222.6095      2162.0025      4.8103968      11.135734      59.077826      119.78335      119.67736      119.80144    
     69000   299.08836      17.820733     -43632.626      4235.435       5139.9935      2148.11       -8.7491358      11.845566      50.365769      119.73341      119.62747      119.7515     
     70000   299.39163      24.754601     -43860.478      4159.0029      5234.5986      2148.174       13.520745      28.385051      32.358008      119.45712      119.35142      119.47517    
     71000   300.95353      1.9994003     -44001.709      4218.7556      5165.4992      2131.4075      36.846368     -57.233801      26.385634      119.33574      119.23015      119.35377    
     72000   298.24399     -5.1765371     -44047.957      4239.129       5201.7573      2142.7139     -27.656696     -23.230468      35.357553      119.20578      119.1003       119.22379    
     73000   299.23962      5.5837818     -44074.671      4196.004       5174.9039      2154.5097     -39.297421     -1.1028086      57.151575      119.07901      118.97364      119.097      
     74000   299.26802      27.651923     -43975.821      4170.2909      5162.9179      2149.5999      57.003342      7.7113901      18.241037      118.9875       118.88221      119.00548    
     75000   300.42531      19.464825     -44101.473      4158.5842      5146.5973      2154.06        43.390707     -18.823788      33.827556      118.86714      118.76196      118.8851     
     76000   298.63384      8.1702302     -44055.478      4218.989       5073.4051      2167.6323      40.465481      34.088711     -50.043501      118.84652      118.74136      118.86447    
     77000   301.11727      27.610514     -44004.596      4133.3619      5008.9584      2152.1739      1.4587398      24.501913      56.870889      118.78758      118.68247      118.80553    
     78000   300.54473     -25.854422     -44011.672      4169.6869      5098.6192      2148.9809     -30.059524     -58.16701       10.663268      118.7903       118.68519      118.80825    
     79000   300.43574      4.9210326     -44119.853      4160.1684      5102.3795      2140.6285     -15.826955     -37.920247      68.510301      118.57921      118.47429      118.59713    
     80000   297.51995      9.2040866     -44253.912      4195.1773      5144.3027      2149.083      -44.398305      55.297673      16.712891      118.34924      118.24451      118.36712    
     81000   299.78778     -8.0137318     -44263.099      4156.7139      5082.0939      2155.0936      17.524712     -28.690539     -12.875368      118.37907      118.27432      118.39695    
     82000   301.16258     -0.28686875    -44379.642      4155.4858      5108.8529      2149.5387     -10.942008     -9.8056186      19.88702       118.23509      118.13047      118.25296    
     83000   300.52731      28.618554     -44350.786      4156.3883      5149.0091      2153.7462      57.859305     -25.725848      53.722203      118.13807      118.03353      118.15591    
     84000   299.67964      12.485902     -44350.853      4200.0641      5055.0932      2138.0334      41.585632     -29.104148      24.976222      118.05339      117.94893      118.07123    
     85000   300.31794      19.409054     -44407.821      4207.1793      5036.1366      2144.5322      23.290424      12.487617      22.44912       117.98273      117.87833      118.00055    
     86000   296.93812      10.892728     -44458.516      4187.1457      5160.5435      2149.7519      44.611172     -31.407732      19.474743      117.86155      117.75726      117.87935    
     87000   299.89337     -34.962331     -44597.674      4253.9076      5125.2261      2142.94       -36.352638     -62.306786     -6.227571       117.78609      117.68186      117.80388    
     88000   298.73643     -3.1106362     -44438.315      4263.029       5072.9137      2145.9239     -10.518623      5.4461815     -4.2594671      117.74261      117.63843      117.7604     
     89000   298.29782      6.2818942     -44556.504      4202.1037      5107.276       2149.437      -31.378981      34.217819      16.006845      117.69674      117.5926       117.71452    
     90000   299.99558      4.355216      -44347.752      4154.3796      5133.0531      2144.2299     -42.514532      19.337446      36.242735      117.74122      117.63704      117.75901    
     91000   300.43625      5.333268      -44604.752      4237.7877      5235.9277      2137.7302      41.438093     -49.906508      24.468218      117.59494      117.49088      117.6127     
     92000   299.58835      7.4660772     -44542.632      4181.844       5222.2496      2139.0821      28.525791      22.868318     -28.995878      117.55381      117.44979      117.57157    
     93000   301.12875      4.5130627     -44494.799      4142.8566      5121.4391      2139.2919      33.572909     -3.8008125     -16.232909      117.58026      117.47622      117.59803    
     94000   300.01151     -5.1924508     -44667.066      4201.6028      5214.8637      2126.378       12.292945     -20.554259     -7.3160384      117.47537      117.37142      117.49312    
     95000   302.33274     -10.61753      -44781.472      4185.4461      5125.7638      2137.7452      15.185626     -47.661241      0.62302312     117.39033      117.28645      117.40806    
     96000   299.86409     -0.01410131    -44628.065      4208.8985      5136.0462      2132.9362     -4.508749      -6.6621387      11.128584      117.42032      117.31642      117.43806    
     97000   298.30967     -17.479958     -44685.921      4272.5234      5149.3592      2133.8144     -31.672775     -18.803509     -1.9635883      117.32891      117.22509      117.34664    
     98000   299.25229     -11.788557     -44787.739      4223.6364      5079.906       2140.4019     -1.9162097     -30.936333     -2.5131284      117.18962      117.08593      117.20733    
     99000   298.46624     -2.1498041     -44757.038      4179.7913      5080.875       2128.1871     -41.582046      20.113425      15.019209      117.12003      117.0164       117.13773    
    100000   299.18381      5.1227833     -44838.056      4236.1169      5151.3609      2110.8229      26.648673     -6.1600431     -5.1202804      116.96519      116.86169      116.98286    
    101000   300.03715     -14.006031     -44873.559      4218.5267      5072.8909      2117.4712     -17.873269     -30.054823      5.9099999      116.96576      116.86226      116.98343    
    102000   299.25308      0.46070575    -44971.958      4185.8271      5149.1662      2109.7896     -24.164503      61.26087      -35.71425       116.81785      116.71448      116.83549    
    103000   298.66791      16.872724     -44875.825      4239.1933      5135.0037      2106.5671      12.157679     -16.743367      55.20386       116.82992      116.72654      116.84757    
    104000   300.39244      5.4144388     -44988.397      4219.4246      5219.6145      2115.3558     -74.492575     -7.0557914      97.791683      116.77788      116.67455      116.79552    
    105000   301.26223     -9.7996674     -44965.264      4190.7423      5108.4431      2119.7494      13.264568     -45.060229      2.396659       116.75497      116.65166      116.77261    
    106000   298.97301      7.5857757     -44853.149      4207.8924      5167.68        2121.7411     -3.3880532      12.713738      13.431642      116.81643      116.71307      116.83408    
    107000   300.46129     -1.0994985     -45000.881      4245.6641      5123.5082      2122.7084     -11.362946     -25.252907      33.317357      116.74737      116.64406      116.76501    
    108000   300.33942     -18.525712     -44826.058      4238.0371      5027.8018      2120.7541     -55.553506     -5.2619515      5.2383217      116.82612      116.72275      116.84377    
    109000   298.55204      3.5851032     -44869.549      4226.4737      5156.2532      2128.9056     -17.606422      28.598991     -0.23725929     116.77706      116.67373      116.7947     
    110000   298.34226     -0.80031499    -44859.603      4150.6953      5130.5708      2127.1031     -20.333057      27.351987     -9.4198744      116.77         116.66668      116.78764    
    111000   300.46242     -10.914501     -44986.315      4136.0249      5103.0784      2128.2717     -23.397933     -39.984944      30.639373      116.68472      116.58147      116.70234    
    112000   299.92328     -7.6162146     -44936.098      4212.2995      5107.0648      2135.5445     -2.5180532      15.478049     -35.808639      116.64881      116.54559      116.66643    
    113000   299.13447     -6.9813301     -45146.369      4179.8972      5220.2057      2124.542      -21.073624     -28.411639      28.541273      116.52987      116.42675      116.54747    
    114000   299.50922     -11.2931       -45002.325      4179.6378      5149.0842      2116.8996     -21.266061     -24.347593      11.734355      116.54541      116.44228      116.56301    
    115000   299.78981      0.33760347    -45040.542      4218.7493      5175.3483      2110.749      -32.730557     -5.1723789      38.915746      116.49833      116.39525      116.51593    
    116000   301.0587       1.6302349     -44968.951      4202.7118      5062.1107      2114.8411      34.543315     -9.5098485     -20.142762      116.55836      116.45523      116.57597    
    117000   303.38172      14.673938     -45010.369      4116.2092      5133.6728      2118.6098      70.736194      11.102943     -37.817323      116.52278      116.41968      116.54039    
    118000   300.27016      12.736085     -45066.601      4127.9611      5218.5963      2116.4069      4.5072706     -0.84209566     34.543081      116.43515      116.33212      116.45274    
    119000   299.36307      3.374289      -45069.349      4187.2849      5129.4878      2121.5813      20.059412     -29.532947      19.596402      116.43565      116.33262      116.45324    
    120000   297.78096      2.0343225     -45179.862      4217.236       5104.6918      2111.1036     -19.21567      -7.7035639      33.022201      116.36603      116.26306      116.38361    
    121000   299.20721     -17.299927     -44967.785      4198.1061      5122.7038      2111.0587      34.974183     -59.919725     -26.954241      116.5019       116.39881      116.5195     
    122000   299.24934     -5.1181127     -45206.06       4211.322       5195.1599      2107.3803      1.1328169     -15.546137     -0.94101832     116.32031      116.21738      116.33788    
    123000   299.40826      36.272883     -45167.363      4208.5567      5213.9648      2109.3786      19.409331      21.477628      67.931692      116.25733      116.15446      116.27489    
    124000   300.88336      9.4097559     -45283.228      4236.2462      5166.309       2104.1945     -5.3460007      23.242344      10.332924      116.28241      116.17951      116.29997    
    125000   298.60186      19.146495     -45151.288      4201.0456      5135.0154      2114.3753     -3.6235207      23.78042       37.282586      116.3164       116.21348      116.33397    
    126000   303.17305     -3.3222866     -45189.962      4154.0863      5108.1684      2129.1305     -34.304009     -22.304902      46.642051      116.32649      116.22356      116.34406    
    127000   300.40485      0.8010469     -45137.759      4160.4734      5139.1093      2119.8793     -25.538244     -28.324342      56.265726      116.38106      116.27808      116.39864    
    128000   300.13526      14.398955     -45268.766      4230.4188      5231.7758      2114.9509      37.077753     -39.585445      45.704558      116.20534      116.10252      116.2229     
    129000   298.09966      4.0714827     -45260.136      4244.5144      5196.8566      2095.7213     -24.554431      35.081285      1.6875945      116.20963      116.1068       116.22718    
    130000   299.48171      18.207062     -45171.765      4253.1195      5101.7523      2097.1583      13.166736      46.995784     -5.5413347      116.24991      116.14704      116.26747    
    131000   304.26976     -2.5647071     -45344.832      4132.5311      5218.9782      2092.5485     -32.873493      12.092837      13.086535      116.20444      116.10162      116.222      
    132000   299.41207      9.1269705     -45320.575      4273.959       5171.7678      2106.7511     -59.957257      57.740663      29.597505      116.1607       116.05791      116.17825    
    133000   299.85706     -21.762029     -45456.956      4254.4999      5269.4051      2082.0046     -15.336143     -75.278956      25.329013      116.12761      116.02486      116.14516    
    134000   300.21708     -25.632394     -45263.26       4195.675       5054.0824      2100.6082     -49.101513     -3.39889       -24.396779      116.22999      116.12714      116.24755    
    135000   298.59985      0.80359351    -45216.32       4155.8271      5138.3373      2106.5067      1.8936048     -8.3216584      8.8388341      116.17441      116.07161      116.19196    
    136000   299.59383      16.634163     -45228.259      4245.7563      5013.4558      2124.4002      17.32963       56.64905      -24.076191      116.19911      116.09629      116.21666    
    137000   299.61979     -1.1638676     -45244.418      4246.9512      5026.633       2114.3442      4.423732       44.242921     -52.158256      116.21539      116.11256      116.23295    
    138000   300.79033     -11.160416     -45334.582      4186.4719      5092.4659      2105.765       20.327327     -23.793651     -30.014923      116.14297      116.0402       116.16051    
    139000   298.81531     -19.339018     -45213.622      4169.7924      5021.932       2116.1551      4.5981626     -17.049346     -45.565872      116.17662      116.07382      116.19417    
    140000   301.21763     -4.6881627     -45396.21       4207.7941      5104.2528      2115.8091      17.421122     -14.110028     -17.375583      116.07636      115.97365      116.0939     
    141000   299.02021     -23.512215     -45376.293      4187.1574      5056.8912      2120.111       8.4264277     -7.0858688     -71.877203      116.12464      116.02188      116.14218    
    142000   299.95716      5.5499117     -45249.54       4209.914       4965.1618      2105.4644      29.34245       32.738007     -45.430722      116.14982      116.04704      116.16737    
    143000   299.39656      4.7790218     -45129.656      4219.2223      4987.1449      2088.027       12.249003     -0.20575439     2.2938169      116.17947      116.07667      116.19702    
    144000   298.20634      16.415902     -45164.538      4212.1114      4980.8165      2102.3938      58.733865     -2.5215709     -6.9645873      116.15377      116.05099      116.17131    
    145000   298.40415      8.8614929     -45430.205      4239.1509      5111.9         2115.3416      24.013925      10.290009     -7.7194553      116.02684      115.92417      116.04437    
    146000   300.69667     -3.4531702     -45412.413      4226.9045      5018.9336      2115.3626      34.98686      -4.3215419     -41.024829      116.06941      115.9667       116.08694    
    147000   299.9211       14.217501     -45343.335      4206.3449      5004.0529      2111.2757      9.1637715      5.2301911      28.258541      116.04604      115.94336      116.06357    
    148000   300.116       -11.844485     -45406.211      4194.5474      5094.4945      2111.1767     -67.704122      20.076295      12.094373      116.0167       115.91404      116.03422    
    149000   299.99984      36.822939     -45404.509      4194.4341      4960.7659      2121.5203      19.819095      53.044735      37.604989      115.96917      115.86656      115.98669    
    150000   300.42458     -6.7352459     -45387.293      4220.4993      5003.9796      2116.5725     -15.164863     -0.88077952    -4.1600954      116.05398      115.95129      116.07152    
    151000   299.62569      15.911942     -45402.991      4265.3626      5008.4979      2114.7727      73.169291     -7.4808327     -17.952633      116.01206      115.90941      116.02959    
    152000   299.76517      28.825715     -45371.224      4228.9028      5030.5212      2118.228       89.018578      24.762373     -27.303807      115.97734      115.87472      115.99487    
    153000   299.5548       17.754166     -45334.186      4228.8904      4922.5338      2114.4312      51.208869      7.565601      -5.511973       116.05274      115.95005      116.07027    
    154000   300.1085       15.113924     -45396.131      4232.2125      4957.0157      2111.0808     -0.96382019     9.63914        36.666452      116.02096      115.9183       116.03849    
    155000   300.55183      21.0429       -45512.701      4187.1871      5046.7342      2098.9555      39.725645     -15.644148      39.047204      115.95442      115.85182      115.97194    
    156000   300.75916     -0.99665715    -45631.842      4221.2356      5066.4559      2110.9343      12.494199     -23.512583      8.028412       115.90549      115.80293      115.923      
    157000   296.8876       21.515157     -45484.197      4252.5065      5105.4097      2094.1571      1.6918204      20.544286      42.309365      115.87921      115.77667      115.89671    
    158000   300.57182     -13.606052     -45565.34       4217.8059      5104.6827      2109.177      -2.3365297     -2.3232576     -36.158369      115.9246       115.82203      115.94212    
    159000   299.44566     -3.9809139     -45611.778      4271.5849      5037.4812      2111.2653     -9.7144226      13.762462     -15.990782      115.91518      115.81261      115.93269    
    160000   301.26716      4.5892541     -45452.809      4189.8554      4965.2246      2114.6445     -4.8970852      31.784459     -13.119611      115.98714      115.8845       116.00466    
    161000   300.21997     -8.545114      -45318.438      4195.5553      4892.8922      2103.4144      42.67933      -52.744347     -15.570325      116.10746      116.00473      116.125      
    162000   301.44994     -2.5036152     -45571.381      4167.2314      5112.9496      2101.1534      11.573433     -40.814348      21.730069      115.90416      115.8016       115.92167    
    163000   298.25064     -5.5154791     -45535.315      4243.0459      5099.8863      2098.4053      4.8491178     -0.13413055    -21.261425      115.95431      115.85171      115.97183    
    164000   300.91775      9.7928571     -45445.847      4159.601       5065.7385      2099.754       38.974111      19.245185     -28.840725      115.96313      115.86052      115.98065    
    165000   302.14249     -12.770053     -45529.535      4123.5252      5011.2562      2087.6089     -4.3313247      1.7704009     -35.749236      115.95171      115.84911      115.96922    
    166000   298.41933     -26.833197     -45673.985      4253.2261      5116.2339      2107.1245      16.722211     -51.720523     -45.50128       115.88053      115.778        115.89804    
    167000   300.77335      8.6509867     -45394.07       4162.5564      4958.6934      2109.0631      30.840873      15.593207     -20.48112       116.03172      115.92904      116.04925    
    168000   301.178       -1.8827983     -45493.26       4148.9543      5015.7106      2111.8304      32.934472     -35.970474     -2.6123931      115.96779      115.86518      115.98531    
    169000   299.88545      20.907025     -45422.557      4177.724       4995.6116      2104.294       17.489322      43.383226      1.8485262      115.98052      115.87789      115.99804    
    170000   302.98921     -3.0958874     -45533.521      4122.6239      5000.3642      2100.9873     -33.768996      3.0812739      21.40006       115.99653      115.89389      116.01406    
    171000   298.99328     -8.8388327     -45413.607      4247.8844      5094.0644      2108.6754     -24.1804        35.500853     -37.836951      115.99631      115.89367      116.01383    
    172000   299.8858       14.127931     -45564.857      4155.4789      5115.4914      2104.8393     -17.277508      43.665002      15.996298      115.91977      115.8172       115.93728    
    173000   302.92907      8.417689      -45398.439      4216.8968      5045.3389      2098.3874     -14.481412     -15.324087      55.058566      115.98783      115.88519      116.00535    
    174000   300.64373     -9.3453806     -45381.707      4207.2525      5021.8244      2101.1696      38.434002     -38.87703      -27.593114      115.99382      115.89119      116.01135    
    175000   298.61518     -14.689136     -45371.198      4223.1222      5104.4677      2108.2609     -29.420992     -18.001447      3.3550319      116.04866      115.94597      116.06619    
    176000   300.75069     -20.260595     -45314.173      4165.1938      4958.452       2113.885      -9.4636643     -66.619203      15.301082      116.0696       115.9669       116.08713    
    177000   298.97515      3.5388108     -45315.294      4222.396       4995.1124      2103.5192     -80.961638      19.087305      72.490765      116.01235      115.9097       116.02988    
    178000   300.94713      3.4292132     -45339.2        4149.6152      4993.7818      2101.2635      5.4496657     -1.5860289      6.4240027      116.04252      115.93984      116.06005    
    179000   299.38699      16.280218     -45400.704      4150.3996      5073.7386      2095.8357     -17.142835      14.337191      51.646297      115.96897      115.86635      115.98649    
    180000   300.68946     -29.834973     -45410.675      4256.2162      4978.1469      2094.302      -25.680795     -35.798486     -28.025637      116.0479       115.94521      116.06543    
    181000   300.88517     -10.22673      -45516.976      4179.2284      5027.5818      2093.2839      23.284947      17.823707     -71.788844      115.96891      115.8663       115.98643    
    182000   300.84805      3.6163214     -45407.355      4183.8069      5002.7925      2109.9377     -17.875644     -0.055600755    28.780209      115.96963      115.86701      115.98715    
    183000   299.22304     -23.268734     -45383.446      4225.7223      4938.0123      2101.9565     -24.627934     -37.287242     -7.8910246      116.03133      115.92866      116.04886    
    184000   300.78683     -5.6035216     -45427.035      4229.2466      5005.9251      2097.5946     -9.2090325      5.1421997     -12.743732      115.99109      115.88845      116.00861    
    185000   299.57085      7.6328608     -45253.532      4167.2106      4959.841       2108.0447     -21.174765     -7.3739932      51.447341      116.06908      115.96638      116.08662    
    186000   299.9116       19.819243     -45296.79       4179.0745      5037.4801      2109.083       16.357421      16.022423      27.077886      116.01432      115.91166      116.03184    
    187000   300.46351     -0.17902393    -45240.766      4207.9571      4913.269       2121.207      -25.315386     -23.491341      48.269655      116.09158      115.98886      116.10912    
    188000   298.91838      22.114832     -45360.978      4233.1729      5026.5563      2111.6187     -57.99058       53.378418      70.956657      116.01372      115.91107      116.03125    
    189000   299.59643     -7.366428      -45250.078      4203.6536      5012.7345      2104.3745     -61.273624      15.598954      23.575386      116.05625      115.95356      116.07378    
    190000   298.77837     -23.352625     -45301.323      4231.8365      5061.6507      2106.2039     -30.716014     -30.5975       -8.7443593      116.04         115.93732      116.05753    
    191000   299.51148     -20.391204     -45281.862      4241.2362      5033.7982      2107.345      -44.93316      -37.454415      21.213961      116.09004      115.98731      116.10758    
    192000   302.37975      18.912484     -45482.044      4179.8129      4994.8021      2117.4637      15.361317      35.753372      5.6227627      115.94424      115.84165      115.96176    
    193000   300.43501     -6.2289526     -45401.702      4179.6231      4954.8444      2112.0283     -3.3706944     -45.611729      30.295566      115.97723      115.87461      115.99475    
    194000   300.27145      10.006898     -45464.21       4188.7746      5022.2504      2100.8993     -35.93643       26.201292      39.755833      115.94582      115.84323      115.96334    
    195000   301.49916     -6.7653716     -45413.89       4200.1942      5035.7654      2088.0118      23.420682     -22.404143     -21.312653      116.00435      115.90171      116.02188    
    196000   298.73076     -3.7465672     -45261.97       4267.0085      5054.9213      2080.2457     -39.024221      13.722263      14.062256      116.06079      115.95809      116.07832    
    197000   300.83847     -1.424456      -45482.284      4195.138       5075.6282      2085.1489     -30.636406      17.039452      9.3235851      115.97898      115.87636      115.9965     
    198000   301.38579     -3.529253      -45502.431      4222.3072      5131.9722      2078.8787     -83.709569      29.374197      43.747613      115.91738      115.81481      115.9349     
    199000   301.03644     -38.853639     -45594.458      4243.0741      5120.033       2078.4146     -98.188051      15.084877     -33.457744      115.90478      115.80222      115.92229    
    200000   298.96803     -44.376804     -45627.283      4181.546       5133.042       2089.7121     -61.233678     -45.823744     -26.072991      115.89266      115.79011      115.91017    
    201000   299.99345      0.5726449     -45602.4        4214.9576      5026.9042      2086.3301     -6.3450146     -66.165382      74.228332      115.92353      115.82095      115.94104    
    202000   299.14756     -1.9524142     -45436.653      4250.066       5045.0737      2082.6665      12.293588     -34.835075      16.684244      115.97524      115.87262      115.99276    
    203000   301.53068      13.970237     -45474.104      4158.0743      5103.4956      2072.7544      22.523287      3.759474       15.627951      115.9439       115.84131      115.96141    
    204000   299.98727      0.57075799    -45629.382      4244.5147      5176.8936      2080.7519      22.711755      44.203846     -65.203327      115.8799       115.77737      115.89741    
    205000   300.65841      12.325851     -45432.859      4159.6297      4987.7038      2089.4714      63.519188     -53.6262        27.084565      115.98254      115.87991      116.00006    
    206000   298.40662     -13.624937     -45382.126      4206.0553      5047.5639      2081.4706     -55.533395      34.517153     -19.858569      115.9634       115.86079      115.98092    
    207000   301.22658      8.9407438     -45512.313      4088.7537      4942.9296      2097.2021      25.59403      -46.305794      47.533995      115.92906      115.82648      115.94657    
    208000   298.05874      18.987901     -45284.479      4160.5958      4994.3216      2098.2465      39.334851      18.400372     -0.77152006     116.00219      115.89955      116.01972    
    209000   298.58183     -2.7625195     -45444.359      4311.3963      5017.6465      2100.8064      22.860558     -46.689375      15.541258      116.0092       115.90655      116.02673    
    210000   300.18098     -31.03615      -45514.974      4245.6027      5102.6146      2087.3902     -33.030758     -26.016993     -34.060699      115.9944       115.89176      116.01193    
    211000   299.81599     -8.5034815     -45646.492      4243.922       5131.7133      2099.0193     -14.735434     -24.264412      13.489402      115.83579      115.73329      115.85329    
    212000   299.74099     -15.112338     -45395.359      4205.9319      5008.4029      2104.1441     -90.658329      40.816224      4.5050915      115.99428      115.89164      116.0118     
    213000   299.58751     -12.406594     -45466.508      4201.9768      4961.3282      2110.98       -25.049005      18.568336     -30.739113      115.96758      115.86497      115.9851     
    214000   301.088        9.4692266     -45395.883      4221.9181      5033.3426      2102.3272      1.6380378      0.28605114     26.483591      115.991        115.88837      116.00853    
    215000   299.47836     -2.1070354     -45474.861      4207.8822      5006.9489      2101.1499     -14.359783      2.3212125      5.7174639      115.95201      115.8494       115.96952    
    216000   301.18283     -28.471247     -45407.24       4242.8131      4928.1727      2108.3578      11.397837     -41.474188     -55.33739       116.03099      115.92832      116.04852    
    217000   300.27348      1.4149009     -45563.527      4278.8651      5033.4659      2105.7673     -12.908045      1.3934151      15.759333      115.89116      115.78861      115.90867    
    218000   298.16501     -17.708125     -45483.333      4275.0689      5081.669       2102.4772      21.571839     -62.793252     -11.902961      115.98366      115.88103      116.00118    
    219000   299.43486     -13.568694     -45333.551      4219.075       5040.0145      2107.4207      20.053483     -62.946741      2.1871771      116.02404      115.92138      116.04157    
    220000   300.90997      23.566602     -45393.571      4081.6335      5005.2405      2102.2799      90.903151     -32.280572      12.077228      115.9521       115.8495       115.96962    
    221000   299.07868      1.0253801     -45341.906      4128.0302      5043.0515      2098.651       13.464793     -16.922707      6.5340545      115.98575      115.88312      116.00327    
    222000   299.81774     -6.2817948     -45323.284      4176.5344      5028.6426      2104.1719      34.484734     -40.418727     -12.911392      116.02745      115.92478      116.04498    
    223000   299.55013     -9.309791      -45329.941      4183.6167      4970.7507      2106.3674     -32.371124      8.9170199     -4.4752686      115.98525      115.88262      116.00277    
    224000   301.10233      3.4582015     -45485.313      4164.8226      5011.2775      2109.376       56.650215     -14.052045     -32.223565      115.9633       115.86069      115.98082    
    225000   301.27051      2.1855786     -45431.77       4185.5407      4935.6559      2109.2009      63.515086     -12.619255     -44.339095      115.96087      115.85826      115.97839    
    226000   301.4662       17.391978     -45493.519      4143.7923      4991.3277      2121.9782      5.2636736      7.2317732      39.680487      115.9227       115.82012      115.94021    
    227000   302.18849      5.6844945     -45604.09       4211.3097      5129.7164      2115.4582      44.421858      9.3970381     -36.765412      115.89495      115.7924       115.91246    
    228000   299.78075      14.189432     -45476.525      4243.3366      5101.8789      2098.7143      7.2445516      1.0548441      34.268901      115.91978      115.81721      115.93729    
    229000   300.06096      6.9030616     -45362.072      4201.5216      5009.4291      2094.7201     -39.955901      57.050288      3.6147981      115.97948      115.87686      115.997      
    230000   300.08043      20.323962     -45449.64       4135.7022      5099.8199      2086.8975     -18.995228      69.438788      10.528325      115.90304      115.80048      115.92055    
    231000   301.46926     -6.9131704     -45502.05       4201.5381      5069.2732      2111.6915      8.8764791     -5.9488274     -23.667163      115.96296      115.86035      115.98048    
    232000   300.09299     -9.0144352     -45380.268      4169.1778      5064.5018      2103.8109     -31.61465      -8.0784043      12.649749      116.01039      115.90774      116.02792    
    233000   300.30946      2.1939173     -45461.398      4182.7216      5039.4863      2096.0723     -49.168892      66.282343     -10.531699      115.99044      115.8878       116.00796    
    234000   298.41659     -1.0075871     -45636.034      4227.1863      5218.1932      2096.6752     -15.921249      4.6218111      8.2766769      115.88789      115.78535      115.9054     
    235000   299.75715      36.81354      -45505.766      4214.3663      5141.9756      2094.4478      46.626616      13.773567      50.040437      115.9127       115.81013      115.93021    
    236000   301.01371      9.5073167     -45332.876      4174.083       5010.3167      2103.5667     -0.60734091     39.773045     -10.643754      115.99161      115.88897      116.00913    
    237000   301.36575     -0.97483186    -45407.022      4130.5608      4980.818       2097.2436      7.0675077      8.8644963     -18.8565        115.97661      115.87399      115.99413    
    238000   298.68465     -16.885574     -45447.658      4246.5829      5087.7479      2095.3234     -2.9887856     -13.617492     -34.050444      116.0192       115.91654      116.03673    
    239000   299.87682      9.4391039     -45418.934      4121.4251      5023.3323      2102.7185      38.144889     -4.2984976     -5.5290797      115.94411      115.84151      115.96162    
    240000   298.95974     -3.6143303     -45449.8        4156.3235      5006.2901      2096.1702     -7.3940589      1.9151167     -5.3640486      115.9351       115.83252      115.95262    
    241000   300.00929     -4.5521445     -45572.936      4243.745       4948.4505      2090.6224     -7.8558765     -6.5804188      0.77986171     115.92667      115.8241       115.94419    
    242000   299.15574      29.889164     -45552.58       4198.872       4943.1211      2099.0378      33.925469      29.248521      26.493503      115.84968      115.74717      115.86718    
    243000   299.11012      26.085421     -45459.183      4199.5792      4940.6157      2115.8751      30.705566      12.456128      35.09457       115.94351      115.84092      115.96102    
    244000   300.21391     -14.828911     -45438.873      4215.2         4885.7489      2117.5714     -23.251604     -0.017168145   -21.217961      116.03627      115.93359      116.0538     
    245000   297.80347     -2.8119118     -45293.526      4283.9406      4882.1772      2109.6214      31.111671     -30.612337     -8.9350694      116.05185      115.94917      116.06939    
    246000   299.87475      18.411647     -45485.48       4185.8234      5052.4003      2098.4506     -31.25512       42.616336      43.873726      115.93763      115.83505      115.95515    
    247000   301.53448     -18.034372     -45527.094      4116.5492      5074.2503      2100.4209     -55.597102     -24.017411      25.511397      115.94917      115.84657      115.96668    
    248000   300.20291     -18.277294     -45382.481      4227.7308      5003.4271      2109.1018      16.983821     -13.535936     -58.279767      116.01015      115.9075       116.02768    
    249000   301.38867      1.9186264     -45565.316      4155.196       5006.3253      2098.7797      37.635815      14.214293     -46.094229      115.89328      115.79073      115.91079    
    250000   299.3709       4.0415627     -45480.145      4231.6272      5078.8342      2104.8376     -30.646375      17.661336      25.109728      115.92735      115.82477      115.94487    
    251000   298.12675     -19.470303     -45407.99       4278.4552      4949.2713      2107.2553      14.197711      25.040791     -97.649412      115.98961      115.88698      116.00713    
    252000   300.85044     -5.8008089     -45589.159      4216.02        5119.5913      2103.2159      16.710882     -58.236728      24.123419      115.90452      115.80197      115.92203    
    253000   299.33421      7.6700081     -45296.323      4236.3838      4905.6441      2104.1881      24.524754     -1.312915      -0.20181443     116.04583      115.94315      116.06336    
    254000   300.84402      13.687739     -45455.547      4180.4937      5066.2246      2105.0656     -13.777963      22.286696      32.554485      115.91267      115.81011      115.93018    
    255000   301.60118      0.055991981   -45522.698      4135.8042      4981.9621      2108.0867      9.8074121      33.878881     -43.518317      115.9261       115.82353      115.94362    
    256000   301.25683      30.062998     -45449.058      4109.8606      5111.6143      2088.938       0.38764593     105.08137     -15.280018      115.89659      115.79404      115.9141     
    257000   299.33399      20.974912     -45513.591      4158.8091      5072.8728      2097.2583     -4.7007099      45.319498      22.305949      115.90012      115.79756      115.91763    
    258000   295.37382      0.026039775   -45218.292      4198.6444      4967.4966      2093.6234     -70.311079      84.608637     -14.219438      116.0491       115.94642      116.06663    
    259000   298.68443      0.066730186   -45295.774      4215.0588      5052.1966      2080.3872     -37.541784      75.794727     -38.052753      116.01428      115.91162      116.03181    
    260000   302.33084     -18.943774     -45365.44       4169.4451      5042.3868      2084.7963     -52.01715      -19.590512      14.77634       116.0176       115.91494      116.03512    
    261000   299.90645      0.88020947    -45353.441      4179.094       4983.8971      2100.0777      33.551151     -57.559884      26.649362      115.9952       115.89256      116.01272    
    262000   302.24192      22.710187     -45482.926      4190.8088      4966.6892      2106.2294      56.317343      8.1252754      3.6879438      115.9443       115.84171      115.96182    
    263000   299.80365      25.691142     -45439.262      4231.2317      5042.4947      2117.8019     -3.2177704      6.1608134      74.130384      115.95091      115.84831      115.96842    
    264000   298.81651      19.703689     -45398.167      4192.534       4973.2196      2111.1097     -8.8126829      28.746025      39.177725      115.97676      115.87414      115.99428    
    265000   300.6011       24.458843     -45403.864      4197.3134      4979.5714      2107.439       42.993593      8.6621789      21.720759      115.971        115.86838      115.98852    
    266000   298.9468       23.125277     -45577.525      4274.6321      5025.0616      2111.5464      9.4097236      26.223026      33.743081      115.84221      115.73971      115.85971    
    267000   300.25433     -8.6169338     -45466.69       4260.3184      4921.7737      2126.1467      23.870722     -52.123627      2.4021045      115.98253      115.87991      116.00006    
    268000   301.06165      20.023685     -45425.152      4275.3267      5004.4029      2124.3412      57.611033      6.9658918     -4.5058703      115.96676      115.86415      115.98428    
    269000   299.71305      4.1013186     -45467.397      4253.8783      4916.2631      2124.9673     -27.379234      27.720204      11.962986      115.96183      115.85923      115.97935    
    270000   299.34128      2.3615444     -45394.21       4267.2125      4901.9232      2118.852       25.630455      4.6527351     -23.198556      115.99007      115.88743      116.00759    
    271000   301.08661      3.7341882     -45396.231      4261.6071      4859.2098      2136.9722      2.3646156      22.893896     -14.055947      115.98934      115.8867       116.00686    
    272000   299.83093      15.519045     -45506.911      4162.6811      4954.4346      2127.5806      30.334253      13.408137      2.8147456      115.90144      115.79888      115.91895    
    273000   300.71636      17.396146     -45496.393      4174.5547      4949.777       2119.822       22.693583      45.05125      -15.556395      115.9023       115.79974      115.91981    
    274000   298.45422     -4.7709161     -45384.106      4259.5639      4944.051       2126.3763     -32.326709     -22.817543      40.831504      116.0041       115.90146      116.02163    
    275000   300.01376      45.493203     -45439.787      4215.1644      4879.4055      2137.6115      38.720671      61.332548      36.42639       115.90731      115.80474      115.92482    
    276000   300.78383      10.846994     -45403.335      4153.829       5013.5167      2130.4727     -6.0263162     -18.443661      57.010959      115.93689      115.8343       115.9544     
    277000   298.70113      9.4215568     -45456.886      4164.1049      5000.3525      2136.8685     -25.396975      54.940892     -1.2792471      115.90878      115.80621      115.92629    
    278000   300.83713     -15.45575      -45438.122      4170.1716      5001.5203      2134.3051     -20.569293      10.636199     -36.434156      115.97259      115.86997      115.99011    
    279000   300.27432      8.7016855     -45409.923      4168.5859      4953.9906      2146.2086     -3.777642       19.751621      10.131078      115.98695      115.88432      116.00447    
    280000   298.7662       16.656788     -45381.877      4247.3609      5018.7149      2125.828      -21.409402      5.686467       65.693299      115.96486      115.86225      115.98238    
    281000   299.71222      18.921243     -45428.161      4279.0166      4962.9336      2146.261      -9.7889337      68.431906     -1.8792434      115.93576      115.83317      115.95327    
    282000   298.53119      8.0327495     -45355.021      4230.278       4905.4424      2153.0295      8.474345       1.666147       13.957757      115.95576      115.85316      115.97328    
    283000   300.93012      20.322911     -45324.473      4225.9262      4887.801       2154.6806      3.5267909      59.350164     -1.9082213      115.99213      115.88949      116.00965    
    284000   299.76458     -15.545751     -45316.759      4276.6921      5005.4844      2132.6359      0.20729755    -30.735239     -16.109313      116.0322       115.92953      116.04973    
    285000   297.98479     -5.7033296     -45293.512      4226.3172      4899.6368      2118.2813     -19.32273      -28.906734      31.119476      116.00547      115.90282      116.023      
    286000   298.55221      16.49769      -45328.829      4206.8337      4898.4141      2132.7308      34.167026      24.301222     -8.975179       115.95385      115.85125      115.97137    
    287000   301.01635      18.244819     -45482.82       4225.5673      4908.3017      2134.6635      16.852233      4.033225       33.849         115.91522      115.81266      115.93274    
    288000   299.3563      -20.500555     -45483.861      4241.0712      5031.4681      2124.01       -30.595647     -103.91194      73.005925      115.93203      115.82945      115.94955    
    289000   299.3389      -21.51388      -45387.309      4217.5201      4941.1026      2125.1354     -31.705973     -37.367337      4.5316685      116.01088      115.90823      116.02841    
    290000   300.26444      7.6305851     -45462.562      4264.06        5021.1802      2112.9561      14.217003      24.370821     -15.696068      115.92586      115.82328      115.94337    
    291000   300.20099      13.759009     -45401.291      4205.3897      4994.9197      2117.9202      16.117473      19.59873       5.5608242      115.97092      115.8683       115.98844    
    292000   299.8888       19.538717     -45497.012      4171.1183      5083.7194      2099.7294      10.310958      52.20081      -3.895618       115.84452      115.74202      115.86202    
    293000   299.334       -4.476471      -45424.466      4218.7768      5050.8616      2106.6942     -58.732756      40.408639      4.8947036      115.95435      115.85175      115.97187    
    294000   299.64953      34.213518     -45431.918      4201.743       5093.0758      2109.4032      16.303335      77.991085      8.3461335      115.90874      115.80617      115.92625    
    295000   299.75611     -6.2414341     -45436.971      4266.3409      4956.7279      2116.2075     -12.410451     -12.759328      6.445477       115.96382      115.86121      115.98134    
    296000   300.88662      21.593476     -45604.71       4219.2104      4999.7917      2119.2261      45.912129      5.1505953      13.717704      115.84255      115.74005      115.86005    
    297000   299.62274      26.800702     -45470.408      4243.8887      4896.5977      2101.3948      11.122722      14.873892      54.405492      115.89935      115.7968       115.91686    
    298000   299.8377       7.1941532     -45430.254      4218.7622      4936.9719      2115.6249     -27.081207      66.851067     -18.1874        115.95186      115.84926      115.96938    
    299000   301.12937      1.1592359     -45559.286      4218.384       4983.2828      2121.3991      42.271777     -12.802794     -25.991275      115.92335      115.82077      115.94086    
    300000   300.17847     -0.70667093    -45489.464      4205.6444      5005.3572      2111.0782     -26.922973     -41.401782      66.204742      115.91116      115.80859      115.92867    
    301000   300.63986     -14.443618     -45570.38       4164.2807      5077.7336      2096.7209     -49.747079     -2.6004944      9.0167196      115.86103      115.75851      115.87854    
    302000   299.86242      20.371456     -45398.333      4194.2519      4981.4864      2108.0506      84.921304     -26.419118      2.6121833      115.92315      115.82057      115.94066    
    303000   301.33919      0.62850946    -45374.096      4171.5926      4964.2811      2113.2817      60.273182     -67.637937      9.2502829      115.99265      115.89002      116.01018    
    304000   301.67143     -2.5339437     -45394.868      4211.8383      5014.968       2101.8042      11.603259     -52.805426      33.600336      115.99532      115.89268      116.01284    
    305000   298.6384      -7.061629      -45322.098      4242.8983      4974.2929      2103.8086     -23.833667      59.960403     -57.311623      115.99015      115.88752      116.00768    
    306000   297.75745      3.7701708     -45399.808      4239.5937      5070.5561      2090.945      -24.392049     -26.17697       61.879531      115.94224      115.83965      115.95976    
    307000   300.21876     -5.1361706     -45375.922      4205.469       4974.231       2090.3515      18.122547     -33.510972     -0.020086967    116.0133       115.91065      116.03083    
    308000   299.53304     -21.924281     -45486.357      4245.6658      5048.1724      2089.5135     -32.678674      8.9232739     -42.017441      115.92636      115.82378      115.94387    
    309000   298.08341     -3.1517167     -45461.812      4289.4798      5030.3113      2089.6361     -23.166434      53.792949     -40.081665      115.9471       115.8445       115.96461    
    310000   299.88652     -13.655238     -45364.16       4166.6118      5014.7453      2087.68       -22.039081      9.2059878     -28.132621      116.02782      115.92516      116.04535    
    311000   299.23563      4.0457675     -45509.575      4261.6982      5028.306       2090.0684      5.5824558      82.632707     -76.07786       115.91985      115.81727      115.93736    
    312000   298.15748      26.403086     -45378.959      4269.6034      4949.2325      2089.7397     -13.825057      60.297026      32.737289      115.94351      115.84091      115.96102    
    313000   300.2755       18.441335     -45349.122      4193.9352      5035.5709      2094.4179      17.081223      25.788669      12.454115      115.97369      115.87107      115.99121    
    314000   298.67801      12.322109     -45615.53       4317.8872      5054.1582      2088.6788     -34.884557      11.901606      59.949277      115.8583       115.75578      115.8758     
    315000   300.06903      2.2901515     -45588.04       4248.155       5008.2324      2075.3485     -9.0946889      6.2082743      9.7568691      115.85055      115.74804      115.86805    
    316000   299.2756       22.972838     -45382.382      4221.2992      4984.9167      2083.6198     -23.845665      51.963118      40.801061      115.96037      115.85776      115.97789    
    317000   301.85699     -5.6823395     -45508.651      4164.7542      4970.8488      2068.1526     -16.489097      12.555087     -13.113008      115.98715      115.88452      116.00467    
    318000   299.27636      12.412122     -45579.312      4264.9639      5044.123       2084.7197      24.028647      48.394327     -35.18661       115.86138      115.75886      115.87888    
    319000   299.93689      6.5904594     -45531.898      4244.4319      4985.5432      2090.9473     -0.34826973     2.2391302      17.880518      115.88369      115.78115      115.90119    
    320000   300.32668     -14.660652     -45431.323      4194.8061      4999.5547      2072.032      -55.781224     -44.182338      55.981605      115.97375      115.87113      115.99127    
    321000   296.84625      3.592403      -45426.627      4202.6981      5030.2615      2083.6941     -0.20966768    -54.732269      65.719146      115.9          115.79745      115.91751    
    322000   296.61432      1.6302588     -45277.152      4262.2099      4902.4858      2097.1766      43.170213     -55.429423      17.149987      116.01508      115.91242      116.03261    
    323000   300.10987      5.9669895     -45480.3        4241.4449      4947.519       2098.6079      25.151718      33.524037     -40.774786      115.93793      115.83535      115.95545    
    324000   300.08308     -10.365371     -45560.782      4192.3058      5112.16        2090.292       10.089323     -36.010919     -5.1745171      115.90985      115.80729      115.92736    
    325000   298.82829     -3.593076      -45573.332      4272.3797      5041.6113      2087.0727     -7.6776753      43.76565      -46.867202      115.88255      115.78002      115.90006    
    326000   301.77338      10.519645     -45532.737      4227.0795      5114.159       2087.3047      2.4879369      30.545483     -1.4744836      115.90392      115.80136      115.92143    
    327000   299.32882     -0.77495101    -45372.965      4229.2266      5053.605       2082.4264     -6.307209      -0.60509109     4.5874471      115.96514      115.86253      115.98266    
    328000   298.19001     -48.143768     -45364.688      4258.4155      5011.09        2089.092       0.91241783    -26.749176     -118.59455      116.0327       115.93002      116.05023    
    329000   299.38331     -4.3875098     -45376.176      4224.0554      4978.6221      2096.0637     -36.869472      7.5823202      16.124623      115.99618      115.89354      116.0137     
    330000   300.70048     -16.326967     -45564.535      4192.7173      5149.0905      2092.1324     -21.669196     -27.504285      0.19258062     115.91579      115.81322      115.9333     
    331000   298.87379     -3.2675724     -45443.414      4225.4724      5041.398       2083.3954     -38.846711      47.075902     -18.031908      115.92008      115.81751      115.9376     
    332000   300.93935      22.146901     -45558.773      4172.6237      5056.8504      2085.5402      50.67717       21.232545     -5.4690111      115.83326      115.73077      115.85076    
    333000   298.18944     -9.0074147     -45353.203      4209.1391      5090.5214      2069.5961     -43.372311      11.714552      4.6355152      115.95398      115.85138      115.9715     
    334000   301.20339     -8.8965981     -45634.033      4223.8727      5136.5092      2076.216      -13.838274     -20.721013      7.8694923      115.82089      115.71841      115.83839    
    335000   299.66629     -11.482837     -45498.973      4239.6923      5028.1096      2091.1323     -50.28751       17.573871     -1.7348727      115.89205      115.78951      115.90956    
    336000   298.89266      5.6330933     -45409.746      4280.1195      4983.1801      2084.6401     -36.643742      76.294089     -22.751068      115.95535      115.85274      115.97287    
    337000   301.11522      12.363757     -45463.558      4206.9282      5017.1869      2089.0976      41.869441     -8.7136971      3.9355265      115.91946      115.81689      115.93698    
    338000   300.70918     -21.980125     -45435.018      4258.4362      4995.5361      2069.634       21.253749     -49.791141     -37.402982      116.02036      115.9177       116.03789    
    339000   300.3545      -0.36084672    -45385.272      4186.3469      5044.7126      2074.5289     -8.5012898      38.74962      -31.330871      116.00256      115.89992      116.02009    
    340000   299.71542     -11.750156     -45463.83       4190.7936      5010.3444      2090.6914     -39.394778      16.15089      -12.006582      115.95283      115.85022      115.97034    
    341000   299.23678     -26.186199     -45411.505      4209.1957      5102.8287      2085.407      -49.36524       29.4668       -58.660158      115.96868      115.86606      115.9862     
    342000   299.00822     -24.049549     -45250.283      4252.0417      5012.6845      2085.4815     -4.7348124     -47.293165     -20.120668      116.06215      115.95945      116.07968    
    343000   300.0343      -28.688318     -45433.412      4225.6559      4978.6549      2086.5324     -45.075183      29.312019     -70.301791      115.95558      115.85298      115.9731     
    344000   299.32847     -2.263141      -45405.076      4209.1311      4995.9175      2104.1611     -29.092211     -8.2666774      30.569465      115.96778      115.86517      115.9853     
    345000   300.05037     -10.452566     -45574.888      4209.0305      5068.3903      2100.0454      10.978689     -39.220113     -3.1162753      115.89323      115.79069      115.91074    
    346000   299.82848      31.524983     -45366.811      4237.7599      5016.0422      2086.9911     -14.866651      32.168066      77.273536      115.92942      115.82683      115.94693    
    347000   299.37835      13.132682     -45354.562      4183.0753      5026.4696      2095.2847     -24.402999      75.919607     -12.118561      115.9479       115.8453       115.96541    
    348000   298.85374      9.7437536     -45348.307      4205.9876      5014.8153      2093.5565      17.658185      14.602398     -3.0293221      115.92925      115.82667      115.94677    
    349000   300.83341     -12.241659     -45399.721      4165.4154      5014.0006      2082.5055      2.387709       5.0918361     -44.204523      115.96089      115.85828      115.97841    
    350000   297.49343     -10.473714     -45366.566      4263.1852      5055.7658      2100.2245      10.04534      -15.333361     -26.133121      115.95212      115.84952      115.96963    
    351000   301.73969     -0.083609554   -45361.115      4197.0105      5052.8139      2101.5113      50.589206      10.354254     -61.194289      115.95285      115.85024      115.97036    
    352000   300.41182      8.4439809     -45498.844      4230.2575      5089.3271      2098.806      -25.505191      21.752614      29.08452       115.88939      115.78685      115.9069     
    353000   300.30475     -15.428148     -45248.216      4193.439       4904.3637      2111.3457      20.595936     -10.847579     -56.032802      116.06719      115.96449      116.08473    
    354000   300.04963      16.997762     -45445.32       4185.829       5038.9717      2104.8945      6.2576049      33.064213      11.671468      115.93541      115.83282      115.95292    
    355000   300.44166      16.281794     -45486.689      4245.8174      5136.92        2070.7282      27.285854      40.096828     -18.5373        115.90151      115.79895      115.91902    
    356000   301.66783      26.336133     -45468.339      4158.0614      5044.6772      2086.7122      44.219732      31.319843      3.4688251      115.91201      115.80945      115.92953    
    357000   299.54356      19.65453      -45378.816      4210.848       5078.187       2088.1635      26.567312      49.219803     -16.823524      115.94148      115.83889      115.959      
    358000   300.4024      -4.1533451     -45460.046      4218.999       5080.1844      2083.6095      4.773062      -10.80403      -6.4290675      115.89356      115.79101      115.91107    
    359000   300.25427     -10.559505     -45595.922      4205.0255      5112.2483      2097.6702     -12.115886      58.984178     -78.546807      115.88723      115.78468      115.90473    
    360000   299.89026     -44.470018     -45411.674      4255.9577      5001.6862      2098.807      -49.793256     -21.572325     -62.044472      116.01721      115.91455      116.03473    
    361000   299.14036     -0.1962989     -45424.64       4233.8516      4987.6641      2094.338      -52.867572      54.145194     -1.866519       115.94099      115.8384       115.95851    
    362000   300.17375     -5.2468363     -45475.322      4222.571       4932.24        2112.7945      9.260101       20.677383     -45.677993      115.91374      115.81117      115.93125    
    363000   301.22383     -16.841705     -45467.727      4205.9119      5079.2844      2116.4885      7.4203007     -21.439047     -36.506369      115.94304      115.84045      115.96056    
    364000   299.4268       9.1383906     -45420.203      4179.6527      4918.2781      2108.7897      27.939406     -35.551394      35.02716       115.93696      115.83437      115.95448    
    365000   301.45614     -11.533628     -45378.102      4241.1417      4960.6303      2111.3214     -31.646187      38.297719     -41.252415      115.99132      115.88869      116.00884    
    366000   300.23532      14.569993     -45428.432      4226.8128      5032.45        2107.0743      35.073387      35.349305     -26.712713      115.91555      115.81298      115.93306    
    367000   299.35862      5.8277665     -45410.543      4147.5605      5044.7593      2105.7431      25.734123     -17.289818      9.0389937      115.91634      115.81377      115.93385    
    368000   297.73678     -1.2003595     -45241.168      4238.7578      4935.0193      2110.6593     -48.409589      49.63324      -4.8247289      116.01383      115.91117      116.03136    
    369000   298.90519     -58.323307     -45370.522      4212.9208      5036.6983      2100.54       -31.003365     -49.821821     -94.144736      116.0089       115.90625      116.02643    
    370000   299.91777     -28.681104     -45414.562      4242.7977      4982.2211      2104.8667     -37.609981      0.25242907    -48.68576       115.99862      115.89597      116.01614    
    371000   299.79299      14.242449     -45383.324      4213.9568      5017.8292      2104.2412      35.51183       36.922288     -29.70677       115.96403      115.86142      115.98155    
    372000   301.30907      1.6486621     -45505.677      4199.8833      5031.7734      2117.7263      15.42079      -77.561533      67.08673       115.92838      115.8258       115.94589    
    373000   300.0149      -20.594567     -45674.754      4244.3482      5006.9231      2107.671      -3.0310115      8.542811      -67.295501      115.83676      115.73426      115.85426    
    374000   301.30005      22.756046     -45533.957      4146.0299      5062.5361      2098.385       8.4121731      7.7239576      52.132008      115.80843      115.70596      115.82593    
    375000   298.91622      18.424125     -45297.131      4241.6667      4961.8117      2105.2382      22.90652       8.9446879      23.421167      115.96705      115.86444      115.98457    
    376000   301.50366     -1.0835677     -45271.478      4208.6495      4924.8271      2106.7956     -8.7732313     -31.98874       37.511268      116.05821      115.95551      116.07574    
    377000   299.43116      10.284731     -45325.988      4232.1991      4981.2008      2106.9469      29.604957      18.095059     -16.845824      115.98925      115.88662      116.00677    
    378000   298.52149     -11.745045     -45248.87       4206.5049      4977.642       2084.7098     -31.128309      30.223898     -34.330725      115.99808      115.89544      116.0156     
    379000   300.90902      13.708168     -45538.626      4215.3105      5027.2205      2085.2123     -52.600977      38.626519      55.098962      115.86525      115.76273      115.88275    
    380000   298.44904     -10.552304     -45554.74       4191.7812      5100.8782      2073.5213     -29.216583      27.744338     -30.184667      115.86248      115.75996      115.87998    
    381000   299.26804     -36.445919     -45486.919      4316.3743      4988.7519      2079.6719     -45.257023     -8.1705883     -55.910145      115.94279      115.84019      115.9603     
    382000   299.83897     -21.521827     -45577.716      4292.6108      5025.9657      2070.7778      16.598047     -14.369289     -66.794238      115.88719      115.78465      115.9047     
    383000   299.53377     -9.3636664     -45577.561      4223.6739      5102.9059      2078.8738     -13.985047      0.12128708    -14.227239      115.86085      115.75833      115.87836    
    384000   302.26451     -13.605452     -45451.646      4102.228       5054.6536      2086.238      -16.056046     -28.780575      4.0202644      115.91747      115.8149       115.93498    
    385000   299.57264      13.487463     -45414.054      4172.5427      5070.3912      2082.1998      24.45577       8.5769037      7.4297163      115.87676      115.77423      115.89427    
    386000   300.69862     -1.2220952     -45341.762      4214.2286      4964.7004      2090.005       30.557557     -35.143096      0.91925369     115.98764      115.88501      116.00516    
    387000   302.21393      15.303615     -45546.441      4158.4283      5052.9427      2090.7694      52.091092     -28.579786      22.39954       115.85248      115.74997      115.86999    
    388000   298.79268      5.5961214     -45539.034      4244.1765      5087.818       2089.0512      7.8565673      28.829992     -19.898195      115.89694      115.79439      115.91445    
    389000   300.52873     -0.77852534    -45630.793      4190.4423      5066.7198      2101.8126     -1.4041838      15.269469     -16.200861      115.81533      115.71285      115.83283    
    390000   301.2241      -19.174509     -45440.853      4221.7649      4940.3315      2105.5933      6.9783178     -37.192997     -27.308849      115.97443      115.87181      115.99195    
    391000   299.63829      8.5437756     -45401.471      4171.7935      4957.7949      2110.5948      20.019371     -41.96434       47.576296      115.91063      115.80807      115.92814    
    392000   300.52178     -5.9941879     -45441.61       4229.6865      4913.3587      2111.2854     -36.881383     -52.675082      71.573901      115.94549      115.84289      115.963      
    393000   300.09836     -38.600434     -45571.078      4266.894       5022.0214      2092.1366     -17.367305     -8.5796761     -89.854321      115.91266      115.8101       115.93017    
    394000   298.58816     -22.297739     -45538.457      4244.714       4907.3087      2100.4688     -0.016509534   -25.572873     -41.303834      115.94646      115.84386      115.96397    
    395000   300.24755      14.606635     -45512.08       4281.0171      4916.3935      2108.7094     -28.808258      24.480599      48.147565      115.90016      115.7976       115.91767    
    396000   298.63162     -4.2851649     -45488.4        4270.4753      5035.0264      2099.8909     -17.101725     -30.354404      34.600635      115.90084      115.79828      115.91835    
    397000   301.17656     -4.7895476     -45417.807      4172.3695      5073.4423      2093.3916      23.302759     -24.668878     -13.002524      115.95219      115.84959      115.9697     
    398000   301.37116     -4.637417      -45521.047      4182.3038      4977.2564      2098.1039     -13.984693     -2.3484572      2.4208989      115.86772      115.7652       115.88523    
    399000   299.44406      19.396447     -45342.947      4203.98        4933.4808      2113.1392     -26.085676      39.480688      44.79433       115.96543      115.86282      115.98295    
    400000   300.87163     -20.535738     -45346.925      4246.0462      5085.2939      2116.0045     -54.40802       3.7036162     -10.902811      116.00558      115.90293      116.02311    
    401000   300.9028      -11.495314     -45398.628      4190.7125      4966.7411      2113.646       1.5329746     -4.1740366     -31.844881      115.9879       115.88527      116.00542    
    402000   299.75081     -8.1020925     -45471.303      4244.1945      5021.5134      2115.7344     -12.503255     -32.509728      20.706705      115.96299      115.86038      115.98051    
    403000   298.47035     -0.1347943     -45505.212      4316.9318      5067.9118      2119.4287     -9.912996      -10.116198      19.624811      115.92027      115.8177       115.93778    
    404000   298.81421      28.666652     -45610.961      4283.738       5089.9929      2112.2452      78.910665     -3.5578199      10.647109      115.81286      115.71038      115.83035    
    405000   298.55914      15.437992     -45445.595      4254.5008      4918.3792      2110.452      -3.7320308     -17.489779      67.535787      115.93403      115.83145      115.95155    
    406000   300.79071     -10.186581     -45404.649      4209.1483      4968.1837      2109.3029     -5.6125391     -24.872977     -0.074225646    115.98443      115.8818       116.00195    
    407000   301.04653     -9.6559811     -45368.3        4217.4048      4884.8433      2120.8722     -32.261312     -14.522531      17.815899      115.99107      115.88844      116.00859    
    408000   298.98029      24.924739     -45458.924      4176.032       4966.9313      2114.8082      67.326581     -25.645015      33.092651      115.91889      115.81632      115.9364     
    409000   299.33536      0.097282746   -45428.933      4217.7889      4943.1056      2124.1102      20.05582      -27.196015      7.4320432      115.95001      115.84742      115.96753    
    410000   297.45938      17.966101     -45380.806      4249.9203      4979.4835      2115.558       6.7394422      22.056924      25.101936      115.94663      115.84404      115.96415    
    411000   298.64804     -10.895009     -45343.884      4215.5754      4863.644       2121.368       17.308382     -8.1475078     -41.845901      116.01429      115.91164      116.03182    
    412000   301.16373      20.669772     -45369.778      4178.4339      4892.0549      2122.9223      3.532728       18.895938      39.58065       115.97225      115.86963      115.98977    
    413000   301.74178     -0.66329766    -45376.21       4173.6165      4919.5398      2111.9136      25.942822     -29.615876      1.6831612      115.9843       115.88167      116.00182    
    414000   301.01057     -30.15426      -45473.545      4222.532       5028.4138      2102.2758     -10.872851     -46.250552     -33.339377      115.93639      115.83381      115.95391    
    415000   301.8152       8.715189      -45459.728      4166.2424      5023.0819      2108.7282     -14.419392      79.738777     -39.173819      115.89981      115.79726      115.91732    
    416000   299.32476     -21.250917     -45557.396      4196.6494      4938.6682      2107.7104     -71.652293     -2.4743611      10.373904      115.85665      115.75414      115.87416    
    417000   300.68301      2.3544788     -45484.007      4192.6774      4973.189       2100.6677      1.3065231      2.176675       3.5802382      115.9186       115.81603      115.93611    
    418000   300.18705      8.5656649     -45545.399      4282.2887      5105.2672      2096.4683      2.971887       16.373628      6.3514794      115.88549      115.78295      115.903      
    419000   301.20042      6.2506109     -45373.117      4157.5305      4986.3291      2088.9        -1.5423121      53.559536     -33.265391      115.97077      115.86816      115.98829    
    420000   299.61035      12.925524     -45478.315      4246.4824      5038.9964      2099.0557      9.6528832      20.442794      8.6808955      115.88244      115.7799       115.89994    
    421000   301.92224      14.952242     -45419.894      4198.4774      5091.2618      2098.8809     -53.371387      69.857648      28.370465      115.90479      115.80223      115.9223     
    422000   302.42419     -7.3095617     -45466.298      4183.2904      5005.4656      2111.1284     -4.8579184     -15.540356     -1.5304108      115.94339      115.8408       115.96091    
    423000   301.06215     -7.3431358     -45441.793      4156.8238      5108.2156      2108.2151     -55.090642     -22.169011      55.230245      115.95283      115.85023      115.97034    
    424000   297.61953     -8.8895181     -45446.099      4259.9582      5081.7622      2115.6002     -33.976734     -16.296321      23.6045        115.95267      115.85007      115.97019    
    425000   299.7626      -18.462486     -45348.972      4192.8285      5052.2366      2111.2466     -48.196667     -9.7250826      2.534291       116.00353      115.90089      116.02106    
    426000   300.53914     -4.688987      -45424.57       4112.7483      4985.5044      2113.4646      16.704982     -37.188132      6.4161884      115.94388      115.84129      115.9614     
    427000   297.60832      5.0859605     -45429.864      4171.631       5105.0897      2111.302       47.060066     -28.982376     -2.8198087      115.87455      115.77202      115.89205    
    428000   300.33519     -18.322907     -45441.47       4183.7108      5108.7113      2108.8299      5.5554773     -26.149444     -34.374753      115.92291      115.82034      115.94042    
    429000   298.92902     -1.3121438     -45329.156      4181.4915      5062.1135      2115.3073     -47.480666     -26.373325      69.91756       115.96024      115.85763      115.97776    
    430000   299.92339     -19.091712     -45255.882      4264.5575      4953.4849      2114.8399     -48.868815      35.077383     -43.483706      116.01579      115.91313      116.03331    
    431000   300.42348      5.3447216     -45424.136      4236.8117      5114.6269      2110.8672     -4.8015804      45.874192     -25.038447      115.95533      115.85273      115.97285    
    432000   300.01803      19.783847     -45388.034      4221.879       4942.4211      2120.3962      1.9241226      20.518532      36.908886      115.9203       115.81772      115.93781    
    433000   299.85291      3.312338      -45595.385      4231.2445      5057.4508      2110.7749     -20.091234     -10.454787      40.483035      115.82473      115.72224      115.84222    
    434000   298.78246     -11.567097     -45504.489      4265.8676      4963.5133      2100.0991     -25.775474     -54.232967      45.307149      115.9362       115.83361      115.95371    
    435000   299.95675     -7.107653      -45351.302      4250.9573      4825.1803      2116.9978     -4.1825386     -6.1506727     -10.989748      115.99177      115.88913      116.00929    
    436000   301.72659     -6.9582965     -45551.267      4289.6412      4964.7208      2129.5423      73.45557      -44.831581     -49.498879      115.92944      115.82686      115.94695    
    437000   301.81063     -5.7536402     -45614.458      4236.4552      4936.6368      2111.8394      52.205291     -58.903994     -10.562218      115.86021      115.75769      115.87772    
    438000   299.63798     -9.5524065     -45488.186      4203.1377      4916.4689      2115.5819      15.625898     -58.398968      14.115851      115.93953      115.83694      115.95704    
    439000   297.64445      18.046542     -45487.952      4208.9077      4888.6362      2124.9773      34.743858     -51.173253      70.56902       115.89781      115.79526      115.91532    
    440000   300.54313      14.853558     -45559.48       4191.2097      4890.5508      2123.3893      22.757152     -6.1398218      27.943343      115.8403       115.7378       115.85781    
    441000   299.54871     -27.567856     -45404.574      4242.5459      4897.0011      2112.8134     -6.4571315     -92.247715      16.001278      115.9696       115.86698      115.98712    
    442000   301.66564     -22.264931     -45479.431      4274.0188      4957.4285      2113.9932     -44.903338     -67.688035      45.79658       115.95027      115.84767      115.96778    
    443000   300.10808     -1.1583396     -45459.365      4192.4367      5013.4039      2116.8959      13.070281     -13.818714     -2.7265857      115.90525      115.80269      115.92276    
    444000   298.97208      11.230892     -45287.264      4217.6336      4885.0443      2103.7353     -10.223223      8.2071687      35.708731      115.9676       115.86499      115.98512    
    445000   300.10149      10.000872     -45380.393      4199.5996      4930.7318      2104.5235      26.044879     -5.1320339      9.0897713      115.9612       115.85859      115.97871    
    446000   299.63148      10.268084     -45300.025      4230.5159      4919.4689      2119.0315      41.874974      15.104155     -26.174877      115.97257      115.86995      115.99009    
    447000   301.67522     -22.595949     -45446.485      4277.4355      4963.8322      2108.8093     -0.19368373    -77.118671      9.5245075      115.96434      115.86173      115.98186    
    448000   298.73492     -18.91167      -45544.438      4312.9983      5043.8159      2108.5377     -12.183425     -25.811812     -18.739773      115.91228      115.80972      115.9298     
    449000   300.72137      15.490673     -45659.191      4275.2132      5098.3099      2121.7147      32.404709      32.863128     -18.795819      115.81822      115.71574      115.83572    
    450000   297.19884     -14.377263     -45545.982      4291.2716      5074.8995      2103.1838     -13.313374      12.448799     -42.267213      115.89742      115.79487      115.91493    
    451000   300.83116      9.1098754     -45699.801      4254.6144      5124.3775      2117.4922      1.6119708      13.995432      11.722223      115.7758       115.67335      115.79329    
    452000   299.44907     -8.1409883     -45430.928      4275.29        4939.508       2122.6552      17.518867     -53.584588      11.642757      115.95889      115.85628      115.9764     
    453000   301.84787     -5.8324752     -45498.687      4189.4267      5002.0371      2116.5723      9.8087875     -20.666623     -6.6395898      115.89712      115.79456      115.91462    
    454000   300.43828     -0.37067281    -45393.976      4172.4277      5136.375       2101.193      -20.37006       13.761288      5.4967531      115.95309      115.85048      115.9706     
    455000   301.62601     -9.2951731     -45475.175      4204.1814      5081.842       2106.6477     -10.768726     -9.181884      -7.9349087      115.91501      115.81244      115.93252    
    456000   300.59326     -21.348384     -45497.388      4244.7419      5007.1863      2104.7385      5.8756896     -62.73199      -7.1888529      115.9251       115.82252      115.94261    
    457000   301.67018     -0.36870534    -45480.977      4248.4272      5106.5726      2095.2111      41.945535     -0.98467008    -42.066981      115.90401      115.80145      115.92152    
    458000   301.19676      26.096063     -45554.688      4274.7477      5039.8048      2103.8353      72.553428      51.191573     -45.456812      115.85977      115.75725      115.87727    
    459000   299.61279      7.6176257     -45515.854      4238.2997      5035.2771      2100.2903     -23.757722      69.111192     -22.500593      115.85779      115.75527      115.87529    
    460000   301.24672     -3.7255664     -45657.278      4261.6103      5001.0892      2108.1029      16.736205     -15.550014     -12.36289       115.84913      115.74662      115.86663    
    461000   300.4451      -26.077002     -45637.477      4228.2854      5072.8621      2107.8        -63.675862      40.092785     -54.64793       115.85575      115.75324      115.87325    
    462000   299.21405     -0.04473129    -45507.983      4172.9386      5119.0732      2100.491       35.195939      10.358403     -45.688536      115.83874      115.73624      115.85624    
    463000   296.63591     -19.659092     -45491.01       4312.5979      5081.5479      2097.8188     -17.003795     -23.986982     -17.986498      115.89529      115.79274      115.9128     
    464000   298.87394     -24.0989       -45542.328      4224.59        5063.2386      2106.666      -10.877377     -60.288896     -1.1304256      115.88517      115.78263      115.90268    
    465000   298.88219      7.7380112     -45472.873      4271.4404      5045.0308      2102.9111      9.3950043      6.0917893      7.7272401      115.87023      115.7677       115.88773    
    466000   299.60542     -22.178992     -45534.757      4290.8065      5006.6232      2103.7909      21.633564     -51.444143     -36.726396      115.87658      115.77405      115.89409    
    467000   300.74888     -39.793747     -45486.67       4182.5587      5060.0753      2093.9783     -44.824177     -18.65846      -55.898603      115.93413      115.83155      115.95165    
    468000   299.29462      2.5369619     -45455.187      4174.5786      4956.1297      2090.2497      8.0915909      20.218732     -20.699437      115.88078      115.77824      115.89829    
    469000   300.48045     -8.6394847     -45418.502      4142.8731      4998.9553      2088.0624     -39.799005     -0.028296642    13.908848      115.91338      115.81082      115.93089    
    470000   301.44288     -19.984504     -45519.036      4173.3582      5014.727       2088.5188     -74.772246     -9.5161949      24.33493       115.93939      115.8368       115.95691    
    471000   299.15502     -32.424479     -45342.813      4279.2933      5040.4645      2091.0279     -42.400958     -23.097193     -31.775286      116.00605      115.9034       116.02357    
    472000   300.82038      0.79899262    -45473.933      4160.38        5127.9634      2091.5605      46.59812      -59.436831      15.235689      115.90901      115.80644      115.92652    
    473000   301.84557      0.48775467    -45555.371      4251.1741      5113.2034      2092.6951     -18.189259      22.375433     -2.7229102      115.83612      115.73362      115.85362    
    474000   299.43562      8.7634686     -45494.261      4243.6197      5144.4717      2099.6028      22.629935     -23.883075      27.543545      115.88669      115.78415      115.9042     
    475000   298.88946     -22.345932     -45405.641      4280.6134      5115.2876      2106.2661      11.910533     -41.060084     -37.888246      115.94589      115.84329      115.9634     
    476000   299.6573       0.6994302     -45343.184      4227.022       4974.6585      2113.7025      1.1171549     -7.5338258      8.5149615      115.97136      115.86874      115.98888    
    477000   297.96932     -21.503293     -45404.005      4296.4854      5099.8217      2101.9754     -62.867025     -34.53204       32.889185      115.9619       115.85929      115.97941    
    478000   299.12939     -13.774027     -45444.516      4229.3344      5065.1682      2106.5055     -8.2101834     -10.807596     -22.304301      115.90374      115.80118      115.92125    
    479000   302.2393       25.450651     -45541.335      4226.7381      5076.0234      2104.195       20.453984      21.226549      34.67142       115.8588       115.75629      115.87631    
    480000   298.93558      15.22308      -45438.909      4259.686       4961.3481      2107.8585      10.027625      23.517787      12.123828      115.94171      115.83912      115.95923    
    481000   297.55008      5.6313381     -45355.41       4267.5835      4931.5664      2109.722      -3.9066321      22.13296      -1.3323136      115.94325      115.84066      115.96077    
    482000   302.72865     -1.3204875     -45405.42       4257.5695      4933.0846      2113.1317      44.492942     -35.805796     -12.648608      115.96497      115.86236      115.98249    
    483000   296.75238     -3.7162438     -45392.853      4327.751       4913.6804      2121.8747     -62.879979      64.298938     -12.567691      115.93812      115.83553      115.95563    
    484000   301.48376     -1.7340403     -45650.218      4211.2656      5030.4636      2125.8475     -43.65338       28.196072      10.255187      115.81684      115.71436      115.83434    
    485000   300.42881      32.792033     -45351.894      4249.4422      4903.9477      2131.408       5.4530851      42.403866      50.519148      115.94277      115.84017      115.96028    
    486000   298.28786      10.112463     -45365.516      4279.518       4948.28        2116.1869     -17.761525      45.102308      2.9966054      115.96977      115.86715      115.98729    
    487000   299.30145      19.380171     -45578.242      4280.2733      5053.614       2120.8202      12.809859     -0.32324744     45.653901      115.85987      115.75735      115.87737    
    488000   299.2188       35.19031      -45420.65       4257.248       4904.2134      2126.0988      49.223814      49.308663      7.0384545      115.87728      115.77474      115.89478    
    489000   298.88998      18.660116     -45558.656      4228.7795      5060.3026      2124.0782      10.983859     -16.250147      61.246637      115.84699      115.74448      115.86449    
    490000   300.3082       27.129801     -45602.758      4226.4086      4969.786       2115.583       37.880192      10.178471      33.330741      115.80682      115.70434      115.82431    
    491000   300.86589     -5.6349485     -45487.926      4237.8551      5029.3294      2111.9593      27.528614     -29.46332      -14.97014       115.91633      115.81377      115.93385    
    492000   299.10952     -25.370112     -45485.566      4295.1653      5002.7296      2107.0023     -1.3641669     -31.94948      -42.796689      115.92182      115.81925      115.93933    
    493000   300.56248      38.943868     -45471.948      4202.7872      5069.8869      2094.7783      82.641976      0.4469351      33.742691      115.8315       115.72901      115.849      
    494000   297.13389     -16.309802     -45546.386      4347.2525      5049.3934      2096.2747     -21.026735      3.6295898     -31.532262      115.87728      115.77475      115.89479    
    495000   300.63765      22.340533     -45519.189      4289.2863      4992.1878      2102.7783      17.75425       40.393104      8.8742461      115.8592       115.75668      115.8767     
    496000   299.17444      12.226975     -45473.591      4285.3749      4936.0408      2115.3251      20.194353      5.4517697      11.034803      115.91266      115.81009      115.93017    
    497000   298.31099      22.66807      -45459.995      4290.2732      5033.1316      2115.0783      48.961031      37.835999     -18.79282       115.87092      115.76839      115.88842    
    498000   300.76151     -9.5143783     -45482.451      4271.8002      5001.4459      2101.9411     -19.266915     -23.382941      14.10672       115.90803      115.80547      115.92554    
    499000   299.45614      4.0505439     -45348.863      4245.0508      4998.0743      2107.7044      26.94687      -24.899764      10.104526      115.9595       115.85689      115.97701    
    500000   300.27628      19.293387     -45354.949      4186.4454      4929.1156      2109.4346      33.675859     -10.964027      35.168329      115.94976      115.84716      115.96728    
    501000   299.49771      12.151721     -45275.53       4243.0062      4850.8692      2105.3208     -53.625605      96.905824     -6.8250554      115.98123      115.8786       115.99875    
Loop time of 237.637 on 16 procs for 500000 steps with 12350 atoms

Performance: 181.790 ns/day, 0.132 hours/ns, 2104.046 timesteps/s, 25.985 Matom-step/s
97.7% CPU use with 16 MPI tasks x no OpenMP threads

MPI task timing breakdown:
Section |  min time  |  avg time  |  max time  |%varavg| %total
---------------------------------------------------------------
Pair    | 87.627     | 93.903     | 98.763     |  34.1 | 39.52
Bond    | 34.509     | 36.133     | 37.334     |  14.7 | 15.21
Neigh   | 10.988     | 11.009     | 11.035     |   0.4 |  4.63
Comm    | 62.856     | 67.621     | 73.841     |  40.1 | 28.46
Output  | 0.02998    | 0.031156   | 0.047574   |   2.4 |  0.01
Modify  | 21.646     | 23.116     | 24.642     |  21.2 |  9.73
Other   |            | 5.824      |            |       |  2.45

Nlocal:        771.875 ave         784 max         758 min
Histogram: 1 0 1 2 3 3 1 3 0 2
Nghost:        2296.62 ave        2324 max        2271 min
Histogram: 2 0 1 4 2 3 0 2 1 1
Neighs:        25991.3 ave       27032 max       25563 min
Histogram: 3 3 5 1 1 2 0 0 0 1

Total # of neighbors = 415861
Ave neighs/atom = 33.672955
Ave special neighs/atom = 5.76
Neighbor list builds = 8935
Dangerous builds = 0
#取消设置
unfix 1

# -----------------------------------------------------
# 5. npt下拉伸
# -----------------------------------------------------
# 计算应力
reset_timestep      0
timestep            0.1
compute             1 all stress/atom NULL
compute             2 all reduce sum c_1[1] c_1[2]
variable            CorVol equal ly*lx*lz
variable            sigmaxx equal c_2[1]/(v_CorVol*10000)
variable            px equal -pxx/10000
# 计算应变值
variable            tmp equal "lx"
variable            L0 equal ${tmp}
variable            L0 equal 115.981230950328
variable            strain equal "(lx - v_L0)/v_L0"
#dump输出
dump                1 all custom 10000 dump.pdms.lammpstrj id type x y z vx vy vz
#设置npt系综
fix                 1 all npt temp 300 300 50 y 0 0 1000 z 0 0 1000 drag 2
#deform拉伸，x方向
fix                 2 all deform 1 x erate 1e-6 units box remap x
#热力学输出
fix                 ave_sxx all ave/time 100 100 10000 v_px file stress_profile.dat ave one
thermo_style        custom step temp v_strain v_sigmaxx pxx pyy pzz lx ly lz epair ebond eangle edihed
thermo              1000

#启动模拟，n步
run                 1000000
Generated 0 of 0 mixed pair_coeff terms from geometric mixing rule
Per MPI rank memory allocation (min/avg/max) = 10.23 | 10.28 | 10.71 Mbytes
   Step          Temp         v_strain      v_sigmaxx         Pxx            Pyy            Pzz             Lx             Ly             Lz           E_pair         E_bond        E_angle        E_dihed    
         0   299.49771      3.6758158e-16  0.0053625605  -53.625605      96.905824     -6.8250554      115.98123      115.8786       115.99875     -45275.53       4243.0062      4850.8692      2105.3208    
      1000   302.63739      0.0001         0.001361722   -13.61722      -25.673189     -3.4304354      115.99283      115.98431      115.98991     -45341.398      4159.7923      4853.6939      2103.0696    
      2000   296.96505      0.0002        -0.0039252594   39.252594     -40.269803     -9.7932977      116.00443      115.99624      115.96766     -45295.253      4300.6023      4881.4526      2102.6513    
      3000   300.72092      0.0003        -0.0045629769   45.629769      35.779107     -2.5997212      116.01603      115.93585      115.93629     -45286.834      4211.8884      4872.9829      2103.3923    
      4000   300.26766      0.0004         0.0022141686  -22.141686     -35.212421     -20.964925      116.02762      115.947        115.89141     -45306.982      4216.6412      4891.0884      2105.7862    
      5000   300.74694      0.0005        -0.00036113965  3.6113965      12.033559      34.696894      116.03922      115.8789       115.81321     -45445.551      4256.4611      4916.1826      2107.5034    
      6000   299.44067      0.0006         0.0019336412  -19.336412      5.6040799      37.370742      116.05082      115.86247      115.85988     -45378.173      4238.8983      4931.9916      2107.6273    
      7000   298.81041      0.0007         0.0076826954  -76.826954     -3.3966694     -16.286877      116.06242      115.85855      115.97996     -45318.01       4194.5708      4956.2138      2109.2203    
      8000   299.34529      0.0008         0.0047799429  -47.799429      32.498168     -2.5943748      116.07402      115.8576       116.03596     -45365.592      4290.7048      4937.2502      2110.8586    
      9000   299.51089      0.0009         0.0050232233  -50.232233     -25.257786     -67.445362      116.08561      115.93436      116.03197     -45289.785      4257.4361      4923.2371      2110.2693    
     10000   298.10516      0.001          0.0021907357  -21.907357      10.761316      3.2747188      116.09721      115.93929      115.87328     -45220.066      4240.1268      4931.4384      2110.3321    
     11000   301.28442      0.0011        -0.0033088723   33.088723      27.185727      29.599591      116.10881      115.9702       115.75753     -45222.906      4195.8965      4915.0057      2112.3464    
     12000   299.36234      0.0012         0.00067434934 -6.7434934     -81.383355     -35.538568      116.12041      116.02362      115.73449     -45303.502      4316.2886      4905.0251      2114.169     
     13000   301.95472      0.0013         0.0013016958  -13.016958      24.503264      82.127174      116.13201      115.89488      115.68659     -45316.031      4208.7481      4929.2782      2114.1629    
     14000   298.47562      0.0014         0.0082982708  -82.982708     -2.6180508      16.080609      116.1436       115.83623      115.83021     -45311.724      4263.8855      4969.4751      2114.7193    
     15000   301.57272      0.0015         0.0028317324  -28.317324     -57.493811     -46.016856      116.1552       115.7754       115.97122     -45412.984      4225.3668      4990.9212      2114.0264    
     16000   299.33075      0.0016         0.0038576849  -38.576849      11.631765      39.75735       116.1668       115.61206      115.98458     -45368.675      4247.0127      5007.5687      2110.3576    
     17000   299.11494      0.0017         0.0097059138  -97.059138     -1.514421      -39.224571      116.1784       115.49972      116.04745     -45363.668      4243.7832      5032.0263      2106.6075    
     18000   298.89252      0.0018        -0.0058334557   58.334557      50.463904      4.8515647      116.19         115.44777      116.01561     -45361.884      4276.7704      5032.0125      2104.303     
     19000   299.82588      0.0019        -0.0046030163   46.030163      38.072772      7.0117491      116.2016       115.55657      116.00479     -45320.693      4275.6901      5003.5584      2102.8519    
     20000   301.63408      0.002          0.0051239858  -51.239858     -50.024674     -61.665477      116.21319      115.69593      115.97893     -45360.914      4270.6355      4980.0176      2102.2084    
     21000   301.1055       0.0021         0.0046180591  -46.180591      4.6233761      30.118944      116.22479      115.68785      115.8369      -45465.043      4336.4965      4985.4824      2102.7423    
     22000   300.34779      0.0022         0.00050377482 -5.0377482      14.91833      -18.926159      116.23639      115.69117      115.79799     -45382.48       4221.8076      4987.4334      2104.2057    
     23000   298.23669      0.0023        -0.0021362197   21.362197      35.846442     -5.3093347      116.24799      115.73499      115.72754     -45323.591      4277.8474      4984.4158      2106.4025    
     24000   300.40167      0.0024         4.9316888e-05 -0.49316888     10.558992      43.412912      116.25959      115.86224      115.67623     -45356.261      4267.1842      4999.5281      2107.7799    
     25000   299.26787      0.0025         0.0020236396  -20.236396     -15.179416     -46.268838      116.27118      115.98602      115.73085     -45264.696      4225.6772      4992.3631      2108.1007    
     26000   301.60985      0.0026         0.0021177829  -21.177829     -22.538008     -0.45617747     116.28278      116.02285      115.66586     -45347.668      4243.6854      4959.2409      2107.3329    
     27000   300.96062      0.0027         0.0082227251  -82.227251     -22.894281      23.884982      116.29438      115.98142      115.61019     -45375.324      4228.0106      4985.0686      2106.2858    
     28000   301.32738      0.0028         0.0041909546  -41.909546      5.656587      -15.285345      116.30598      115.89351      115.6242      -45448.727      4225.8319      4982.5184      2106.8764    
     29000   300.72714      0.0029        -0.0015915746   15.915746      2.0319302      23.984119      116.31758      115.83727      115.61445     -45430.361      4219.7659      4947.444       2109.6479    
     30000   298.8393       0.003          0.0034731174  -34.731174     -20.163146     -23.658619      116.32917      115.79446      115.64159     -45389.375      4208.514       4986.0937      2111.3547    
     31000   299.88863      0.0031         0.00095425267 -9.5425267      18.354966      7.8446452      116.34077      115.73339      115.62132     -45498.836      4243.8574      5043.7067      2110.3747    
     32000   301.45285      0.0032         5.7384832e-05 -0.57384832    -13.856273      16.651699      116.35237      115.72088      115.62304     -45504.15       4176.375       5046.9984      2108.709     
     33000   298.04789      0.0033         0.0053050264  -53.050264     -12.453521     -72.132079      116.36397      115.66374      115.62596     -45524.436      4278.441       5073.578       2108.3605    
     34000   300.84434      0.0034         0.00091436098 -9.1436098      52.157414      6.8729626      116.37557      115.61748      115.47332     -45579.703      4191.9481      5109.579       2108.6633    
     35000   299.33046      0.0035         0.0037654097  -37.654097      3.7160231      55.355387      116.38717      115.70497      115.38786     -45550.641      4258.1481      5106.6282      2110.8182    
     36000   298.77831      0.0036         0.00086103255 -8.6103255     -15.552898     -35.787435      116.39876      115.78225      115.44591     -45498.458      4244.2501      5088.9243      2111.8106    
     37000   300.5681       0.0037        -0.0020929047   20.929047      13.256236      6.6115257      116.41036      115.81142      115.42816     -45468.214      4214.0895      5091.5043      2109.9108    
     38000   299.0707       0.0038         0.010973392   -109.73392     -24.63191       11.28062       116.42196      115.8456       115.41712     -45489.079      4246.83        5125.3613      2108.0107    
     39000   300.70986      0.0039         0.0071527585  -71.527585     -28.169998     -0.76480927     116.43356      115.80217      115.43881     -45517.221      4191.1113      5139.3756      2107.36      
     40000   300.14861      0.004          0.0023340557  -23.340557     -31.202392      6.8100308      116.44516      115.69376      115.46928     -45574.196      4262.3099      5160.5657      2108.7987    
     41000   299.55377      0.0041         0.006163168   -61.63168       33.571799     -22.539713      116.45675      115.54874      115.49302     -45557.13       4220.9547      5175.9867      2111.2321    
     42000   300.98915      0.0042         0.006119303   -61.19303       54.881733      0.51603329     116.46835      115.53754      115.46174     -45602.778      4281.195       5133.1325      2112.3948    
     43000   300.22638      0.0043        -0.0011741146   11.741146     -36.770352     -22.025619      116.47995      115.66161      115.4258      -45602.454      4298.9863      5100.87        2111.0671    
     44000   301.04162      0.0044        -0.0026604161   26.604161      36.40088       44.249001      116.49155      115.69641      115.37142     -45481.52       4184.0773      5067.7904      2108.8204    
     45000   300.14589      0.0045         0.0087629834  -87.629834     -21.208575      10.348457      116.50315      115.77459      115.43272     -45509.213      4273.6527      5022.4024      2106.6775    
     46000   300.92706      0.0046         4.7436511e-05 -0.47436511    -50.633027     -22.56725       116.51474      115.77515      115.49894     -45444.639      4186.7761      4975.7763      2105.9254    
     47000   299.13219      0.0047        -0.0058914759   58.914759      20.903239      42.247882      116.52634      115.66405      115.51554     -45404.159      4263.5817      4939.5638      2107.1859    
     48000   299.16186      0.0048         0.0060846109  -60.846109     -12.050179     -2.0069432      116.53794      115.61782      115.61674     -45393.438      4239.4783      4968.5076      2107.4787    
     49000   300.66687      0.0049         0.0012512533  -12.512533     -9.0104078     -27.335731      116.54954      115.56369      115.68985     -45439.258      4229.614       5015.3004      2107.7594    
     50000   298.66196      0.005         -0.0024856899   24.856899      22.680906      9.9030316      116.56114      115.52336      115.68783     -45371.226      4231.6804      5012.3707      2112.2893    
     51000   301.28906      0.0051         0.010635907   -106.35907     -49.595637     -47.001512      116.57274      115.51131      115.67347     -45487.178      4234.3266      5034.4155      2115.4759    
     52000   298.66389      0.0052         0.0085177872  -85.177872      77.671274      40.568752      116.58433      115.43577      115.58306     -45451.035      4256.366       5067.3205      2115.9107    
     53000   299.68862      0.0053         0.006568836   -65.68836       7.8512947      5.3046724      116.59593      115.55151      115.59885     -45418.315      4219.0223      5050.8001      2118.8334    
     54000   300.16211      0.0054         0.009804182   -98.04182      -27.112058     -20.011974      116.60753      115.64932      115.61855     -45452.685      4255.9436      5032.1118      2121.8805    
     55000   299.75909      0.0055         0.0073441452  -73.441452      8.2042685     -4.5482449      116.61913      115.66928      115.5932      -45385.587      4229.2846      5024.1238      2121.4849    
     56000   300.63364      0.0056         0.0083745557  -83.745557     -30.524355     -36.17441       116.63073      115.67502      115.54519     -45456.762      4280.5436      5023.5227      2120.3996    
     57000   300.61469      0.0057         0.0063909608  -63.909608      34.702271     -0.63475265     116.64232      115.61637      115.4194      -45503.931      4221.5373      5046.1097      2120.3752    
     58000   300.70776      0.0058         0.0015921219  -15.921219      11.641537      5.6021012      116.65392      115.6512       115.32        -45491.447      4203.2099      5054.8291      2119.5261    
     59000   298.96147      0.0059         0.0058412526  -58.412526     -5.1463903      3.7641623      116.66552      115.71448      115.27722     -45516.534      4286.879       5061.8117      2116.598     
     60000   301.11305      0.006          0.0027761616  -27.761616      32.507576     -19.272351      116.67712      115.76302      115.24553     -45523.626      4212.7725      5062.2682      2114.7193    
     61000   300.92059      0.0061         0.0031631586  -31.631586     -33.841628      3.016431       116.68872      115.85678      115.17786     -45514.695      4224.2222      5033.7323      2115.731     
     62000   299.16417      0.0062         0.0062138355  -62.138355     -24.060121      36.466426      116.70031      115.84203      115.15471     -45460.594      4252.8861      4986.0708      2117.3028    
     63000   300.46907      0.0063         0.00072948592 -7.2948592      20.526847     -23.970952      116.71191      115.77193      115.21031     -45447.31       4231.726       4963.7291      2117.8437    
     64000   300.08287      0.0064        -0.0010871391   10.871391     -48.908814      13.449173      116.72351      115.74364      115.20902     -45461.202      4210.3243      5008.9963      2117.7457    
     65000   298.73603      0.0065         0.0065346512  -65.346512      47.606272      24.902398      116.73511      115.64153      115.24424     -45457.6        4216.2256      5042.2277      2117.6981    
     66000   300.58403      0.0066         0.0090458804  -90.458804      25.067757     -23.957707      116.74671      115.68157      115.32467     -45448.223      4205.1087      5027.4375      2116.8003    
     67000   299.03453      0.0067         0.0025291031  -25.291031     -74.054759      4.6978532      116.75831      115.75208      115.33414     -45451.33       4269.5192      5051.3084      2115.4611    
     68000   300.59794      0.0068         0.00081886089 -8.1886089      4.1528753     -0.89871004     116.7699       115.63727      115.34354     -45465.904      4173.292       5076.1793      2117.0773    
     69000   299.28056      0.0069         0.0094314165  -94.314165     -37.475642     -18.472712      116.7815       115.52841      115.33669     -45498.839      4262.6995      5087.7141      2117.2243    
     70000   301.62054      0.007          0.0032020998  -32.020998     -10.787805      36.933637      116.7931       115.36538      115.30894     -45547.125      4209.4989      5098.0728      2112.7632    
     71000   299.99721      0.0071        -0.0061173111   61.173111      70.12515       4.0911842      116.8047       115.2513       115.37248     -45537.753      4199.0744      5095.5105      2109.1507    
     72000   299.75451      0.0072         0.0019649141  -19.649141      3.2677252     -15.817711      116.8163       115.32845      115.41876     -45505.551      4226.2674      5091.8987      2106.9028    
     73000   298.87586      0.0073         0.015945668   -159.45668      15.462452      57.396774      116.82789      115.41647      115.44734     -45464.6        4237.0544      5073.2976      2103.8761    
     74000   301.19836      0.0074         0.010377707   -103.77707     -1.6199903     -58.223185      116.83949      115.50799      115.56617     -45457.154      4168.6676      5075.6269      2102.1687    
     75000   299.16277      0.0075         0.0027569828  -27.569828     -30.287982     -38.762927      116.85109      115.5588       115.50598     -45440.145      4206.6474      5075.0716      2103.4304    
     76000   299.26942      0.0076         0.013175122   -131.75122     -7.6294738      42.68144       116.86269      115.52         115.37735     -45437.437      4237.2079      5046.5641      2106.6721    
     77000   300.79595      0.0077         0.011562799   -115.62799      55.934095     -28.925229      116.87429      115.4883       115.3643      -45411.071      4175.2816      5038.3392      2109.6663    
     78000   300.19429      0.0078        -0.0010572667   10.572667     -2.0041736      12.865262      116.88588      115.59219      115.31278     -45458.202      4229.3502      5047.8732      2111.6863    
     79000   300.81492      0.0079         0.0055398178  -55.398178     -59.738434      13.710527      116.89748      115.65827      115.30825     -45475.071      4188.9302      5049.799       2112.5443    
     80000   298.95895      0.008          0.012045989   -120.45989      1.4664052     -39.63709       116.90908      115.55673      115.31141     -45428.39       4201.3921      5065.9123      2112.5801    
     81000   300.78246      0.0081         0.00477385    -47.7385       -1.4548017      58.648653      116.92068      115.47556      115.25008     -45515.734      4205.0556      5079.1163      2111.1961    
     82000   299.58939      0.0082         0.00033983534 -3.3983534     -9.2161912     -16.469118      116.93228      115.41973      115.3317      -45479.864      4228.6089      5064.1711      2110.4094    
     83000   298.73645      0.0083         0.0032016049  -32.016049      30.422888     -18.46072       116.94388      115.36276      115.35084     -45402.02       4252.4099      5021.526       2108.4675    
     84000   301.97726      0.0084         0.0095713309  -95.713309      1.2150902      30.717299      116.95547      115.39748      115.33105     -45458.491      4214.8627      5007.7347      2105.5419    
     85000   299.89467      0.0085         0.004079584   -40.79584      -15.783846     -24.323107      116.96707      115.42733      115.37511     -45419.293      4178.6725      5029.3264      2104.7525    
     86000   300.27059      0.0086         0.0015232885  -15.232885      4.0191849      21.591192      116.97867      115.40435      115.36074     -45452.381      4215.646       5009.6388      2106.1343    
     87000   300.74981      0.0087         0.012351269   -123.51269     -25.378658      0.015960062    116.99027      115.3863       115.39202     -45456.329      4211.085       4984.0077      2104.9516    
     88000   299.58732      0.0088         0.010912871   -109.12871      8.8403211      8.843955       117.00187      115.3173       115.42299     -45400.57       4173.4179      4974.9031      2102.2284    
     89000   300.95851      0.0089         0.0029651791  -29.651791      6.4515262      26.020477      117.01346      115.28423      115.47373     -45446.906      4179.6028      4978.5986      2099.8943    
     90000   298.87395      0.009          0.0080578025  -80.578025     -21.584855     -26.322481      117.02506      115.27078      115.56261     -45376.717      4191.6644      4977.1774      2097.6644    
     91000   299.38999      0.0091         0.0086063719  -86.063719     -1.9102902      2.9901385      117.03666      115.21125      115.57244     -45389.097      4188.5258      4994.9399      2097.539     
     92000   300.26635      0.0092         0.00077183162 -7.7183162     -37.591794     -15.489105      117.04826      115.14401      115.5717      -45464.168      4190.7196      5037.7174      2102.6012    
     93000   300.54969      0.0093         0.0025701875  -25.701875      36.331802     -34.529313      117.05986      115.02514      115.52652     -45530.832      4216.5719      5059.0235      2107.6823    
     94000   298.73705      0.0094         0.0050273241  -50.273241      31.820674     -3.9682523      117.07145      115.03541      115.40927     -45512.911      4242.9272      5068.5001      2109.136     
     95000   301.50295      0.0095         0.00014972209 -1.4972209     -10.664893      19.978119      117.08305      115.11422      115.31793     -45553.822      4165.8076      5081.6745      2109.5134    
     96000   299.57092      0.0096         0.0040302695  -40.302695      21.97698       32.118587      117.09465      115.16265      115.32126     -45498.381      4195.0733      5084.0713      2107.5511    
     97000   299.56026      0.0097         0.0095055394  -95.055394     -14.45298      -45.513833      117.10625      115.24416      115.38152     -45490.573      4195.9954      5067.2245      2103.9902    
     98000   299.35112      0.0098         3.3789513e-05 -0.33789513    -29.710857      39.098092      117.11785      115.25545      115.33951     -45436.946      4212.1648      5044.2801      2100.6328    
     99000   298.38668      0.0099         0.0047328837  -47.328837      14.002202      14.780919      117.12945      115.20014      115.39248     -45376.039      4238.0691      5044.5434      2097.3345    
    100000   301.38336      0.01           0.0078753468  -78.753468      27.167545     -56.161414      117.14104      115.1911       115.4502      -45430.702      4168.2047      5038.215       2095.8097    
    101000   299.2118       0.0101         0.0058197128  -58.197128      7.7608785      10.880358      117.15264      115.25938      115.36387     -45438.158      4300.1819      5032.5588      2095.1628    
    102000   300.08937      0.0102         0.0054642061  -54.642061     -32.233099     -28.661577      117.16424      115.31916      115.30216     -45427.054      4189.7756      5055.6284      2095.3681    
    103000   300.95192      0.0103         0.0017858942  -17.858942      51.137171      58.913724      117.17584      115.31079      115.22241     -45405.408      4170.0664      5061.4889      2096.264     
    104000   299.33748      0.0104         0.01379445    -137.9445      -47.835912     -2.1762896      117.18744      115.39513      115.29628     -45473.725      4296.6331      5047.6397      2096.6414    
    105000   301.0395       0.0105         0.010952907   -109.52907     -36.920031     -74.010474      117.19903      115.34803      115.32828     -45430.202      4183.1831      5051.1648      2095.351     
    106000   299.01104      0.0106         0.00028664939 -2.8664939      43.052829      66.807342      117.21063      115.23428      115.20212     -45466.917      4242.7844      5064.7463      2096.3651    
    107000   299.0212       0.0107         0.0043894667  -43.894667     -20.596922     -5.2413922      117.22223      115.23289      115.24894     -45435.483      4247.7928      5060.0285      2099.9481    
    108000   300.77095      0.0108         0.0056930174  -56.930174      47.662074     -39.988369      117.23383      115.23271      115.28036     -45411.248      4214.0818      5058.5717      2101.84      
    109000   300.54107      0.0109         0.0038619385  -38.619385     -5.0780768      21.989359      117.24543      115.3353       115.21795     -45442.729      4190.4509      5071.4362      2104.6482    
    110000   299.20901      0.011          0.0062202081  -62.202081     -70.375256     -29.701237      117.25702      115.37977      115.20022     -45468.141      4273.7581      5078.3171      2108.8623    
    111000   299.20322      0.0111         0.0055480566  -55.480566      10.506503      29.063125      117.26862      115.25747      115.1427      -45411.655      4180.4658      5106.8996      2110.8049    
    112000   299.65044      0.0112         0.0052446266  -52.446266      16.43964       60.474755      117.28022      115.17613      115.17837     -45400.176      4220.1318      5117.6684      2111.8589    
    113000   299.10754      0.0113         0.0086399847  -86.399847     -5.65869       -25.824283      117.29182      115.16087      115.34494     -45435.616      4265.3245      5100.3832      2112.4321    
    114000   302.09929      0.0114         0.0073430468  -73.430468      3.1596841     -38.213736      117.30342      115.15129      115.40551     -45431.104      4181.2805      5087.5749      2110.9435    
    115000   297.51032      0.0115         0.0038782131  -38.782131      11.373179     -28.793936      117.31502      115.14662      115.33055     -45354.563      4293.125       5067.9696      2107.7201    
    116000   300.55087      0.0116        -0.0032327533   32.327533      36.463146      16.097976      117.32661      115.18346      115.21457     -45297.128      4184.6219      5043.9236      2106.4454    
    117000   300.48022      0.0117        -0.0040617003   40.617003      7.5080737     -19.800866      117.33821      115.3025       115.1555      -45353.783      4229.9535      5042.4777      2107.388     
    118000   299.67411      0.0118        -0.0015454577   15.454577      10.361677     -11.498915      117.34981      115.41458      115.06998     -45324.156      4218.2373      5054.0175      2108.4317    
    119000   298.43619      0.0119        -0.00070575722  7.0575722      1.4265172     -9.6765845      117.36141      115.51714      114.97413     -45289.838      4242.0985      5054.4904      2109.8131    
    120000   300.28726      0.012         -0.0002897248   2.897248      -26.177293      0.61267527     117.37301      115.58323      114.87794     -45337.36       4244.9889      5068.2104      2109.9627    
    121000   300.81642      0.0121         0.00058549321 -5.8549321     -37.074714      28.528684      117.3846       115.54421      114.82623     -45404.665      4243.2397      5072.8959      2110.059     
    122000   302.14225      0.0122         0.00014813805 -1.4813805      68.490628     -18.222884      117.3962       115.45595      114.85244     -45348.88       4160.232       5029.499       2111.7307    
    123000   298.98767      0.0123         0.0035063119  -35.063119      30.691621     -32.366023      117.4078       115.56318      114.82012     -45329.936      4255.8789      4992.3277      2116.0312    
    124000   300.95448      0.0124        -0.0022173262   22.173262     -68.756813      26.219656      117.4194       115.69539      114.73229     -45362.584      4217.4057      4978.9423      2121.2827    
    125000   301.05474      0.0125         0.0045059172  -45.059172      39.967219     -18.180117      117.431        115.64686      114.71871     -45393.335      4213.5239      4999.0566      2123.1731    
    126000   299.12497      0.0126         0.0087077015  -87.077015      2.6362297     -32.628967      117.44259      115.69108      114.66113     -45369.051      4225.9146      4991.2951      2122.4783    
    127000   300.56578      0.0127         0.0018266046  -18.266046     -43.336641      40.629973      117.45419      115.72248      114.55695     -45404.807      4217.8036      5000.61        2122.0127    
    128000   299.99919      0.0128         0.00088643504 -8.8643504      23.024844     -14.652636      117.46579      115.64582      114.56223     -45457.842      4279.7599      5016.3146      2122.7243    
    129000   298.90594      0.0129         0.0016550976  -16.550976      12.203199      1.6885598      117.47739      115.64623      114.55041     -45398.093      4252.5919      5013.3464      2123.8833    
    130000   300.30046      0.013         -0.00023609539  2.3609539      10.768226      18.350042      117.48899      115.6934       114.55338     -45370.986      4222.0187      5021.9361      2125.0714    
    131000   300.31133      0.0131         0.0012673031  -12.673031     -57.353746     -33.69681       117.50059      115.71295      114.5721      -45489.595      4289.933       5048.1584      2124.2658    
    132000   299.49024      0.0132         0.0011149233  -11.149233      27.427658     -6.5310704      117.51218      115.62713      114.51489     -45447.421      4248.4306      5058.6316      2121.5205    
    133000   299.21165      0.0133         0.00077894853 -7.7894853      15.091708      32.985491      117.52378      115.62346      114.47087     -45379.051      4249.6914      5066.651       2118.4684    
    134000   299.59595      0.0134        -0.0050434239   50.434239     -6.8004137     -10.881173      117.53538      115.65241      114.4983      -45396.194      4252.0018      5078.2893      2114.8915    
    135000   300.63097      0.0135        -0.0045686695   45.686695     -2.0342267     -0.010886456    117.54698      115.66193      114.50007     -45442.738      4280.2854      5050.6721      2110.6018    
    136000   300.29146      0.0136         0.001544937   -15.44937      -42.156054      88.975464      117.55858      115.65323      114.54299     -45330.101      4238.7976      4999.7803      2107.3826    
    137000   300.17086      0.0137         0.0047501785  -47.501785     -29.419739     -4.9262555      117.57017      115.52282      114.7681      -45391.291      4305.5722      4974.8096      2105.5099    
    138000   299.76249      0.0138        -0.0018863233   18.863233      70.764434     -45.624517      117.58177      115.39132      114.92227     -45294.506      4214.922       4992.9653      2104.3052    
    139000   300.26005      0.0139         0.0036183525  -36.183525      1.6624147     -41.897983      117.59337      115.46221      114.90474     -45359.851      4253.632       5012.9675      2104.1203    
    140000   299.71704      0.014          0.0037712353  -37.712353     -10.973852      4.3045074      117.60497      115.52325      114.78156     -45352.236      4243.6992      5027.7794      2105.7107    
    141000   299.1597       0.0141         0.001831914   -18.31914       38.724283      23.608479      117.61657      115.55602      114.70885     -45307.402      4239.7578      5013.3244      2107.1891    
    142000   299.37789      0.0142         0.0025752008  -25.752008     -17.342628      7.3809488      117.62816      115.66237      114.72071     -45295.037      4280.0944      5008.269       2107.332     
    143000   300.3395       0.0143        -0.0032464748   32.464748     -66.410192     -23.367204      117.63976      115.66479      114.74369     -45330.244      4267.7096      5029.8881      2107.9712    
    144000   299.94632      0.0144         0.0075221918  -75.221918      29.369382     -15.59302       117.65136      115.52184      114.69957     -45406.333      4302.9218      5044.3806      2109.3031    
    145000   299.73887      0.0145         0.011143017   -111.43017      22.097192      33.219433      117.66296      115.48936      114.63626     -45293.09       4209.5582      5031.8729      2109.5864    
    146000   300.00581      0.0146        -0.0019818535   19.818535     -28.064075      30.343302      117.67456      115.50572      114.67356     -45347.619      4323.509       5010.2288      2107.9095    
    147000   299.86418      0.0147         0.0038846492  -38.846492     -5.9356668      12.731457      117.68616      115.45677      114.78608     -45407.307      4353.6824      5000.4839      2105.4365    
    148000   302.08111      0.0148         0.012022379   -120.22379     -26.644254     -9.8775422      117.69775      115.39305      114.89399     -45344.834      4207.1088      4974.2124      2103.6767    
    149000   300.87993      0.0149         0.0015594647  -15.594647      34.768301      7.7504212      117.70935      115.29688      114.95697     -45319.523      4256.7599      4935.6357      2104.4917    
    150000   297.44477      0.015         -0.0019849619   19.849619     -10.582005     -47.414385      117.72095      115.29995      114.99054     -45282.208      4318.5855      4948.3182      2105.7129    
    151000   300.32248      0.0151         0.0014813372  -14.813372     -8.8548664      22.857769      117.73255      115.29329      114.92137     -45304.307      4299.7973      4961.609       2106.4268    
    152000   300.03626      0.0152         0.0038925003  -38.925003      30.588038     -7.5093384      117.74415      115.26966      114.91153     -45354.95       4314.5924      4996.3433      2108.4646    
    153000   300.94947      0.0153         0.0062164603  -62.164603     -13.602868     -35.493533      117.75574      115.31962      114.87018     -45401.128      4252.4337      5038.5827      2110.1053    
    154000   299.77355      0.0154         0.0031480255  -31.480255     -36.429106      69.145842      117.76734      115.31588      114.78836     -45402.889      4284.3168      5031.2589      2111.7023    
    155000   300.60861      0.0155         0.0065226688  -65.226688      38.816395     -35.331261      117.77894      115.23499      114.87133     -45387.981      4263.4735      5002.9517      2114.8102    
    156000   301.96729      0.0156         0.0090081154  -90.081154      54.245931     -34.620695      117.79054      115.28566      114.84936     -45368.463      4199.2281      4951.9907      2116.8751    
    157000   298.71671      0.0157         0.0049949705  -49.949705     -39.138795      53.15923       117.80214      115.44612      114.76861     -45291.659      4270.2358      4915.1633      2115.9274    
    158000   300.0707       0.0158         0.0065684193  -65.684193      12.07207       6.7768573      117.81373      115.48048      114.83826     -45235.073      4203.2743      4897.9861      2113.976     
    159000   299.82787      0.0159         0.014604731   -146.04731      27.207228     -26.330605      117.82533      115.5345       114.89115     -45224.402      4225.0048      4894.5306      2115.3489    
    160000   298.49065      0.016          0.0125036     -125.036       -45.530311      26.230057      117.83693      115.61969      114.88664     -45190.341      4249.0426      4900.5121      2118.6605    
    161000   300.9439       0.0161         0.0054932881  -54.932881      11.874708     -31.781965      117.84853      115.59041      114.9292      -45204.046      4207.8893      4911.123       2122.0274    
    162000   299.83908      0.0162         0.010859699   -108.59699     -34.224067     -54.449822      117.86013      115.56507      114.86349     -45282.258      4293.3172      4901.8428      2125.3278    
    163000   301.2555       0.0163         0.013354332   -133.54332     -15.733469      33.428686      117.87173      115.46427      114.69931     -45318.933      4235.1987      4901.6496      2129.6839    
    164000   301.84194      0.0164         0.0039117899  -39.117899      31.356007      4.5838471      117.88332      115.36426      114.64814     -45405.532      4242.2493      4914.4861      2132.4972    
    165000   299.96209      0.0165        -0.0031206715   31.206715     -9.496631      -4.7861999      117.89492      115.35908      114.62692     -45416.833      4236.7924      4922.0198      2132.5685    
    166000   301.22934      0.0166         0.0068768372  -68.768372     -22.423337      15.500798      117.90652      115.33777      114.61525     -45475.219      4225.5131      4958.6802      2132.5062    
    167000   300.2911       0.0167         0.0078148637  -78.148637      1.8200526     -3.0042494      117.91812      115.27674      114.63866     -45477.414      4208.0564      4982.7069      2132.0832    
    168000   299.45655      0.0168         0.0041290042  -41.290042     -28.554841     -3.2773745      117.92972      115.20827      114.65173     -45516.143      4254.0137      4987.1532      2128.4635    
    169000   300.89721      0.0169         0.0038996961  -38.996961      15.606246     -6.7132771      117.94131      115.1076       114.64958     -45529.054      4215.5118      5005.3806      2124.9224    
    170000   299.32491      0.017          0.0054085942  -54.085942      8.8023761      10.230267      117.95291      115.07772      114.63771     -45472.313      4220.6501      5004.9878      2123.6082    
    171000   299.68442      0.0171         0.0048273286  -48.273286     -17.692898      25.264065      117.96451      115.06559      114.66246     -45490.318      4233.7864      4993.4994      2120.0263    
    172000   301.44004      0.0172         0.0084672408  -84.672408      18.198116      8.8816996      117.97611      115.02607      114.73279     -45541.722      4209.5281      5015.0336      2113.289     
    173000   299.32567      0.0173         0.010418387   -104.18387     -26.06816      -29.67107       117.98771      115.02644      114.80364     -45526.239      4231.7423      5033.1622      2109.2095    
    174000   300.35338      0.0174         0.0034663977  -34.663977     -7.6493817     -18.2997        117.9993       114.97375      114.7855      -45509.29       4163.7079      5026.2916      2109.0927    
    175000   299.41694      0.0175         0.0018812467  -18.812467     -0.46205981     7.4514175      118.0109       114.90119      114.71491     -45507.585      4220.5779      5028.8571      2109.1944    
    176000   298.75379      0.0176         0.0052083927  -52.083927      13.325367     -3.127064       118.0225       114.84954      114.67667     -45570.312      4291.4191      5065.3095      2108.9089    
    177000   299.52095      0.0177         0.0016173644  -16.173644      52.114361      10.796824      118.0341       114.87382      114.65842     -45515.207      4211.809       5098.2402      2110.6097    
    178000   300.16254      0.0178         0.0025977284  -25.977284     -9.1595173     -22.159878      118.0457       115.0036       114.65358     -45523.568      4243.2173      5073.7515      2112.5193    
    179000   300.71261      0.0179         0.0044087041  -44.087041      18.105636     -35.355755      118.05729      115.10038      114.5947      -45495.31       4233.4005      5016.4652      2112.8248    
    180000   299.46073      0.018          0.0020241226  -20.241226      20.442252      4.4766451      118.06889      115.20906      114.47217     -45408.874      4219.9158      4987.2331      2114.439     
    181000   302.2126       0.0181        -0.00092960845  9.2960845     -22.199029      18.914529      118.08049      115.32518      114.38693     -45454.903      4204.5813      4927.484       2117.979     
    182000   300.737        0.0182         0.0035747482  -35.747482     -50.606497      34.268033      118.09209      115.34316      114.39407     -45451.75       4233.7604      4878.9779      2120.793     
    183000   300.65422      0.0183         0.0034927893  -34.927893     -3.7320855      33.38668       118.10369      115.23009      114.49605     -45394.054      4146.9051      4865.5475      2123.1281    
    184000   298.8898       0.0184        -0.00041749949  4.1749949     -11.822148      28.160682      118.11529      115.12005      114.65587     -45371.114      4229.4323      4834.6538      2127.0171    
    185000   298.74531      0.0185         0.0022477486  -22.477486     -9.8324952     -38.296811      118.12688      115.02073      114.82393     -45336.677      4224.8775      4845.7646      2127.854     
    186000   298.98572      0.0186         0.0047021602  -47.021602      53.062195     -19.872936      118.13848      114.95424      114.85093     -45324.729      4236.4551      4880.6492      2126.6987    
    187000   298.81134      0.0187         0.0060312766  -60.312766     -26.522348      15.444677      118.15008      115.00892      114.81314     -45322.512      4243.151       4909.6031      2129.1341    
    188000   300.34307      0.0188         0.0060270798  -60.270798     -8.4481806     -27.505111      118.16168      115.0008       114.80457     -45401.011      4249.5344      4932.6589      2131.7588    
    189000   298.24487      0.0189         0.0029019818  -29.019818      58.915828      33.509591      118.17328      114.99347      114.76417     -45296.452      4247.5792      4957.1459      2133.3924    
    190000   298.45404      0.019          0.0063138296  -63.138296     -32.347369     -8.7599995      118.18487      115.10203      114.78966     -45345.955      4287.7958      4992.9344      2137.012     
    191000   300.40262      0.0191         0.0023901502  -23.901502     -2.6792242      4.753701       118.19647      115.11855      114.80527     -45301.648      4202.8565      4989.3075      2141.0283    
    192000   298.50269      0.0192         0.0035584936  -35.584936     -3.7637198     -16.302         118.20807      115.11877      114.81738     -45246.336      4274.8486      4979.9947      2141.6793    
    193000   300.75752      0.0193         0.0037534029  -37.534029     -39.495908      17.548303      118.21967      115.08971      114.7907      -45299.946      4214.0093      4999.8997      2138.5469    
    194000   300.27899      0.0194         0.007516443   -75.16443       7.6687819      12.199904      118.23127      114.97939      114.8195      -45333.515      4234.9898      5026.284       2135.3043    
    195000   298.88145      0.0195         0.0015161761  -15.161761     -7.1473187     -32.616841      118.24286      114.90777      114.8629      -45243.193      4263.9224      5005.8368      2131.5715    
    196000   301.41969      0.0196        -0.0054663715   54.663715     -9.0847938      12.50422       118.25446      114.83638      114.82306     -45305.999      4223.0723      4971.0001      2129.0822    
    197000   302.08055      0.0197         0.0019181228  -19.181228      11.192256      12.719219      118.26606      114.76431      114.80971     -45376.915      4226.5339      4966.204       2128.8735    
    198000   300.48586      0.0198         0.0048387461  -48.387461     -30.242645      15.34113       118.27766      114.72919      114.84613     -45375.318      4257.7372      4933.2993      2128.5809    
    199000   302.6199       0.0199         0.0033767288  -33.767288     -9.5102647      6.7259365      118.28926      114.6363       114.91965     -45437.193      4214.2538      4902.9535      2128.5482    
    200000   299.7837       0.02           0.0042489309  -42.489309      24.339753      4.6344336      118.30086      114.54354      114.98931     -45380.793      4202.5726      4919.7381      2128.1807    
    201000   298.98734      0.0201         0.0068475181  -68.475181      2.7483491     -0.88828103     118.31245      114.53981      115.04799     -45395.599      4262.4177      4923.7119      2125.6683    
    202000   301.46306      0.0202         0.0052361068  -52.361068     -17.668162     -24.351124      118.32405      114.53824      115.08013     -45437.863      4194.7259      4942.1401      2123.2236    
    203000   299.46903      0.0203         0.0088196938  -88.196938      30.146079     -9.9645659      118.33565      114.50851      115.04435     -45422.997      4200.2391      4980.0261      2120.1226    
    204000   297.6741       0.0204         0.010296206   -102.96206      8.825779      -10.375562      118.34725      114.5554       114.97951     -45372.355      4229.6356      5005.495       2116.8453    
    205000   300.98806      0.0205         0.0054015195  -54.015195     -20.608053      6.9403396      118.35885      114.61376      114.91146     -45394.713      4181.6184      5025.7885      2113.9715    
    206000   300.44517      0.0206         0.010211041   -102.11041     -47.155361      31.677224      118.37044      114.58061      114.88911     -45524.263      4266.5098      5039.6111      2111.6561    
    207000   301.30453      0.0207         0.015429069   -154.29069     -13.335105     -31.635381      118.38204      114.4396       114.9402      -45565.067      4241.6909      5052.4893      2112.6859    
    208000   301.03627      0.0208         0.0033993681  -33.993681      6.8729703     -33.095717      118.39364      114.29806      114.89767     -45583.527      4182.236       5050.9253      2117.3409    
    209000   298.55901      0.0209        -0.0021221693   21.221693      41.641896      92.907526      118.40524      114.23267      114.8192      -45510.151      4211.6384      5051.2082      2120.6485    
    210000   298.44623      0.021          0.0074025838  -74.025838     -32.844877     -15.449848      118.41684      114.26736      114.96235     -45528.951      4268.3532      5071.5978      2122.0324    
    211000   300.85288      0.0211         0.0054373092  -54.373092      44.555759     -22.315852      118.42843      114.26311      115.04746     -45489.325      4179.3278      5066.0039      2123.2618    
    212000   299.04704      0.0212         0.0050376583  -50.376583     -49.203874      27.928077      118.44003      114.32358      115.05594     -45435.734      4249.2114      5030.2566      2122.0038    
    213000   301.55606      0.0213         0.0032215102  -32.215102     -19.95245      -15.479479      118.45163      114.2538       115.11114     -45431.548      4155.3275      4999.5954      2119.7786    
    214000   301.3246       0.0214         0.0012805818  -12.805818      69.869009     -14.034767      118.46323      114.17842      115.11941     -45437.471      4204.4585      4937.2988      2120.416     
    215000   299.42459      0.0215         0.0016146501  -16.146501     -39.121179     -8.7303044      118.47483      114.26395      115.07714     -45358.334      4202.6082      4875.4685      2120.7559    
    216000   300.9414       0.0216        -0.00099361084  9.9361084      32.373116      38.020677      118.48643      114.26462      115.04119     -45380.856      4194.5675      4852.3295      2117.9992    
    217000   302.01029      0.0217         0.0036032714  -36.032714      5.9827963     -17.383319      118.49802      114.32899      115.09546     -45456.557      4187.6497      4861.8804      2114.1728    
    218000   298.46142      0.0218         0.0088757338  -88.757338     -70.874356     -15.66535       118.50962      114.37168      115.10305     -45389.865      4190.7341      4879.1597      2110.4231    
    219000   299.66224      0.0219         0.0022438577  -22.438577      30.959892      25.969818      118.52122      114.25031      115.0739      -45344.884      4130.2494      4939.151       2107.2544    
    220000   297.49733      0.022          0.00050954149 -5.0954149      10.165687     -31.42641       118.53282      114.21962      115.09569     -45398.143      4212.8544      5003.8092      2104.4304    
    221000   301.21899      0.0221         0.0013358671  -13.358671     -22.949156      3.1053486      118.54442      114.23254      115.05226     -45399.976      4130.7796      4993.0297      2102.9031    
    222000   298.59846      0.0222         0.0024778414  -24.778414      10.99862       14.349483      118.55601      114.18369      115.02336     -45380.282      4208.9544      5003.7922      2104.2271    
    223000   299.82209      0.0223         0.0018153172  -18.153172      29.869788     -1.6491512      118.56761      114.18359      115.04646     -45419.617      4167.9688      5034.958       2105.7866    
    224000   301.62204      0.0224         0.0016778211  -16.778211     -37.764834     -15.382497      118.57921      114.24653      115.05751     -45439.691      4132.4612      5030.355       2104.4761    
    225000   299.42122      0.0225         0.0010150952  -10.150952     -31.508761     -18.108238      118.59081      114.18976      115.01631     -45418.148      4223.1306      4978.8015      2101.9839    
    226000   301.06288      0.0226        -0.00066667524  6.6667524      47.954984      38.941126      118.60241      114.08697      114.95405     -45406.525      4147.9482      4945.073       2100.1539    
    227000   299.89697      0.0227         0.0033525618  -33.525618      13.913577      25.587239      118.614        114.12448      115.01011     -45408.85       4165.5066      4960.8919      2097.3136    
    228000   300.92468      0.0228         0.009223665   -92.23665       2.6186328     -24.514688      118.6256       114.19022      115.10724     -45411.405      4157.2205      4952.9604      2095.2326    
    229000   297.94498      0.0229         0.0078371525  -78.371525      13.609291     -24.537234      118.6372       114.25543      115.12248     -45311.492      4188.1578      4942.1217      2095.8284    
    230000   298.87485      0.023          0.00049929407 -4.9929407     -32.177396     -13.815358      118.6488       114.31549      115.05551     -45270.061      4126.0842      4977.3643      2095.5956    
    231000   299.79563      0.0231        -0.00079464468  7.9464468      37.496519      0.91121903     118.6604       114.2954       114.96449     -45284.345      4145.8808      5000.6886      2093.5934    
    232000   298.73524      0.0232         0.0061803709  -61.803709      22.532425      4.2838058      118.672        114.3797       114.91478     -45271.418      4211.752       4977.1262      2090.972     
    233000   301.07549      0.0233         0.0054176453  -54.176453     -59.687857      13.679766      118.68359      114.4794       114.88877     -45248.324      4118.5338      4965.238       2088.6626    
    234000   300.52289      0.0234         0.0061414212  -61.414212     -12.791708      46.312814      118.69519      114.39862      114.91196     -45328.166      4218.891       4963.9216      2088.3224    
    235000   300.78727      0.0235         0.005712918   -57.12918      -7.9487715     -2.3409424      118.70679      114.30199      115.05193     -45313.334      4174.7433      4925.2582      2089.4298    
    236000   300.68999      0.0236         0.0061224058  -61.224058      12.113866     -45.184774      118.71839      114.22143      115.13309     -45283.566      4156.1466      4896.3718      2091.5531    
    237000   298.48036      0.0237         0.0026439037  -26.439037      26.805407      2.5090885      118.72999      114.18958      115.07426     -45237.024      4192.8512      4912.7837      2095.4272    
    238000   299.49688      0.0238         0.0022162989  -22.162989     -20.622345      41.244885      118.74158      114.23001      115.04995     -45267.208      4180.8853      4920.8767      2099.7559    
    239000   301.01607      0.0239         0.0046777354  -46.777354      5.0953647     -9.8353206      118.75318      114.22382      115.12907     -45248.563      4169.9829      4882.9729      2102.0767    
    240000   298.57136      0.024          0.0093699614  -93.699614     -28.469452     -4.6288107      118.76478      114.20024      115.16243     -45209.94       4217.908       4877.9768      2103.837     
    241000   301.36701      0.0241        -0.0011333936   11.333936     -9.8160117      26.827966      118.77638      114.125        115.183       -45242.084      4141.4979      4886.9474      2103.7196    
    242000   300.72574      0.0242        -0.0002427337   2.427337       18.266068     -21.208153      118.78798      114.05024      115.26351     -45272.518      4199.1951      4867.1848      2101.087     
    243000   299.06965      0.0243         0.0097283658  -97.283658      25.531487     -67.148599      118.79957      114.03424      115.24031     -45278.354      4244.9319      4868.1344      2097.3803    
    244000   300.98238      0.0244         0.00099110234 -9.9110234     -11.783057      32.487736      118.81117      114.09867      115.07332     -45294.596      4152.0401      4910.1768      2093.8935    
    245000   298.96518      0.0245        -0.0018717798   18.717798     -70.004983      60.286363      118.82277      114.0882       115.0476      -45327.264      4236.1598      4947.1305      2091.7139    
    246000   300.18793      0.0246         0.0043118487  -43.118487      32.861776     -29.885347      118.83437      113.92399      115.1615      -45380.409      4243.2396      4933.8981      2091.366     
    247000   301.55867      0.0247         0.0073185517  -73.185517      17.815357     -30.825814      118.84597      113.8872       115.17241     -45382.561      4179.8019      4955.0334      2090.9754    
    248000   299.60066      0.0248         0.0033151545  -33.151545     -12.799356      3.6944526      118.85757      113.90709      115.11126     -45401.49       4195.5312      4996.4814      2089.4439    
    249000   300.16484      0.0249         0.0022674941  -22.674941      43.964971     -26.756286      118.86916      113.91484      115.05793     -45435.135      4218.7747      4983.6189      2088.3051    
    250000   303.3153       0.025          0.0072335348  -72.335348     -32.284393     -40.495773      118.88076      114.0047       114.94301     -45516.775      4171.4666      4962.5546      2089.0176    
    251000   299.76509      0.0251         0.0013919012  -13.919012     -15.961044     -2.2816435      118.89236      113.99627      114.76281     -45523.125      4226.5677      4950.2059      2090.0391    
    252000   301.16946      0.0252         0.00038532984 -3.8532984      60.648844      39.930232      118.90396      113.9751       114.64079     -45556.992      4183.2637      4934.2395      2092.5208    
    253000   299.99277      0.0253         0.0032514636  -32.514636     -18.382273      25.35656       118.91556      114.08969      114.66955     -45471.99       4152.7064      4932.122       2096.9297    
    254000   296.72325      0.0254        -0.002506225    25.06225      -31.764881      6.632287       118.92715      114.13318      114.7596      -45456.98       4299.3477      4941.704       2100.7904    
    255000   299.5534       0.0255         0.00082303571 -8.2303571      30.476429      12.217878      118.93875      114.09174      114.84221     -45401.406      4184.1538      4953.1333      2104.1107    
    256000   300.03594      0.0256         0.011845558   -118.45558     -26.293453     -10.490152      118.95035      114.11324      114.93259     -45379.745      4194.1898      4953.2339      2108.619     
    257000   300.9669       0.0257         0.0036716254  -36.716254     -8.7765361     -22.680662      118.96195      114.0883       114.96929     -45413.653      4203.4529      4925.3022      2112.2859    
    258000   298.82202      0.0258         0.0001929783  -1.929783      -11.323559     -27.547913      118.97355      114.02641      114.92119     -45386.95       4225.268       4924.2552      2112.281     
    259000   299.85648      0.0259         0.0063040753  -63.040753      5.5458483      11.726293      118.98514      113.96021      114.82073     -45443.601      4257.2941      4949.683       2111.2998    
    260000   300.53403      0.026          0.0059160246  -59.160246      52.155451      29.66829       118.99674      113.95351      114.78744     -45428.492      4190.7672      4958.8331      2111.5277    
    261000   299.19786      0.0261         0.0070967366  -70.967366     -12.838816     -14.41415       119.00834      114.05937      114.8359      -45429.736      4273.599       4962.8585      2107.85      
    262000   299.97838      0.0262         0.0079031513  -79.031513     -31.347137     -16.817725      119.01994      114.10444      114.83036     -45457.821      4244.4854      4997.5536      2104.3994    
    263000   298.79575      0.0263         0.0095253487  -95.253487     -12.259283      26.487219      119.03154      114.05621      114.80178     -45416.561      4223.93        5033.3028      2104.0857    
    264000   300.37721      0.0264         0.0074623115  -74.623115      65.637002     -27.602953      119.04314      114.0102       114.81642     -45426.172      4229.8211      5030.2851      2104.2996    
    265000   297.31402      0.0265         0.009659283   -96.59283       11.085108      0.055414578    119.05473      114.12513      114.77389     -45370.014      4283.1091      5021.99        2106.2683    
    266000   301.34419      0.0266         0.0083959867  -83.959867     -8.7695656     -49.875229      119.06633      114.2575       114.7165      -45381.685      4191.3793      5037.9475      2109.1798    
    267000   298.93859      0.0267         0.0019082321  -19.082321     -10.440898      22.263424      119.07793      114.31303      114.5689      -45389.224      4283.8683      5025.4529      2110.7278    
    268000   298.79012      0.0268         0.0023491594  -23.491594     -2.2471704      24.367554      119.08953      114.32711      114.51159     -45277.018      4251.8652      4979.9376      2112.1084    
    269000   299.35225      0.0269         0.0037999548  -37.999548     -4.5168992     -3.0327899      119.10113      114.33093      114.54062     -45276.428      4304.2311      4981.7902      2112.3055    
    270000   302.18646      0.027          0.0023326507  -23.326507      12.013438      21.753228      119.11272      114.33133      114.56744     -45329.104      4207.4073      4981.5033      2109.3033    
    271000   299.37761      0.0271         0.0044477898  -44.477898     -24.488973     -20.470589      119.12432      114.34376      114.63356     -45256.325      4249.9615      4960.6172      2104.6321    
    272000   301.41995      0.0272         0.0055127562  -55.127562      27.428702     -64.900195      119.13592      114.3092       114.60051     -45355.586      4265.6053      4948.4016      2101.5342    
    273000   299.59661      0.0273         0.0044102877  -44.102877     -3.7840662      45.832136      119.14752      114.34601      114.44259     -45306.587      4227.2241      4968.1176      2101.3889    
    274000   299.08945      0.0274         0.0012306924  -12.306924     -20.280076      0.47121996     119.15912      114.36226      114.41951     -45307.703      4255.228       4996.9065      2102.4628    
    275000   300.36346      0.0275         0.0016255131  -16.255131      19.781665     -6.8884987      119.17071      114.33352      114.41378     -45376.598      4264.4148      5014.8555      2103.2344    
    276000   299.8796       0.0276         0.0075781072  -75.781072     -51.333036      8.1535965      119.18231      114.32917      114.4001      -45407.754      4281.1444      5034.8198      2105.6188    
    277000   300.2306       0.0277         0.00099670433 -9.9670433     -16.847397      10.301916      119.19391      114.21218      114.41456     -45377.401      4206.0936      5064.1743      2106.6978    
    278000   298.82176      0.0278        -0.0035881978   35.881978      12.70645       15.273901      119.20551      114.08134      114.45036     -45378.432      4267.8576      5062.1669      2106.4372    
    279000   301.064        0.0279        -0.00053703733  5.3703733     -12.021528     -24.182338      119.21711      114.00211      114.49995     -45421.482      4269.7287      5028.5013      2107.6436    
    280000   300.38187      0.028         -0.0034112473   34.112473      41.577509     -20.375607      119.22871      113.95106      114.48062     -45397.819      4240.6435      5033.382       2109.456     
    281000   300.90452      0.0281        -0.00049748289  4.9748289     -27.59284       15.886225      119.2403       113.99507      114.42112     -45510.518      4254.6038      5059.6618      2111.1043    
    282000   301.97547      0.0282         0.00077669099 -7.7669099     -9.4539371     -14.821599      119.2519       113.96238      114.39244     -45546.989      4205.1681      5072.7811      2113.0484    
    283000   297.40035      0.0283         0.0033072109  -33.072109      48.362529      43.183583      119.2635       113.93766      114.36519     -45455.412      4274.4963      5066.5588      2111.1291    
    284000   302.27755      0.0284         0.011501585   -115.01585     -26.857405      15.687174      119.2751       114.01392      114.44716     -45564.781      4192.9382      5097.6867      2106.5091    
    285000   300.45139      0.0285         0.011285479   -112.85479     -19.42558      -24.914401      119.2867       114.00806      114.54252     -45599.926      4216.3903      5138.5526      2104.3727    
    286000   298.78418      0.0286         0.0041594572  -41.594572     -9.3817399     -16.195739      119.29829      113.95582      114.55243     -45517.384      4199.2227      5147.333       2104.7619    
    287000   300.2775       0.0287         0.0073457312  -73.457312     -50.956581      13.833225      119.30989      113.86707      114.5229      -45604.908      4260.1166      5135.5615      2106.2374    
    288000   299.72818      0.0288         0.0098160752  -98.160752      32.605398      46.570721      119.32149      113.70802      114.55258     -45598.048      4256.0052      5131.1926      2107.3165    
    289000   299.70721      0.0289         0.0022636127  -22.636127      4.5307276     -15.03192       119.33309      113.65396      114.67585     -45525.862      4218.284       5142.5641      2107.657     
    290000   299.62272      0.029          0.0042912825  -42.912825      26.407499     -28.176716      119.34469      113.65475      114.72871     -45546.755      4229.6652      5135.9069      2107.2282    
    291000   300.07955      0.0291         0.0097072402  -97.072402     -5.7330701      3.2420478      119.35628      113.71638      114.69577     -45481.985      4196.5423      5126.0959      2105.3744    
    292000   300.19772      0.0292         0.0057543229  -57.543229     -21.534125      6.5086187      119.36788      113.74364      114.67792     -45480.252      4215.2611      5095.4805      2104.4012    
    293000   300.88547      0.0293         0.002290262   -22.90262       4.5611916     -4.1009339      119.37948      113.71607      114.67881     -45493.12       4221.1016      5058.5799      2104.6961    
    294000   299.90572      0.0294         0.0094680599  -94.680599     -31.303275      31.0213        119.39108      113.68749      114.6789      -45493.313      4255.8244      5035.7831      2105.3434    
    295000   301.61955      0.0295         0.0031910778  -31.910778     -7.6876315      7.8069842      119.40268      113.59102      114.74992     -45535.35       4217.9582      5027.9429      2103.7184    
    296000   299.68374      0.0296        -0.0010626561   10.626561      19.594675      0.17455353     119.41428      113.5079       114.8314      -45488.844      4203.3595      5018.492       2101.6387    
    297000   300.41332      0.0297         0.0060770226  -60.770226     -28.905899      6.8882758      119.42587      113.47282      114.88881     -45481.85       4175.0612      5027.1868      2100.3585    
    298000   298.36744      0.0298         0.0084470296  -84.470296      32.248124     -31.708806      119.43747      113.40368      114.93366     -45509.355      4272.0134      5057.2203      2098.9586    
    299000   299.99804      0.0299         0.00095890945 -9.5890945      8.7017231     -13.748794      119.44907      113.42617      114.88358     -45500.079      4217.3915      5077.4334      2097.4611    
    300000   298.34912      0.03           0.0077228772  -77.228772     -29.288042      47.252783      119.46067      113.46017      114.82484     -45437.704      4224.6131      5090.715       2099.1195    
    301000   300.87197      0.0301         0.0070529087  -70.529087     -7.3011057      5.8329992      119.47227      113.41451      114.90064     -45468.529      4192.7187      5105.5399      2102.7253    
    302000   299.01735      0.0302         0.0048878672  -48.878672      13.826793     -24.993764      119.48386      113.36323      114.96714     -45516.771      4279.1785      5111.1779      2103.9169    
    303000   300.19817      0.0303         0.011651968   -116.51968      24.47138      -17.563897      119.49546      113.36562      114.94305     -45470.291      4233.2833      5087.9897      2102.4693    
    304000   301.18021      0.0304         0.010811079   -108.11079     -7.2476268     -13.602829      119.50706      113.42164      114.87908     -45518.357      4268.5357      5053.9594      2101.6334    
    305000   300.16618      0.0305         0.00022884356 -2.2884356     -6.3509392      5.0520278      119.51866      113.45693      114.80276     -45472.115      4248.5891      5024.0458      2101.8719    
    306000   299.90587      0.0306         0.0027817109  -27.817109     -5.7897409      46.883306      119.53026      113.45812      114.77865     -45400.678      4195.3635      5030.0713      2099.3893    
    307000   301.93584      0.0307         0.0077829189  -77.829189      1.0580376     -40.139266      119.54185      113.44445      114.85251     -45553.841      4240.8758      5030.9262      2096.9237    
    308000   300.04191      0.0308         0.00057100222 -5.7100222     -26.422375     -15.260732      119.55345      113.42726      114.82251     -45500.425      4204.2266      5017.9678      2098.4839    
    309000   298.91274      0.0309         0.00096287382 -9.6287382      7.2033555      41.397933      119.56505      113.349        114.76534     -45446.032      4220.1569      5005.3295      2100.645     
    310000   301.60179      0.031          0.0023709465  -23.709465      68.532856     -27.502734      119.57665      113.33692      114.81191     -45499.826      4177.4264      5002.8447      2103.0254    
    311000   298.72599      0.0311         0.0039230001  -39.230001     -38.25023       7.967615       119.58825      113.47207      114.79269     -45461.71       4202.0054      5037.2705      2107.3163    
    312000   297.83681      0.0312         0.0058225327  -58.225327     -38.419696      8.8622995      119.59985      113.47967      114.79025     -45414.835      4183.6397      5069.2313      2110.6329    
    313000   298.97818      0.0313         0.0019958987  -19.958987      39.441443     -52.734354      119.61144      113.39467      114.79139     -45465.819      4234.9356      5120.5541      2112.5901    
    314000   297.17621      0.0314         0.0010656092  -10.656092      16.578139      47.262372      119.62304      113.42785      114.69213     -45421.778      4287.3375      5145.3593      2115.1192    
    315000   300.82437      0.0315         0.0045524697  -45.524697     -0.50944963    -32.023749      119.63464      113.50209      114.70644     -45408.503      4196.7119      5125.4219      2117.0842    
    316000   301.08915      0.0316        -0.00031034085  3.1034085      26.609956      25.122233      119.64624      113.55975      114.66188     -45404.681      4224.6053      5086.5469      2119.1716    
    317000   298.68115      0.0317         0.0011316599  -11.316599     -35.859098      21.938505      119.65784      113.65593      114.68938     -45364.731      4276.6849      5041.5659      2121.8106    
    318000   303.113        0.0318         0.0041816655  -41.816655     -57.123987     -64.546324      119.66943      113.61756      114.74772     -45426.816      4185.8316      5022.5332      2124.8378    
    319000   299.54244      0.0319         0.0013925929  -13.925929      73.754895      8.6135614      119.68103      113.47629      114.64064     -45420.779      4273.3461      5001.3152      2126.2544    
    320000   299.90752      0.032          0.00060741008 -6.0741008      20.207476      9.4815432      119.69263      113.54616      114.57509     -45377.238      4209.2913      4979.3662      2126.5509    
    321000   300.93463      0.0321         0.0046970422  -46.970422     -8.0685504      26.288133      119.70423      113.65739      114.56939     -45413.73       4212.8624      5001.3935      2127.7727    
    322000   299.39145      0.0322         0.01099653    -109.9653      -24.819948      9.6510609      119.71583      113.7087       114.62768     -45395.485      4201.4456      5048.5732      2127.2878    
    323000   298.6569       0.0323         0.011342785   -113.42785     -39.181459     -25.499873      119.72742      113.66964      114.69056     -45340.591      4173.0114      5074.0947      2121.7054    
    324000   299.57416      0.0324         0.0030819298  -30.819298      53.609639      3.6431321      119.73902      113.56672      114.67419     -45347.871      4206.7982      5049.8654      2115.2371    
    325000   300.08063      0.0325         0.0076185696  -76.185696     -6.3817927     -2.4306649      119.75062      113.60048      114.65911     -45369.637      4245.6981      5038.0653      2110.5813    
    326000   299.95256      0.0326         0.0055312151  -55.312151     -29.870939      11.487995      119.76222      113.61521      114.65582     -45311.082      4181.8435      5031.0213      2104.6054    
    327000   302.12988      0.0327         0.00096124756 -9.6124756      46.045163     -31.408502      119.77382      113.56949      114.66294     -45407.001      4219.0213      5000.8972      2101.0447    
    328000   299.9106       0.0328         0.006623383   -66.23383       10.59607      -22.466843      119.78542      113.63351      114.57988     -45385.779      4239.9126      4974.1907      2103.5929    
    329000   298.86363      0.0329         0.0038123481  -38.123481     -16.846674      31.144806      119.79701      113.71467      114.48227     -45279.926      4189.8115      4966.9018      2106.5287    
    330000   300.50777      0.033         -0.0040698472   40.698472      32.932185     -31.714734      119.80861      113.74245      114.46716     -45337.065      4220.8266      4974.1373      2109.0305    
    331000   300.15282      0.0331         0.0013149335  -13.149335     -17.997226     -5.5170976      119.82021      113.82675      114.37771     -45335.665      4180.5007      4990.1808      2113.2165    
    332000   300.82518      0.0332         0.00744686    -74.4686       -52.580616      43.854063      119.83181      113.8379       114.32199     -45378.795      4197.9595      4974.9342      2115.9081    
    333000   301.19967      0.0333         0.0013676358  -13.676358      10.214603     -8.3952836      119.84341      113.71868      114.37329     -45412.503      4195.7352      4963.0062      2113.4031    
    334000   300.09235      0.0334         0.0086013832  -86.013832      25.540579     -4.9555974      119.855        113.65585      114.40178     -45421.668      4200.2206      4980.2452      2110.7505    
    335000   300.05072      0.0335         0.010434206   -104.34206     -8.0974336     -37.421899      119.8666       113.67085      114.39062     -45431.595      4203.6061      4976.8191      2110.4182    
    336000   300.60733      0.0336         0.0057181956  -57.181956      19.15847       7.5295135      119.8782       113.67978      114.30045     -45447.944      4209.3397      4960.1877      2110.0964    
    337000   299.33579      0.0337         0.00779204    -77.9204       -9.7625573     -15.405558      119.8898       113.71409      114.22601     -45459.631      4259.5612      4949.1759      2108.6997    
    338000   302.46071      0.0338         0.0017133733  -17.133733     -36.049143      44.761202      119.9014       113.71472      114.17497     -45470.602      4156.6756      4944.7885      2107.6474    
    339000   300.21863      0.0339        -0.0014991239   14.991239      6.602195      -26.718228      119.91299      113.63105      114.22337     -45547.997      4259.7599      4940.129       2110.4244    
    340000   297.70731      0.034          0.00282254    -28.2254        23.061163      4.0420949      119.92459      113.57988      114.19853     -45393.088      4182.2431      4929.3177      2114.0395    
    341000   300.31639      0.0341         0.0008271688  -8.271688      -5.4555914      59.553219      119.93619      113.59996      114.21566     -45399.889      4190.8582      4936.599       2115.2348    
    342000   300.92874      0.0342         0.00071704609 -7.1704609      11.310449     -50.740853      119.94779      113.61749      114.34556     -45451.522      4185.1014      4937.9625      2116.3171    
    343000   298.37754      0.0343         0.00919471    -91.9471       -20.55322      -26.806779      119.95939      113.63664      114.31819     -45420.211      4235.4903      4934.4085      2118.8829    
    344000   298.48752      0.0344         0.002242856   -22.42856       13.879201      42.68451       119.97099      113.61956      114.24758     -45332.189      4183.9317      4959.9351      2121.8307    
    345000   299.87495      0.0345        -0.0030635561   30.635561      38.035197     -16.488842      119.98258      113.64633      114.28126     -45375.228      4229.9253      4956.5415      2123.5957    
    346000   299.17007      0.0346         0.0075077141  -75.077141      13.695627      5.7786155      119.99418      113.76458      114.2789      -45272.976      4179.2141      4939.1451      2122.0032    
    347000   301.02785      0.0347         0.0059847689  -59.847689     -36.884192      21.347901      120.00578      113.86961      114.2937      -45312.669      4155.6294      4955.5245      2117.5242    
    348000   299.49673      0.0348         0.0022305335  -22.305335     -33.916821     -23.310479      120.01738      113.8546       114.34802     -45342.126      4210.8683      4985.4441      2113.1123    
    349000   297.87148      0.0349         0.010827706   -108.27706     -14.655165      0.15391743     120.02898      113.74088      114.33896     -45292.101      4242.0107      5000.7789      2110.401     
    350000   302.4109       0.035          0.0099827117  -99.827117      2.2031471     -4.4086372      120.04057      113.61966      114.31429     -45390.387      4185.5606      4999.8872      2107.9619    
    351000   300.79882      0.0351         0.00024217861 -2.4217861     -11.732822      16.517501      120.05217      113.53205      114.29982     -45450.834      4242.1148      4983.7372      2106.3396    
    352000   302.03066      0.0352         0.007643687   -76.43687       41.958304     -1.5486324      120.06377      113.46429      114.33259     -45484.078      4185.6726      4974.4016      2106.0278    
    353000   297.44532      0.0353         0.010715119   -107.15119      1.2243186      2.2929551      120.07537      113.51051      114.34816     -45389.188      4270.1026      4976.4499      2107.5701    
    354000   299.55743      0.0354        -0.0019452181   19.452181     -19.217145      27.196184      120.08697      113.55479      114.38258     -45329.647      4152.145       5002.0973      2110.4692    
    355000   300.41392      0.0355         0.0085450821  -85.450821      4.3344632     -43.353597      120.09856      113.54081      114.45334     -45437.25       4250.7519      5032.7789      2111.5176    
    356000   299.54945      0.0356         0.015240118   -152.40118     -11.684739     -24.579734      120.11016      113.54299      114.40109     -45374.21       4178.4736      5027.1989      2112.0504    
    357000   301.91877      0.0357         0.0028477166  -28.477166     -54.313536      9.9969058      120.12176      113.48798      114.2983      -45435.827      4170.9373      5010.535       2113.9151    
    358000   300.40722      0.0358         0.00025555206 -2.5555206      37.28414       14.149718      120.13336      113.33335      114.24323     -45482.548      4233.1162      4970.563       2114.5501    
    359000   301.14189      0.0359         0.014444649   -144.44649      47.108438      40.620924      120.14496      113.32515      114.26596     -45434.516      4188.0299      4922.1749      2111.9174    
    360000   301.58639      0.036          0.010643955   -106.43955     -10.60238      -30.023648      120.15656      113.43422      114.36561     -45475.307      4198.5689      4912.7577      2108.874     
    361000   299.41378      0.0361         0.0054566828  -54.566828     -8.3711402     -22.310049      120.16815      113.48848      114.36215     -45479.355      4202.2995      4949.4101      2108.5429    
    362000   299.11226      0.0362         0.01827292    -182.7292       19.616313     -11.226613      120.17975      113.51671      114.29859     -45413.204      4143.7352      4979.8934      2110.118     
    363000   298.22682      0.0363         0.014679958   -146.79958     -11.826792      5.1552802      120.19135      113.56873      114.22348     -45412.737      4222.8355      4984.2761      2109.7913    
    364000   302.21188      0.0364         0.0049606192  -49.606192     -17.235575     -22.6519        120.20295      113.57819      114.17025     -45548.299      4195.9699      5016.3792      2108.9778    
    365000   298.29571      0.0365         0.0073691251  -73.691251     -29.645944     -1.0783648      120.21455      113.53215      114.09084     -45446.772      4193.8959      5020.5749      2110.4404    
    366000   298.22809      0.0366         0.005594707   -55.94707       31.990114      60.194607      120.22614      113.43975      114.03909     -45406.338      4251.6511      4984.3139      2111.7914    
    367000   301.07794      0.0367         0.0035586573  -35.586573      13.238212     -1.29439        120.23774      113.43907      114.15195     -45438.887      4196.7811      5008.4429      2113.0289    
    368000   297.91248      0.0368         0.005989547   -59.89547       25.309542     -60.166674      120.24934      113.49656      114.21296     -45426.495      4293.0693      5043.0639      2114.2348    
    369000   300.73982      0.0369         0.0088024128  -88.024128     -9.1235557      38.509373      120.26094      113.59603      114.13657     -45387.727      4156.5886      5029.7053      2113.9444    
    370000   299.33758      0.037          0.010636301   -106.36301     -21.917611     -25.358504      120.27254      113.63385      114.13629     -45398.487      4266.9139      5020.1941      2111.8791    
    371000   300.45004      0.0371        -0.00028144382  2.8144382     -5.4917499      0.035792338    120.28413      113.61243      114.08847     -45390.057      4228.7685      4983.2964      2110.7363    
    372000   301.59568      0.0372         0.0043032028  -43.032028     -35.590657      39.885643      120.29573      113.56163      114.07243     -45392.743      4222.2002      4925.8725      2113.1293    
    373000   300.68472      0.0373         0.01163087    -116.3087       35.042093     -13.296538      120.30733      113.44925      114.14036     -45450.199      4269.5326      4909.5224      2114.5998    
    374000   300.90924      0.0374         0.0059219131  -59.219131      48.151033      11.877217      120.31893      113.46615      114.17527     -45459.018      4226.6358      4919.5681      2111.5681    
    375000   298.27846      0.0375         0.0045339706  -45.339706     -22.035445      7.818796       120.33053      113.58846      114.22749     -45295.552      4165.1586      4934.7589      2108.3569    
    376000   298.65014      0.0376         0.0046609136  -46.609136     -31.375422     -51.731509      120.34213      113.61066      114.25021     -45350.027      4244.1325      4971.1669      2105.2917    
    377000   300.50787      0.0377         0.0047229573  -47.229573      22.923806      8.9559519      120.35372      113.56722      114.16227     -45374.167      4178.3431      4999.2076      2102.291     
    378000   299.09159      0.0378         0.005918073   -59.18073      -26.407609     -12.767128      120.36532      113.56195      114.09586     -45350.838      4236.7942      4996.7261      2100.9892    
    379000   299.68607      0.0379         0.0027415176  -27.415176      32.159905      37.724756      120.37692      113.51549      114.04369     -45361.302      4236.5916      4993.5153      2102.1075    
    380000   300.28359      0.038          0.0091084071  -91.084071      53.677128     -5.4752599      120.38852      113.57948      114.09256     -45380.101      4245.9264      5001.7909      2104.0628    
    381000   299.35437      0.0381         0.012857648   -128.57648     -36.185197     -47.904865      120.40012      113.74151      114.10714     -45326.715      4278.6289      4966.3951      2104.4074    
    382000   300.04151      0.0382         0.0070506199  -70.506199     -18.885057      34.268078      120.41171      113.77554      114.02231     -45268.764      4226.1314      4945.0351      2103.5155    
    383000   299.1176       0.0383         0.0044509924  -44.509924      36.866681      7.6903293      120.42331      113.76668      114.03012     -45228.317      4242.0858      4954.5601      2104.2592    
    384000   300.17975      0.0384         0.006670781   -66.70781      -24.662755      2.9155842      120.43491      113.83281      114.06534     -45230.605      4249.8381      4927.3787      2104.991     
    385000   300.55777      0.0385         0.010921339   -109.21339     -61.076347      18.01131       120.44651      113.80283      114.10468     -45211.518      4244.6511      4891.403       2104.4766    
    386000   300.46804      0.0386         0.0060718445  -60.718445      20.259564     -32.749324      120.45811      113.64661      114.1664      -45235.952      4249.4218      4886.4484      2104.6617    
    387000   301.65103      0.0387        -0.0011046161   11.046161      13.840849     -26.823988      120.4697       113.57724      114.11823     -45319.431      4265.4849      4888.3987      2103.8789    
    388000   300.22409      0.0388         0.0020511477  -20.511477     -65.986153      47.628527      120.4813       113.53326      114.03725     -45308.704      4237.2163      4882.0858      2101.5224    
    389000   300.50862      0.0389         0.0062427827  -62.427827      61.647679      10.224024      120.4929       113.38729      114.08968     -45306.226      4242.0574      4885.6315      2098.9676    
    390000   298.22307      0.039         -0.00055471447  5.5471447      52.488283     -44.56311       120.5045       113.43083      114.14511     -45305.429      4331.7923      4890.2653      2098.6432    
    391000   300.86788      0.0391        -0.00040823739  4.0823739     -30.032479     -12.386539      120.5161       113.58134      114.07143     -45309.784      4232.0346      4905.1529      2101.1757    
    392000   299.06456      0.0392         0.011792285   -117.92285     -0.68110934    -1.8204683      120.5277       113.63393      113.98578     -45282.661      4285.9957      4935.4101      2105.1823    
    393000   300.91275      0.0393         0.010324105   -103.24105     -36.04745      -24.381146      120.53929      113.65081      113.91667     -45388.297      4225.2766      4973.1485      2109.8987    
    394000   301.35138      0.0394         0.0014345506  -14.345506      20.428547      12.799192      120.55089      113.58711      113.81726     -45437.647      4259.3329      4965.2049      2113.4972    
    395000   299.65032      0.0395         0.0065583355  -65.583355     -0.58114619     13.080586      120.56249      113.5841       113.77466     -45350.932      4246.2914      4930.827       2114.5184    
    396000   300.94161      0.0396         0.006565497   -65.65497      -32.130844      29.239384      120.57409      113.57506      113.79699     -45431.444      4271.1507      4902.208       2113.2408    
    397000   300.91053      0.0397        -0.0025879274   25.879274      48.53388      -1.8561007      120.58569      113.50921      113.87685     -45384.4        4218.5815      4886.9499      2110.6783    
    398000   299.64042      0.0398         0.0048706376  -48.706376     -17.180062     -36.625921      120.59728      113.55256      113.91456     -45337.945      4234.1402      4879.5784      2109.1862    
    399000   297.73134      0.0399        -9.3184375e-05  0.93184375     14.409711      27.453767      120.60888      113.57241      113.87382     -45235.537      4236.519       4857.1967      2108.2032    
    400000   301.47457      0.04          -0.0032774759   32.774759      7.0981954      3.5009804      120.62048      113.60768      113.89085     -45338.247      4239.7749      4849.1386      2106.9128    
    401000   298.8719       0.0401         0.0051949942  -51.949942     -32.614907     -31.950586      120.63208      113.63282      113.90404     -45316.496      4308.5656      4859.8444      2105.159     
    402000   301.78949      0.0402         0.0063916031  -63.916031      24.097583     -2.2002884      120.64368      113.5945       113.84907     -45376.493      4233.7877      4859.0465      2105.7655    
    403000   300.90824      0.0403         0.0018632229  -18.632229      11.355244     -32.678659      120.65527      113.60618      113.7726      -45364.311      4175.5129      4891.3486      2108.396     
    404000   298.97528      0.0404         0.0048097476  -48.097476      27.736148     -21.799842      120.66687      113.65719      113.63572     -45425.258      4281.8608      4904.4408      2109.1595    
    405000   299.42322      0.0405         0.00011472695 -1.1472695      26.52608      -3.529218       120.67847      113.77653      113.49621     -45374.925      4245.0438      4885.9897      2112.026     
    406000   301.41731      0.0406         4.9090167e-05 -0.49090167    -6.8493028      15.941888      120.69007      113.91772      113.38293     -45377.937      4193.4458      4892.5704      2115.9953    
    407000   299.19529      0.0407         0.0076768829  -76.768829     -35.962109      4.433453       120.70167      113.98849      113.34402     -45476.579      4297.8901      4936.3494      2115.8193    
    408000   302.22113      0.0408         0.0042976856  -42.976856     -15.879006     -23.058499      120.71327      113.95921      113.33216     -45496.062      4201.9408      4923.5968      2112.9479    
    409000   300.09292      0.0409         0.0026150313  -26.150313      3.2473251      21.099183      120.72486      113.89387      113.26904     -45432.925      4178.5798      4906.1353      2112.2966    
    410000   300.98671      0.041          0.0080474784  -80.474784     -15.206363      45.971391      120.73646      113.8281       113.27768     -45510.342      4195.2581      4920.8508      2111.0439    
    411000   298.00257      0.0411         0.0060932464  -60.932464      53.403671     -10.357859      120.74806      113.78632      113.4035      -45411.083      4216.277       4921.1879      2107.2779    
    412000   299.80519      0.0412        -0.0027338217   27.338217     -12.126659      14.598837      120.75966      113.87169      113.48099     -45347.568      4139.3148      4900.1076      2105.1158    
    413000   299.56258      0.0413         0.0038349285  -38.349285     -47.121112      9.2967405      120.77126      113.88643      113.5553      -45392.4        4266.0385      4893.2356      2107.886     
    414000   297.93578      0.0414         0.011885853   -118.85853      4.1081205     -47.960279      120.78285      113.79495      113.61744     -45319.844      4214.7465      4908.831       2110.8751    
    415000   300.4735       0.0415         0.0025426536  -25.426536      32.87458       47.637498      120.79445      113.7474       113.57706     -45293.166      4160.6619      4907.4357      2111.7627    
    416000   298.72678      0.0416         0.0034129033  -34.129033     -33.242357     -37.391236      120.80605      113.76377      113.61081     -45318.852      4318.5209      4875.7102      2110.3202    
    417000   300.40964      0.0417         0.013846804   -138.46804      12.956778     -10.851773      120.81765      113.7234       113.57239     -45346.296      4238.2436      4921.6676      2109.4884    
    418000   301.16332      0.0418         0.0048864043  -48.864043      25.541288      55.638126      120.82925      113.73521      113.53859     -45351.308      4173.2488      4950.8913      2108.5585    
    419000   298.96232      0.0419         0.0080560612  -80.560612     -51.451156     -49.02493       120.84084      113.77557      113.60884     -45393.265      4300.1215      4934.3215      2108.1871    
    420000   299.18373      0.042          0.012205762   -122.05762      19.906907     -49.817383      120.85244      113.69656      113.55137     -45369.971      4231.4252      4980.6045      2107.0606    
    421000   299.74131      0.0421         0.0049383403  -49.383403      74.900776      26.039581      120.86404      113.71206      113.39991     -45392.62       4225.2727      5041.619       2105.3768    
    422000   301.49263      0.0422         0.0068065241  -68.065241     -86.898119      10.892811      120.87564      113.8613       113.33928     -45481.715      4255.0667      5017.3752      2103.3269    
    423000   300.16272      0.0423         0.013644517   -136.44517     -24.305856      4.0128915      120.88724      113.77844      113.3371      -45433.026      4263.6731      4965.3664      2101.1105    
    424000   301.57666      0.0424         0.0099997282  -99.997282      52.242014      26.063535      120.89884      113.66912      113.36453     -45408.235      4175.8326      4964.4529      2100.6138    
    425000   297.96502      0.0425         0.0074798805  -74.798805     -36.37283       17.978872      120.91043      113.68096      113.43643     -45399.268      4284.4786      4971.7596      2102.2719    
    426000   300.09326      0.0426         0.0086209249  -86.209249      5.6946339      16.349507      120.92203      113.63156      113.55057     -45377.618      4226.451       4965.6661      2103.9012    
    427000   299.01637      0.0427         0.010089229   -100.89229     -6.9262421     -43.78838       120.93363      113.60299      113.65421     -45318.566      4240.5952      4985.1238      2104.3721    
    428000   299.24057      0.0428         0.0050540928  -50.540928     -29.066245     -7.9890471      120.94523      113.54668      113.61797     -45349.157      4230.8679      5005.9232      2105.4222    
    429000   301.89841      0.0429         0.0037798038  -37.798038      16.067864      13.127149      120.95683      113.44646      113.56805     -45440.085      4260.6552      4980.5088      2104.3915    
    430000   299.98633      0.043          0.0098162174  -98.162174      42.817442     -23.312782      120.96842      113.42898      113.55407     -45324.316      4207.9268      4929.388       2103.1072    
    431000   302.49694      0.0431         0.012342748   -123.42748      27.995011      39.826163      120.98002      113.52686      113.5106      -45395.591      4193.5821      4879.4228      2102.9274    
    432000   297.75795      0.0432         0.0053929694  -53.929694     -14.195918     -28.214107      120.99162      113.65583      113.54781     -45355.114      4306.3567      4885.1223      2102.0932    
    433000   298.1966       0.0433         0.0049592367  -49.592367     -14.653302     -30.878822      121.00322      113.71978      113.51533     -45235.913      4218.3086      4904.4327      2100.6396    
    434000   300.89397      0.0434         0.0048727151  -48.727151     -5.9694191      33.908766      121.01482      113.72         113.42712     -45273.308      4207.7799      4907.6411      2101.1375    
    435000   299.35801      0.0435         0.0051894484  -51.894484     -50.758043     -40.981686      121.02641      113.67419      113.41507     -45382.359      4304.4234      4927.1925      2104.0949    
    436000   301.46945      0.0436         0.0053767462  -53.767462      39.100176     -1.4960341      121.03801      113.55528      113.32598     -45402.205      4234.5879      4933.5632      2105.4106    
    437000   299.84101      0.0437         0.0075683983  -75.683983      19.339734      55.464696      121.04961      113.54314      113.26881     -45402.088      4250.8827      4941.2425      2104.7044    
    438000   301.01528      0.0438         0.0074889783  -74.889783     -2.1862767      14.085673      121.06121      113.59303      113.35761     -45432.563      4194.0043      4956.8144      2105.5895    
    439000   298.16862      0.0439         0.0090166115  -90.166115      14.379943     -17.867811      121.07281      113.63436      113.45925     -45381.275      4248.9714      4989.9195      2107.5881    
    440000   296.6996       0.044          0.0094798853  -94.798853     -12.756706     -30.952647      121.08441      113.69448      113.48164     -45243.848      4189.3295      5032.7021      2109.1865    
    441000   300.90312      0.0441         0.0044699803  -44.699803     -52.221734      12.269362      121.096        113.6851       113.41731     -45383.914      4238.0904      5058.0962      2109.615     
    442000   300.1395       0.0442         0.0013701473  -13.701473     -27.085515     -9.5450624      121.1076       113.55262      113.39905     -45413.296      4270.6894      5062.8752      2109.1247    
    443000   301.17746      0.0443         0.0047621107  -47.621107      16.63226      -17.718748      121.1192       113.39619      113.36591     -45407.273      4213.6098      5032.6432      2108.5261    
    444000   301.50792      0.0444         0.0018489696  -18.489696      11.533381      78.863481      121.1308       113.3124       113.32062     -45509.054      4287.9262      5013.968       2108.9422    
    445000   301.48269      0.0445         0.0022377526  -22.377526     -2.670706       10.025617      121.1424       113.28904      113.47107     -45555.152      4278.8439      4990.0694      2110.243     
    446000   298.88655      0.0446         0.0094600889  -94.600889      48.147374     -40.211782      121.15399      113.30018      113.60816     -45416.104      4249.9638      4966.9627      2112.579     
    447000   299.62017      0.0447         0.0073183662  -73.183662     -36.18611       41.490024      121.16559      113.38892      113.61504     -45342.801      4199.0404      4965.9533      2114.2069    
    448000   299.11836      0.0448         0.0062261854  -62.261854     -11.375525     -4.5020888      121.17719      113.377        113.70713     -45324          4244.3145      4947.8484      2115.1718    
    449000   300.34846      0.0449         0.013216754   -132.16754      38.934275     -65.065877      121.18879      113.35505      113.75323     -45293.61       4199.5183      4908.9053      2115.8777    
    450000   299.49392      0.045          0.0073268768  -73.268768     -21.955244      45.508787      121.20039      113.40774      113.63668     -45250.673      4205.516       4893.4171      2114.9739    
    451000   299.53544      0.0451         0.0040661326  -40.661326     -2.0140266      18.86488       121.21198      113.39351      113.64841     -45298.238      4281.3373      4886.4735      2114.4773    
    452000   300.14313      0.0452         0.01340822    -134.0822       35.90165      -37.974037      121.22358      113.40108      113.71076     -45257.09       4162.2148      4918.5294      2117.303     
    453000   298.65041      0.0453         0.013309407   -133.09407     -39.707351      58.002943      121.23518      113.46267      113.68682     -45231.11       4238.9939      4954.9756      2119.3881    
    454000   299.37399      0.0454         0.0099120355  -99.120355     -42.050945     -31.235618      121.24678      113.40574      113.77951     -45312.407      4247.3997      4987.8216      2119.5934    
    455000   301.14323      0.0455         0.0051705728  -51.705728      32.564953     -51.466042      121.25838      113.28199      113.77585     -45231.083      4089.352       5015.9501      2118.5843    
    456000   298.74544      0.0456         0.0091229923  -91.229923     -18.091585      77.858041      121.26998      113.24698      113.67738     -45297.552      4264.5084      5007.2517      2116.4722    
    457000   301.02727      0.0457         0.0094114066  -94.114066     -46.988909     -38.968191      121.28157      113.16363      113.74422     -45384.557      4251.9797      4997.5061      2115.9119    
    458000   303.27428      0.0458         0.0053281865  -53.281865      31.901795      12.244873      121.29317      113.0238       113.74042     -45392.839      4134.8153      4985.3708      2118.0262    
    459000   300.02245      0.0459         0.0073959196  -73.959196     -21.356812      18.822898      121.30477      112.9742       113.76546     -45400.876      4197.5465      4965.0857      2119.8703    
    460000   299.76472      0.046          0.0049852493  -49.852493      3.2835573     -26.606804      121.31637      112.88949      113.81115     -45404.859      4200.3861      4968.6708      2120.1167    
    461000   300.49333      0.0461         0.0045857584  -45.857584      56.644483      39.977074      121.32797      112.86741      113.80398     -45393.219      4157.5217      4989.9787      2120.4263    
    462000   297.55304      0.0462         0.012469896   -124.69896     -16.059238      5.5287844      121.33956      112.97073      113.8912      -45304.45       4214.0824      4986.1435      2120.7972    
    463000   301.03718      0.0463         0.011902118   -119.02118      6.6817971     -42.614496      121.35116      113.01644      113.95312     -45353.234      4194.9798      4967.3347      2118.9936    
    464000   300.31101      0.0464         0.0084978638  -84.978638      13.334985     -39.210405      121.36276      113.06619      113.87928     -45347.395      4196.1693      4958.8868      2118.2945    
    465000   300.2573       0.0465         0.015673051   -156.73051     -19.313254      28.418658      121.37436      113.12938      113.74791     -45267.262      4117.9652      4937.8219      2118.5495    
    466000   298.49639      0.0466         0.0076485405  -76.485405      2.6890512      10.951864      121.38596      113.11937      113.70467     -45262.024      4241.2207      4905.067       2117.4061    
    467000   300.71336      0.0467         0.0023374805  -23.374805     -1.7194083      24.873916      121.39755      113.11961      113.7265      -45284.498      4214.8142      4902.8907      2115.5355    
    468000   300.47122      0.0468         0.012542841   -125.42841     -20.434225     -8.129297       121.40915      113.11165      113.79859     -45280.691      4167.3292      4929.385       2114.5985    
    469000   299.5673       0.0469         0.01247837    -124.7837       26.35812      -24.715413      121.42075      113.05706      113.81839     -45304.984      4206.0752      4926.2574      2116.5248    
    470000   299.73716      0.047          0.0045520064  -45.520064     -15.253549     -1.8946682      121.43235      113.0748       113.77102     -45293.662      4231.0237      4913.3479      2118.1259    
    471000   300.07599      0.0471         0.0096662247  -96.662247     -9.0397635      8.6871028      121.44395      113.05675      113.7446      -45288.494      4211.6021      4925.759       2118.5063    
    472000   299.64267      0.0472         0.011038887   -110.38887      26.801433     -25.964983      121.45555      113.02295      113.71114     -45329.942      4229.5807      4948.0929      2119.4762    
    473000   300.12615      0.0473         0.0070560619  -70.560619     -43.365082      76.052011      121.46714      113.04066      113.66595     -45311.343      4225.9355      4926.7553      2119.8844    
    474000   301.3095       0.0474         0.010010365   -100.10365     -12.867779     -4.192824       121.47874      112.96613      113.81196     -45286.859      4180.4266      4886.3695      2118.4821    
    475000   300.50351      0.0475         0.014206423   -142.06423      37.587244     -20.643156      121.49034      112.87968      113.9066      -45313.379      4178.1652      4899.4887      2117.4353    
    476000   298.3498       0.0476         0.0052177211  -52.177211     -57.156017      29.495987      121.50194      112.88013      113.93218     -45300.509      4269.3485      4900.8127      2115.4311    
    477000   300.08474      0.0477         0.0022719427  -22.719427      16.56032      -5.7706406      121.51354      112.78169      114.0269      -45201.449      4166.7216      4894.4477      2111.8515    
    478000   300.04644      0.0478         0.0094211577  -94.211577      50.488583     -15.576481      121.52513      112.74491      114.06705     -45220.519      4199.015       4915.1136      2109.423     
    479000   300.98716      0.0479         0.010143435   -101.43435     -87.369777      10.954753      121.53673      112.8124       114.06062     -45339.193      4188.7355      4941.5018      2108.8379    
    480000   300.78522      0.048          0.0024679056  -24.679056     -6.3921626     -3.5286842      121.54833      112.67392      114.0895      -45309.332      4139.9289      4959.8284      2109.8195    
    481000   296.55417      0.0481         0.0078130624  -78.130624      48.179874     -28.677645      121.55993      112.55413      114.07873     -45253.588      4236.5436      4979.3962      2110.5365    
    482000   300.71278      0.0482         0.009112223   -91.12223      -33.858766      41.866219      121.57153      112.56391      114.01493     -45306.338      4185.5563      4983.7022      2110.318     
    483000   300.67185      0.0483        -0.00034290383  3.4290383      36.388248      18.382026      121.58312      112.52833      114.08289     -45283.839      4183.9891      4957.6406      2108.2544    
    484000   300.35862      0.0484         0.0099039549  -99.039549      9.1020181     -62.460582      121.59472      112.57286      114.14407     -45293.114      4162.1417      4954.9157      2104.3575    
    485000   299.64983      0.0485         0.015085267   -150.85267     -30.381127      35.062363      121.60632      112.61807      114.05442     -45282.736      4165.737       4977.9235      2100.8111    
    486000   300.5601       0.0486         0.0051820773  -51.820773      16.21352       15.740155      121.61792      112.59777      114.07891     -45298.21       4134.4884      4994.5344      2100.6528    
    487000   297.85518      0.0487         0.0084212102  -84.212102      7.8594711     -67.01577       121.62952      112.60822      114.10532     -45244.671      4190.9852      5006.8534      2102.4767    
    488000   298.81971      0.0488         0.0093615903  -93.615903     -23.701114      17.757243      121.64112      112.62701      113.97333     -45235.624      4178.4548      5033.5624      2103.504     
    489000   299.57283      0.0489         0.002272534   -22.72534      -20.859222      58.7377        121.65271      112.58803      113.9422      -45255.787      4190.9795      5061.4867      2104.411     
    490000   299.3633       0.049          0.0045842357  -45.842357      9.4362155     -6.4248855      121.66431      112.51207      114.05536     -45253.485      4198.4713      5060.566       2105.4514    
    491000   299.9408       0.0491         0.0068837643  -68.837643     -16.361778     -33.905762      121.67591      112.46516      114.10886     -45264.314      4230.979       5058.5621      2105.1521    
    492000   299.70434      0.0492         0.0052174492  -52.174492     -0.29334025     34.900836      121.68751      112.41049      114.09628     -45261.381      4233.7616      5067.446       2103.0518    
    493000   300.80673      0.0493         0.0063370058  -63.370058      51.252666     -42.935735      121.69911      112.38607      114.1376      -45241.835      4163.92        5055.8122      2100.6568    
    494000   301.53791      0.0494         0.012786848   -127.86848     -3.6505818     -16.187728      121.7107       112.47008      114.05827     -45310.742      4200.099       5047.9488      2100.3415    
    495000   298.60039      0.0495         0.0091846385  -91.846385     -60.059289      35.247301      121.7223       112.52148      113.98121     -45306.815      4268.1528      5056.8827      2100.2724    
    496000   301.60097      0.0496         0.01399924    -139.9924       20.561154      19.560754      121.7339       112.43339      114.0195      -45306.046      4178.019       5034.6041      2098.7444    
    497000   300.77241      0.0497         0.015659977   -156.59977      10.491965     -21.010296      121.7455       112.39604      114.07557     -45312.042      4244.5934      4991.8507      2098.8817    
    498000   300.78311      0.0498         0.0042164441  -42.164441     -44.207487      7.4476259      121.7571       112.39019      114.08503     -45346.271      4217.7566      4998.457       2101.3743    
    499000   299.18506      0.0499         0.0069190789  -69.190789      39.025532      11.705682      121.76869      112.30969      114.11363     -45302.065      4207.2811      5005.3246      2103.3103    
    500000   299.89367      0.05           0.015116735   -151.16735     -9.4057635     -27.721273      121.78029      112.3115       114.13335     -45298.677      4245.4391      4961.09        2103.3046    
    501000   300.58418      0.0501         0.007995823   -79.95823       0.95662302     23.777445      121.79189      112.3118       114.11482     -45271.446      4216.7391      4955.1452      2102.6149    
    502000   301.63111      0.0502         0.004794281   -47.94281       17.806355     -26.072861      121.80349      112.32751      114.1376      -45335.778      4167.5167      4967.2582      2101.9932    
    503000   299.89223      0.0503         0.012452721   -124.52721     -70.960268      8.8730511      121.81509      112.33461      114.09292     -45326.653      4212.8398      4951.0183      2101.5595    
    504000   298.37925      0.0504         0.0088514019  -88.514019      27.174236      56.177959      121.82668      112.20452      114.10038     -45271.249      4237.8423      4957.059       2102.3631    
    505000   300.76931      0.0505         0.0055604431  -55.604431      10.889555      16.461381      121.83828      112.16684      114.24804     -45332.557      4219.3465      4964.1804      2104.3441    
    506000   299.56963      0.0506         0.013720619   -137.20619     -34.213166     -17.414996      121.84988      112.15123      114.39291     -45284.661      4211.2189      4977.2177      2106.7932    
    507000   299.22165      0.0507         0.014741997   -147.41997      45.190988     -45.863048      121.86148      112.0848       114.44088     -45241.893      4168.6413      4999.5063      2107.8266    
    508000   300.19926      0.0508         0.010561028   -105.61028      9.1376591     -57.941877      121.87308      112.14787      114.34526     -45327.399      4219.5627      5015.0341      2107.534     
    509000   299.88369      0.0509         0.0070231917  -70.231917     -70.270799      43.789105      121.88468      112.18388      114.14835     -45330.448      4231.5678      5031.0024      2107.6087    
    510000   299.95815      0.051          0.013566516   -135.66516      50.732668      44.408177      121.89627      112.07627      114.1184      -45336.171      4210.3326      5046.2348      2107.2432    
    511000   299.90187      0.0511         0.010118465   -101.18465      16.889845     -6.092395       121.90787      112.11445      114.22111     -45241.384      4136.9321      5026.426       2106.4168    
    512000   299.36652      0.0512         0.0074726269  -74.726269     -33.82654      -8.3860768      121.91947      112.1704       114.26944     -45312.722      4245.304       5036.6464      2106.4383    
    513000   299.59191      0.0513         0.01125815    -112.5815      -0.0087940479   14.160723      121.93107      112.13667      114.29029     -45290.759      4200.7668      5052.3384      2106.1099    
    514000   302.40837      0.0514         0.016233907   -162.33907     -14.900851     -29.125016      121.94267      112.10544      114.32582     -45265.515      4106.9919      5019.7486      2105.46      
    515000   298.94417      0.0515         0.01034948    -103.4948       8.2206407      7.4309106      121.95426      112.04013      114.2835      -45293.408      4193.3126      5020.1195      2104.8014    
    516000   300.85102      0.0516         0.005586845   -55.86845       31.62515       6.5307982      121.96586      112.02076      114.2636      -45312.424      4115.2836      5063.7203      2105.5541    
    517000   298.54924      0.0517         0.012694767   -126.94767     -41.749138     -30.80719       121.97746      112.06675      114.25725     -45338.089      4239.2401      5057.7971      2106.6251    
    518000   301.0748       0.0518         0.012295152   -122.95152      8.7175686      34.94606       121.98906      112.01664      114.19314     -45307.137      4117.4735      5052.0985      2106.9922    
    519000   297.32002      0.0519         0.0044436393  -44.436393      23.303632     -4.0945693      122.00066      111.98826      114.21042     -45263.047      4202.1497      5092.3695      2108.7692    
    520000   299.68146      0.052          0.0054280444  -54.280444      22.311282      6.8073431      122.01225      112.04443      114.23602     -45280.839      4173.0431      5100.7779      2110.2188    
    521000   299.7042       0.0521         0.017578738   -175.78738     -31.592525     -4.4257866      122.02385      112.12571      114.26448     -45241.398      4167.6962      5099.6262      2108.9283    
    522000   300.565        0.0522         0.011826712   -118.26712      9.3429358     -39.785851      122.03545      112.11722      114.2565      -45262.164      4160.7012      5081.3099      2106.9419    
    523000   299.85129      0.0523         0.005248164   -52.48164      -12.04042       8.4800625      122.04705      112.11533      114.16488     -45289.772      4232.3656      5062.5418      2105.9139    
    524000   299.66725      0.0524         0.012373998   -123.73998      13.444809      4.5141052      122.05865      112.09131      114.10487     -45245.533      4177.4828      5053.9206      2105.9097    
    525000   299.60095      0.0525         0.0056991952  -56.991952      23.888772      22.244286      122.07025      112.11111      114.0856      -45197.236      4188.2604      5046.5639      2107.5051    
    526000   298.65153      0.0526        -0.00094394975  9.4394975      3.0324408      5.3009162      122.08184      112.19231      114.13488     -45202.37       4261.2997      5033.4714      2109.6029    
    527000   301.45772      0.0527         0.0077990851  -77.990851      17.815756     -23.655347      122.09344      112.26927      114.18045     -45118.503      4114.6884      5023.3177      2109.2851    
    528000   298.53328      0.0528         0.012312236   -123.12236     -10.473868     -11.405864      122.10504      112.35075      114.14388     -45127.818      4233.4375      5016.3746      2106.7043    
    529000   301.60345      0.0529         0.0050224647  -50.224647     -5.4997707     -6.3840784      122.11664      112.39835      114.09156     -45133.491      4134.8698      5016.4279      2104.2523    
    530000   299.07529      0.053          0.010564171   -105.64171     -46.078144     -46.412985      122.12824      112.38612      114.01823     -45175.739      4240.3833      5055.162       2102.6051    
    531000   302.2742       0.0531         0.0090557549  -90.557549      55.430635      53.230651      122.13983      112.29742      113.88325     -45225.745      4121.1822      5053.1668      2101.8344    
    532000   298.50558      0.0532         0.0014160462  -14.160462     -44.174567      5.9844835      122.15143      112.3286       113.90632     -45196.02       4287.332       5012.4148      2102.9773    
    533000   300.26412      0.0533         0.0036331061  -36.331061      6.167423      -25.075113      122.16303      112.26957      113.94511     -45165.313      4142.8576      5026.9128      2105.633     
    534000   299.63674      0.0534         0.0091011268  -91.011268      37.636303      5.6138944      122.17463      112.24558      113.91255     -45158.606      4183.6617      5054.8467      2106.5325    
    535000   301.09905      0.0535         0.0049757596  -49.757596     -81.330698     -31.580961      122.18623      112.27965      113.87921     -45292.561      4234.7129      5050.6816      2105.5667    
    536000   301.54405      0.0536         0.0043352623  -43.352623      38.098256      1.5391989      122.19782      112.14604      113.79457     -45288.578      4188.0768      5025.3249      2105.449     
    537000   300.15016      0.0537         0.009605117   -96.05117       17.483136     -5.2032482      122.20942      112.12553      113.72811     -45290.833      4185.8501      5040.749       2104.2703    
    538000   301.48646      0.0538         0.0020091427  -20.091427     -8.3211972      64.122162      122.22102      112.15994      113.69759     -45341.781      4139.1156      5067.2341      2103.1785    
    539000   299.01268      0.0539         0.0016188033  -16.188033      49.289469     -20.184545      122.23262      112.1874       113.81399     -45280.227      4188.3171      5024.0431      2104.1414    
    540000   299.50898      0.054          0.01216145    -121.6145      -50.979903     -52.934038      122.24422      112.30089      113.84693     -45226.387      4192.8609      4983.9323      2103.6459    
    541000   301.1123       0.0541         0.0075378147  -75.378147     -37.671477      48.820738      122.25582      112.26041      113.76117     -45289.217      4142.0383      5047.1647      2102.9464    
    542000   297.04438      0.0542         0.00067856217 -6.7856217      4.648539      -0.16556349     122.26741      112.12915      113.80661     -45275.809      4201.6589      5122.4284      2101.897     
    543000   300.34329      0.0543         0.0085624402  -85.624402      35.456117     -42.198526      122.27901      112.0614       113.83732     -45283.276      4162.2141      5123.6374      2099.5339    
    544000   299.4281       0.0544         0.013291936   -132.91936     -5.9047066     -17.508406      122.29061      112.0943       113.74481     -45359.79       4260.5109      5158.2629      2098.0863    
    545000   299.1449       0.0545         0.00050072162 -5.0072162      4.2792122      8.0965685      122.30221      112.11713      113.64116     -45342.648      4200.3271      5198.6911      2099.6489    
    546000   301.56039      0.0546         0.0011101769  -11.101769      29.26458       1.20441        122.31381      112.14839      113.58147     -45355.243      4183.0429      5159.9465      2101.6146    
    547000   301.1416       0.0547         0.014630684   -146.30684     -1.2370535     -1.3529275      122.3254       112.24408      113.54366     -45348.571      4172.7706      5093.9898      2102.7873    
    548000   299.27485      0.0548         0.0082254216  -82.254216     -31.510606      16.736443      122.337        112.29632      113.52297     -45309.702      4179.4377      5120.8653      2106.1887    
    549000   299.00263      0.0549         0.0010589366  -10.589366      42.610284      36.362428      122.3486       112.28035      113.55838     -45270.695      4171.8496      5117.3139      2108.3511    
    550000   301.14975      0.055          0.013759098   -137.59098     -42.08239      -23.141671      122.3602       112.34588      113.66625     -45242.915      4153.6415      5066.904       2106.9275    
    551000   299.16982      0.0551         0.010027729   -100.27729     -29.187678     -29.549572      122.3718       112.29535      113.69049     -45239.902      4201.6728      5064.1516      2108.3106    
    552000   300.99156      0.0552        -0.0034052378   34.052378      35.171502      3.2766133      122.38339      112.19596      113.62664     -45305          4182.2321      5069.3385      2110.4737    
    553000   300.21575      0.0553         0.0012456378  -12.456378     -6.1785577      21.385971      122.39499      112.19049      113.58598     -45258.102      4191.1968      5030.8036      2110.3488    
    554000   300.15688      0.0554         0.0051885998  -51.885998      14.053732      27.31054       122.40659      112.18981      113.61313     -45271.196      4207.1621      5010.2623      2110.9281    
    555000   300.88736      0.0555        -0.0014086806   14.086806     -12.22831      -17.273231      122.41819      112.21405      113.69427     -45301.444      4152.6189      5031.6705      2109.7068    
    556000   300.70316      0.0556         0.00031971683 -3.1971683     -22.820171     -33.059819      122.42979      112.19719      113.70795     -45312.804      4176.8687      5028.26        2106.4768    
    557000   300.07345      0.0557         0.011103952   -111.03952     -7.2624063      1.193057       122.44139      112.13298      113.63967     -45304.992      4185.3177      5019.8631      2104.9405    
    558000   299.51564      0.0558         0.0088303524  -88.303524      10.956875      15.500767      122.45298      112.06756      113.58414     -45328.052      4199.5156      5021.2488      2102.7887    
    559000   302.17774      0.0559         0.00043431911 -4.3431911      22.529303      33.248222      122.46458      112.05758      113.60021     -45360.107      4169.3062      4996.169       2098.3839    
    560000   298.51806      0.056          0.0051758555  -51.758555     -13.980265     -53.622099      122.47618      112.10189      113.67374     -45284.916      4226.5399      4962.7452      2095.5569    
    561000   302.65598      0.0561         0.0076515472  -76.515472      9.9520685      8.3131122      122.48778      112.122        113.61664     -45283.754      4088.5286      4949.4885      2094.5426    
    562000   300.03217      0.0562         0.0043463215  -43.463215     -36.107192      9.41074        122.49938      112.12704      113.58018     -45366.384      4229.3464      4966.1561      2094.1434    
    563000   299.16524      0.0563         0.0021740081  -21.740081     -11.331467     -25.966323      122.51097      112.05619      113.57402     -45312.706      4141.4898      4959.7576      2094.9068    
    564000   300.60526      0.0564         0.0027429781  -27.429781      20.914278      42.371215      122.52257      111.97868      113.52471     -45302.066      4141.6624      4967.7074      2097.5766    
    565000   299.20737      0.0565         0.0049355196  -49.355196     -44.654851      29.828061      122.53417      111.94093      113.58778     -45412.883      4212.6865      4999.9296      2100.112     
    566000   299.83169      0.0566         0.002778652   -27.78652       15.303849      8.5154613      122.54577      111.83145      113.71785     -45315.838      4139.4817      4984.2634      2101.6124    
    567000   297.64296      0.0567         0.002935269   -29.35269       15.463906      9.9657029      122.55737      111.783        113.83784     -45194.026      4185.3641      4939.8932      2102.8565    
    568000   302.38076      0.0568         0.006377835   -63.77835      -26.690846      5.5988794      122.56896      111.77842      113.94086     -45299.34       4162.8954      4916.7128      2103.7691    
    569000   299.03375      0.0569         0.0058088924  -58.088924      10.663615     -1.6082635      122.58056      111.72689      114.03226     -45216.868      4204.4662      4893.1287      2103.8919    
    570000   297.43416      0.057         -0.0020411396   20.411396      4.7046426     -19.357778      122.59216      111.71112      114.09105     -45097.382      4194.4726      4896.1847      2104.8463    
    571000   300.2908       0.0571        -0.0027398251   27.398251      1.3994187      2.645301       122.60376      111.71455      114.08208     -45209.951      4244.6732      4926.0458      2107.1892    
    572000   300.31277      0.0572         0.0057262617  -57.262617     -0.41067468    -3.9062618      122.61536      111.72238      114.08202     -45223.041      4222.9122      4946.936       2108.5662    
    573000   299.23101      0.0573         0.0055818355  -55.818355      16.116374     -33.039119      122.62696      111.74046      114.06073     -45177.62       4177.5035      4970.8327      2111.07      
    574000   299.60312      0.0574         0.0017182623  -17.182623     -4.5680043      13.687237      122.63855      111.77962      113.96346     -45252.397      4236.7728      5007.7522      2114.8325    
    575000   297.38827      0.0575         0.0078731379  -78.731379     -19.293993      30.912998      122.65015      111.79755      113.93345     -45184.969      4259.0955      5034.2201      2117.9662    
    576000   299.82743      0.0576         0.0066409383  -66.409383      4.2209803     -1.7341201      122.66175      111.76978      113.9926      -45151.181      4225.497       5013.411       2121.1039    
    577000   301.51914      0.0577         0.0010526489  -10.526489     -1.2339193      14.769429      122.67335      111.73847      114.03892     -45211.438      4226.9358      4992.3084      2123.3349    
    578000   299.136        0.0578         0.01137337    -113.7337      -0.28737661    -23.093361      122.68495      111.72188      114.0926      -45165.718      4220.6573      5005.2946      2124.7055    
    579000   298.94049      0.0579         0.014129619   -141.29619      30.217292     -2.1261879      122.69654      111.72577      114.08199     -45137.287      4239.2105      5008.8462      2126.3245    
    580000   300.56359      0.058          0.0063750473  -63.750473     -33.832301      26.312109      122.70814      111.77375      114.06516     -45207.918      4234.6318      5028.0318      2127.9396    
    581000   299.02985      0.0581         0.0098053949  -98.053949     -15.322073     -33.763774      122.71974      111.73441      114.09654     -45184.892      4248.8813      5058.6638      2128.5405    
    582000   299.57575      0.0582         0.009028355   -90.28355       19.239511     -3.5941961      122.73134      111.67842      114.0636      -45112.534      4207.583       5030.439       2128.388     
    583000   302.65735      0.0583        -0.0011336923   11.336923     -13.815925     -17.119589      122.74294      111.6697       114.0002      -45234.591      4236.8411      4989.8533      2128.6309    
    584000   300.54166      0.0584         0.0047676532  -47.676532     -35.360782     -16.118617      122.75453      111.62089      113.91255     -45284.92       4258.8657      5009.3119      2127.4798    
    585000   299.95451      0.0585         0.0020418528  -20.418528      42.949552      28.925597      122.76613      111.5281       113.82827     -45248.87       4217.6675      5018.6965      2124.702     
    586000   302.36438      0.0586        -0.0014686428   14.686428      10.631397      29.549354      122.77773      111.54859      113.84499     -45358.257      4256.9477      4978.9385      2120.9753    
    587000   302.41783      0.0587         0.0045477714  -45.477714     -38.581792     -57.272083      122.78933      111.58761      113.91        -45367.905      4209.1386      4967.5511      2117.6577    
    588000   298.15851      0.0588         0.0042914339  -42.914339      29.42902       4.7647973      122.80093      111.54627      113.84176     -45327.883      4252.8505      4972.5236      2116.1973    
    589000   300.58451      0.0589        -0.00089348821  8.9348821      9.1414566      58.730014      122.81253      111.57818      113.81199     -45237.351      4146.3344      4956.084       2116.0105    
    590000   299.00846      0.059          0.0018708642  -18.708642     -64.005272     -13.649655      122.82412      111.5911       113.90991     -45311.475      4322.451       4933.3262      2113.3389    
    591000   300.23294      0.0591         0.010000017   -100.00017      59.768106      22.859663      122.83572      111.50019      113.9909      -45236.876      4217.3906      4901.0754      2110.3544    
    592000   300.959        0.0592         0.010967053   -109.67053     -28.584115     -10.119784      122.84732      111.52954      114.07455     -45208.612      4197.1005      4891.5661      2108.6886    
    593000   300.38479      0.0593         0.0013822729  -13.822729     -12.792136      3.5926394      122.85892      111.49275      114.11658     -45261.989      4240.0197      4881.4376      2107.8015    
    594000   301.52083      0.0594         0.0091999555  -91.999555      25.131207     -41.132158      122.87052      111.44851      114.14576     -45240.944      4153.2439      4871.0245      2107.2832    
    595000   299.1466       0.0595         0.013911306   -139.11306     -7.308709       9.662348       122.88211      111.45504      114.05764     -45217.09       4193.7945      4867.4323      2107.4282    
    596000   299.02232      0.0596        -0.0009804481   9.804481       6.4105908      45.725825      122.89371      111.44531      114.02852     -45251.106      4252.0077      4884.1299      2107.5215    
    597000   298.87393      0.0597        -0.00019742643  1.9742643      2.4548024     -51.576867      122.90531      111.46101      114.10138     -45205.616      4207.0184      4930.8597      2108.45      
    598000   300.25423      0.0598         0.011409886   -114.09886      3.8759004      9.5002091      122.91691      111.47444      114.04411     -45250.005      4178.758       4951.3858      2111.0955    
    599000   300.55914      0.0599         0.0059231988  -59.231988     -4.2841018     -60.061884      122.92851      111.48605      113.97738     -45340.451      4270.4699      4953.3413      2114.7657    
    600000   299.60969      0.06          -0.0013364869   13.364869      3.7140245     -5.5322887      122.9401       111.49931      113.80565     -45304.158      4230.217       4937.4822      2117.7209    
    601000   300.95371      0.0601         0.0078082844  -78.082844      32.596888      51.361697      122.9517       111.51794      113.67057     -45293.047      4207.0691      4903.9804      2119.5907    
    602000   300.07943      0.0602         0.015630938   -156.30938      6.9755391     -25.882185      122.9633       111.59339      113.6784      -45361.723      4280.65        4915.0555      2119.5965    
    603000   299.79409      0.0603         0.00099618352 -9.9618352      20.712574      11.155175      122.9749       111.692        113.65248     -45314.308      4227.3317      4913.537       2118.0182    
    604000   298.85206      0.0604         0.0053665044  -53.665044     -22.898574      17.265348      122.9865       111.79407      113.65868     -45219.493      4235.7279      4894.4265      2116.0296    
    605000   297.54354      0.0605         0.0082036354  -82.036354     -21.514196     -23.457219      122.9981       111.80009      113.69252     -45163.737      4308.5241      4893.5503      2114.2523    
    606000   301.01269      0.0606         0.0012427727  -12.427727      61.010108      18.178963      123.00969      111.78835      113.68797     -45183.364      4232.7305      4901.2399      2112.4678    
    607000   298.09587      0.0607         0.0071643766  -71.643766     -12.7416       -44.707822      123.02129      111.90379      113.69438     -45124.766      4266.8679      4931.6617      2111.5172    
    608000   300.43596      0.0608         0.0094830952  -94.830952     -32.188842     -14.106488      123.03289      111.95565      113.5878      -45180.66       4260.9554      4922.9428      2110.394     
    609000   302.35097      0.0609         0.0044531208  -44.531208     -10.314574      28.726         123.04449      111.92128      113.49293     -45232.688      4262.9172      4886.6784      2108.0645    
    610000   299.72384      0.061          0.0084830898  -84.830898     -29.279723     -13.765836      123.05609      111.8485       113.48328     -45225.038      4275.2113      4881.6673      2106.3263    
    611000   301.73951      0.0611         0.0068067217  -68.067217      50.859735      50.257294      123.06768      111.75192      113.47607     -45212.542      4174.2381      4886.9263      2106.9994    
    612000   299.3208       0.0612         0.0043293277  -43.293277     -12.445175     -23.685718      123.07928      111.79046      113.57149     -45254.886      4284.9948      4887.1348      2107.1318    
    613000   300.32514      0.0613         0.0037033973  -37.033973     -48.888131     -55.440209      123.09088      111.791        113.58056     -45239.107      4189.552       4932.6592      2107.2882    
    614000   299.24498      0.0614         0.0038333323  -38.333323      9.8593772      47.3662        123.10248      111.68129      113.46775     -45276.73       4274.1264      4954.6431      2109.4343    
    615000   300.45971      0.0615         0.0058625276  -58.625276     -10.432629      4.8340621      123.11408      111.60591      113.4767      -45364.35       4279.7483      4946.9942      2112.2274    
    616000   302.95773      0.0616         0.014431317   -144.31317      3.4296536      2.9953488      123.12567      111.54394      113.51294     -45439.441      4198.652       4978.4571      2115.5867    
    617000   296.57667      0.0617         0.0054732091  -54.732091     -9.5797178      46.746231      123.13727      111.49666      113.56358     -45337.709      4273.028       4991.4389      2120.0706    
    618000   299.70281      0.0618         0.0032590501  -32.590501     -15.666415     -30.069657      123.14887      111.44183      113.69367     -45370.156      4278.0068      4989.9806      2123.2614    
    619000   299.59518      0.0619         0.009593724   -95.93724      -29.818317      11.893027      123.16047      111.35908      113.73922     -45290.38       4215.1334      5026.1475      2123.975     
    620000   300.48562      0.062          0.0045945658  -45.945658      3.4204716      2.7312576      123.17207      111.23207      113.78481     -45384.935      4234.7222      5030.8604      2123.2298    
    621000   300.93823      0.0621         0.0012409623  -12.409623      40.004838     -37.92716       123.18367      111.15907      113.81543     -45395.613      4239.3831      5007.4169      2122.73      
    622000   299.62199      0.0622         0.0065566262  -65.566262     -35.214208     -9.0007317      123.19526      111.1795       113.73828     -45400.565      4288.4221      4992.5462      2121.9822    
    623000   301.21339      0.0623         0.0039234047  -39.234047      11.532858      58.179744      123.20686      111.13556      113.68044     -45391.838      4233.7742      4983.8729      2121.4995    
    624000   299.77091      0.0624         0.004013216   -40.13216       23.842169     -15.808926      123.21846      111.12409      113.76379     -45416.953      4270.1945      4978.7654      2119.4488    
    625000   301.41099      0.0625         0.0061294095  -61.294095     -55.230493     -7.7618108      123.23006      111.14994      113.79876     -45433.136      4214.2122      4979.9135      2114.7786    
    626000   299.61831      0.0626         0.0064029618  -64.029618      3.9715505      17.787929      123.24166      111.05432      113.80778     -45428.903      4258.4978      4982.2741      2111.5169    
    627000   299.03579      0.0627         0.006153581   -61.53581       34.739424     -14.760181      123.25325      110.98706      113.84507     -45385.096      4224.4363      5002.7946      2111.0002    
    628000   300.91753      0.0628         0.007390629   -73.90629       4.5267179     -13.269852      123.26485      111.02605      113.83948     -45444.073      4226.9828      5019.0068      2110.931     
    629000   299.30274      0.0629         0.008002185   -80.02185       43.764664     -25.635818      123.27645      111.0918       113.79531     -45395.078      4224.4935      5018.361       2112.7374    
    630000   298.23296      0.063          0.010457946   -104.57946      20.211249      12.268948      123.28805      111.24388      113.7067      -45275.939      4159.4847      5046.2287      2117.6417    
    631000   299.41319      0.0631         0.0077111112  -77.111112     -87.644478     -11.601748      123.29965      111.36904      113.65374     -45455.401      4335.5501      5070.3746      2120.9944    
    632000   301.33155      0.0632         0.0062945294  -62.945294     -15.147087     -2.3242875      123.31124      111.26187      113.6097      -45436.256      4199.9069      5076.8207      2122.69      
    633000   300.13253      0.0633         0.009230543   -92.30543       46.998462     -22.021031      123.32284      111.14483      113.55501     -45400.942      4212.1267      5077.3973      2124.1716    
    634000   300.00606      0.0634        -0.0040384368   40.384368      27.389732      30.010202      123.33444      111.17778      113.47369     -45446.568      4224.0278      5060.2946      2124.1063    
    635000   301.07168      0.0635        -0.0043579085   43.579085     -0.49377132     14.906087      123.34604      111.28165      113.49964     -45422.639      4217.472       5021.6634      2121.7308    
    636000   300.21345      0.0636         0.011291904   -112.91904     -28.864029     -47.059622      123.35764      111.3465       113.53683     -45409.515      4246.2919      5017.6424      2120.8528    
    637000   301.09765      0.0637         0.0073134891  -73.134891      1.6172867      13.893797      123.36924      111.33114      113.46191     -45460.609      4193.0321      5026.4067      2122.9392    
    638000   302.53595      0.0638        -0.0032037554   32.037554     -25.374846      19.308153      123.38083      111.30824      113.44039     -45498.145      4162.2317      4990.2676      2125.1109    
    639000   297.58866      0.0639         0.0073956866  -73.956866     -5.581404      -19.169989      123.39243      111.22496      113.4624      -45413.213      4268.4917      4957.3578      2124.7858    
    640000   300.30068      0.064          0.013091257   -130.91257      83.949199      16.780556      123.40403      111.18353      113.44982     -45420.203      4196.1522      4965.8017      2123.827     
    641000   299.25817      0.0641        -0.0038497774   38.497774     -5.1003         19.0467        123.41563      111.34497      113.48457     -45340.578      4184.9894      4991.4922      2122.5573    
    642000   297.44486      0.0642        -0.0029447962   29.447962     -50.192112     -32.691205      123.42723      111.44258      113.54289     -45304.356      4269.8068      4990.3916      2120.6812    
    643000   299.97688      0.0643         0.014663061   -146.63061      36.546261     -9.1080638      123.43882      111.41076      113.50714     -45311.429      4216.7404      4995.1284      2119.4497    
    644000   299.77266      0.0644         0.010528464   -105.28464      1.4403248     -0.7245577      123.45042      111.45207      113.44495     -45321.586      4240.0605      5017.3274      2118.4467    
    645000   298.14077      0.0645        -0.00019144064  1.9144064     -12.367103      13.700247      123.46202      111.49667      113.41128     -45250.129      4291.2404      4988.9892      2117.5782    
    646000   300.08746      0.0646         0.0098719518  -98.719518      27.654409     -23.348347      123.47362      111.50939      113.4112      -45236.611      4271.6025      4970.8444      2118.2044    
    647000   301.2116       0.0647         0.015568006   -155.68006      29.712991      4.9716595      123.48522      111.59158      113.36601     -45223.729      4228.471       4962.9086      2119.4155    
    648000   299.48395      0.0648         0.0049461671  -49.461671     -42.174327      9.9837829      123.49681      111.71074      113.34409     -45180.175      4272.6744      4901.4222      2119.0718    
    649000   302.3274       0.0649         0.0087035279  -87.035279     -23.19677      -32.219352      123.50841      111.6957       113.33503     -45224.311      4203.9864      4884.6844      2119.2727    
    650000   299.15433      0.065          0.014233208   -142.33208     -2.5706027      27.815057      123.52001      111.62178      113.27308     -45233.012      4242.9352      4931.2206      2120.8739    
    651000   301.42533      0.0651         0.0021614055  -21.614055     -12.014881      21.307144      123.53161      111.55798      113.28927     -45310.472      4228.4033      4937.2486      2121.9927    
    652000   297.94823      0.0652         0.0053547125  -53.547125      21.18446      -31.17568       123.54321      111.49224      113.34371     -45225.254      4248.5568      4953.4538      2123.1996    
    653000   300.13577      0.0653         0.010325814   -103.25814      18.411777      12.720496      123.55481      111.50019      113.32675     -45239.348      4211.7572      4972.0916      2125.1756    
    654000   299.17715      0.0654         0.0010477312  -10.477312     -23.90239       34.146673      123.5664       111.54584      113.3501      -45273.868      4314.7726      4971.4999      2127.9736    
    655000   300.87995      0.0655         0.0061441457  -61.441457      9.3526012     -28.96044       123.578        111.52978      113.4352      -45220.317      4162.1138      4995.9653      2131.8917    
    656000   300.08588      0.0656         0.010881881   -108.81881     -3.1060882     -19.209009      123.5896       111.53562      113.43226     -45267.931      4221.3904      4993.5542      2133.9241    
    657000   300.2528       0.0657         0.0056394723  -56.394723     -21.93785       25.465986      123.6012       111.52935      113.3849      -45266.602      4235.2592      4968.7147      2133.0093    
    658000   299.04166      0.0658         0.0074628849  -74.628849     -19.29227      -13.826863      123.6128       111.46429      113.39711     -45226.844      4231.4512      4994.4646      2132.7401    
    659000   301.44214      0.0659         0.0013832841  -13.832841      4.0626288      44.999234      123.62439      111.37776      113.40461     -45267.976      4207.9394      4954.1802      2132.512     
    660000   300.6164       0.066          0.01097975    -109.7975      -8.8067589      13.899879      123.63599      111.31201      113.51497     -45251.858      4243.2593      4902.2056      2130.3431    
    661000   300.34697      0.0661         0.01373649    -137.3649       7.8731152     -60.134179      123.64759      111.24955      113.60302     -45294.452      4263.6192      4915.56        2130.1517    
    662000   300.27737      0.0662         0.00093021552 -9.3021552      28.925951      15.719122      123.65919      111.24328      113.54413     -45334.281      4271.4751      4928.6205      2132.5147    
    663000   299.73853      0.0663         0.0092059305  -92.059305     -29.204521     -37.834717      123.67079      111.28672      113.50687     -45259.846      4171.036       4953.173       2133.5801    
    664000   300.33055      0.0664         0.014402255   -144.02255      46.968011     -42.314316      123.68238      111.27842      113.37183     -45367.344      4239.0697      5008.1314      2134.508     
    665000   299.44719      0.0665         0.0049430848  -49.430848     -28.015401      52.02068       123.69398      111.36196      113.20946     -45443.724      4262.5429      5052.0637      2135.6154    
    666000   301.2683       0.0666         0.0037461945  -37.461945     -52.123833     -4.8507613      123.70558      111.35317      113.20145     -45426.489      4176.7616      5066.3306      2137.3021    
    667000   299.4794       0.0667         0.0066301538  -66.301538      24.427368     -5.231225       123.71718      111.22591      113.1932      -45475.986      4279.6603      5054.2736      2136.9835    
    668000   300.22728      0.0668         0.0052866107  -52.866107      5.9676784      7.2421576      123.72878      111.18938      113.1877      -45457.347      4204.9814      5084.264       2135.2024    
    669000   302.28382      0.0669         2.5488398e-05 -0.25488398    -19.832598     -31.494622      123.74038      111.17892      113.17464     -45599.792      4255.4604      5075.2924      2132.0539    
    670000   300.93716      0.067          0.0086902368  -86.902368     -14.535684      37.324239      123.75197      111.11784      113.12068     -45557.318      4201.2885      5046.8677      2128.5055    
    671000   299.39955      0.0671         0.014147427   -141.47427      7.4523759     -32.820757      123.76357      111.04947      113.1385      -45507.78       4199.4823      5076.5029      2125.8535    
    672000   300.51412      0.0672         0.00044911275 -4.4911275      11.230974      67.602583      123.77517      111.01961      113.12515     -45606.133      4230.334       5086.0867      2125.9723    
    673000   300.07261      0.0673         0.0082318124  -82.318124     -17.090856     -12.735656      123.78677      111.0159       113.25047     -45532.897      4208.7611      5051.7414      2128.0238    
    674000   299.2171       0.0674         0.016293532   -162.93532      13.42669      -56.234154      123.79837      110.97809      113.29932     -45459.461      4213.9668      5012.0822      2126.7121    
    675000   300.52322      0.0675         0.0046189152  -46.189152      41.196634      65.655183      123.80996      111.00021      113.23829     -45469.268      4196.0319      4997.2375      2121.132     
    676000   297.33463      0.0676         0.0068872483  -68.872483     -10.962209     -25.570015      123.82156      111.1085       113.31716     -45312.945      4217.8053      5010.1553      2116.9723    
    677000   299.36769      0.0677         0.011135271   -111.35271     -7.1515194     -26.906563      123.83316      111.16632      113.32469     -45341.105      4229.3345      5033.1933      2113.875     
    678000   299.15644      0.0678         0.010630648   -106.30648     -24.572507      17.499392      123.84476      111.18656      113.27443     -45395.279      4249.4585      5088.3105      2112.2509    
    679000   300.53378      0.0679         0.0099457805  -99.457805     -36.665861      16.686326      123.85636      111.12425      113.27219     -45396.702      4181.9946      5118.9332      2114.5685    
    680000   299.27559      0.068          0.005649772   -56.49772       29.78834       28.890417      123.86795      111.00321      113.32919     -45369.742      4271.3394      5069.4567      2117.9674    
    681000   299.5282       0.0681         0.0040291081  -40.291081      2.499723      -30.635231      123.87955      110.98309      113.43205     -45332.386      4261.3237      5040.9916      2121.5579    
    682000   300.90065      0.0682         0.0050910692  -50.910692      15.225432      21.693363      123.89115      110.98473      113.44515     -45334.401      4236.4589      5025.5125      2124.5716    
    683000   299.11817      0.0683         0.0038612034  -38.612034      21.42636       14.688869      123.90275      111.03021      113.49857     -45275.756      4276.2939      4970.2034      2127.2755    
    684000   299.77145      0.0684         0.0024196689  -24.196689     -41.321674     -47.258018      123.91435      111.10194      113.56299     -45160.168      4215.6319      4950.1276      2128.3693    
    685000   299.53989      0.0685         0.00055907704 -5.5907704     -3.2450971      36.842897      123.92595      111.06383      113.51634     -45192.956      4267.506       4945.8593      2128.9479    
    686000   301.03732      0.0686         0.010537735   -105.37735      1.952068       2.1102932      123.93754      111.01009      113.55612     -45313.739      4328.2         4918.1042      2128.807     
    687000   301.22154      0.0687         0.013112301   -131.12301      9.4310322     -61.861459      123.94914      110.98858      113.57721     -45235.099      4236.1905      4900.2825      2127.2517    
    688000   300.41325      0.0688         0.004074731   -40.74731       37.750159      9.3347729      123.96074      111.00612      113.44962     -45249.161      4243.0003      4903.9103      2125.7783    
    689000   299.08445      0.0689         0.0033484866  -33.484866      39.827196     -3.7279514      123.97234      111.11826      113.36489     -45207.635      4228.8379      4910.2413      2124.9475    
    690000   300.19178      0.069          0.0088451068  -88.451068     -4.2509825     -45.738172      123.98394      111.2992       113.27493     -45269.055      4298.9016      4904.3675      2125.2084    
    691000   299.03256      0.0691         0.012252156   -122.52156     -58.276349      47.175388      123.99553      111.39494      113.13682     -45205.311      4259.7065      4914.2362      2127.3252    
    692000   300.82632      0.0692         0.0063278546  -63.278546      3.934139       14.820058      124.00713      111.32197      113.13404     -45197.488      4183.947       4932.8868      2129.8618    
    693000   301.19442      0.0693         0.0035776903  -35.776903      44.459326     -18.632673      124.01873      111.28936      113.18044     -45261.449      4222.5615      4910.1014      2130.6552    
    694000   301.84417      0.0694         0.0088143828  -88.143828     -42.331599     -16.318249      124.03033      111.34902      113.16607     -45266.786      4158.2946      4887.4742      2131.5626    
    695000   298.74347      0.0695         0.008382174   -83.82174       0.19314388    -9.3575587      124.04193      111.30034      113.0951      -45238.829      4232.4478      4876.8103      2132.4529    
    696000   300.14322      0.0696         0.0031058028  -31.058028      30.582         45.901273      124.05352      111.27264      113.04352     -45263.532      4201.6462      4877.2206      2131.4681    
    697000   299.62803      0.0697         0.0019800002  -19.800002     -27.97385       18.128027      124.06512      111.3146       113.11317     -45172.874      4160.9822      4873.3571      2128.5476    
    698000   297.14607      0.0698         0.0036823686  -36.823686     -46.793702     -25.803883      124.07672      111.25583      113.19732     -45191.953      4283.5053      4912.9553      2125.9125    
    699000   302.31755      0.0699         0.007069767   -70.69767       21.943006      53.496472      124.08832      111.12427      113.22584     -45277.902      4178.1287      4951.2049      2123.544     
    700000   297.40854      0.07           0.0059331828  -59.331828      14.375862     -7.6210883      124.09992      111.07235      113.36232     -45158.128      4226.9261      4951.4728      2120.8101    
    701000   301.49483      0.0701         0.0045749446  -45.749446     -1.0093307     -71.924484      124.11152      111.07384      113.42129     -45200.578      4160.1374      4951.2959      2118.5823    
    702000   300.89773      0.0702         0.0075771073  -75.771073      2.6775092      7.200567       124.12311      111.07636      113.3038      -45249.289      4198.868       4942.3116      2120.0724    
    703000   299.95799      0.0703         0.0085524381  -85.524381      20.857517      3.0130801      124.13471      111.09125      113.22239     -45229.661      4193.8427      4919.5672      2124.5449    
    704000   299.86818      0.0704         0.0079242579  -79.242579      1.2718533     -2.0709912      124.14631      111.15683      113.17204     -45261.793      4249.5457      4910.9539      2130.1219    
    705000   299.54608      0.0705         0.0077413953  -77.413953     -22.750015      6.7544853      124.15791      111.20051      113.14572     -45221.796      4206.2872      4933.2786      2135.6068    
    706000   299.64072      0.0706         0.0071914957  -71.914957      16.866606     -37.948866      124.16951      111.18423      113.1121      -45294.489      4256.3984      4949.6376      2139.3011    
    707000   300.61759      0.0707         0.0093384189  -93.384189     -2.0399707      39.964628      124.1811       111.20135      113.02482     -45263.339      4203.8843      4946.3967      2140.5986    
    708000   299.22675      0.0708         0.013662915   -136.62915     -46.714639     -37.79281       124.1927       111.19236      113.03171     -45296.298      4232.2539      4948.418       2138.9897    
    709000   301.27978      0.0709         0.004814042   -48.14042       64.170001      11.855254      124.2043       111.11119      112.96345     -45256.995      4169.8707      4944.1464      2136.578     
    710000   297.43052      0.071          0.0055131032  -55.131032     -11.136669      17.300248      124.2159       111.17323      112.93529     -45270.914      4335.347       4933.0925      2135.0308    
    711000   303.38692      0.0711         0.006363765   -63.63765       5.0344214     -13.84613       124.2275       111.221        112.96122     -45277.5        4132.3894      4910.5633      2134.3204    
    712000   298.09041      0.0712         0.0042160994  -42.160994      9.6175357      24.330351      124.23909      111.25288      112.9438      -45239.126      4284.8516      4898.8433      2134.1149    
    713000   300.44432      0.0713         0.0091829304  -91.829304     -4.1919224      11.553105      124.25069      111.30669      112.99155     -45229.263      4202.6203      4898.8259      2133.2261    
    714000   299.26682      0.0714         0.0077499217  -77.499217     -19.350629     -26.992483      124.26229      111.33428      113.05247     -45164.685      4217.0454      4889.5775      2132.1879    
    715000   299.60007      0.0715         0.00053029803 -5.3029803     -4.1974597      4.9048868      124.27389      111.3011       113.0325      -45154.446      4281.0924      4838.2779      2131.7508    
    716000   300.69302      0.0716         0.0069530093  -69.530093     -7.0275732      18.760247      124.28549      111.26063      113.02922     -45160.692      4272.4418      4799.9752      2130.5399    
    717000   300.59958      0.0717         0.0087859502  -87.859502      5.9859962      8.3562533      124.29709      111.22309      113.08016     -45151.929      4218.4662      4800.095       2130.1773    
    718000   301.63159      0.0718         0.0026094368  -26.094368     -2.0733705      11.608726      124.30868      111.20117      113.14135     -45212.62       4244.9143      4796.5341      2131.5637    
    719000   298.67921      0.0719         0.0080350478  -80.350478     -50.944615     -11.243061      124.32028      111.16609      113.20872     -45189.283      4294.1654      4808.5688      2131.5807    
    720000   302.25106      0.072          0.012554916   -125.54916      4.346415      -10.449056      124.33188      111.0376       113.24405     -45227.969      4137.1055      4842.9648      2129.7018    
    721000   298.09807      0.0721         0.0049562547  -49.562547      55.025361     -30.44742       124.34348      110.95682      113.21902     -45214.228      4278.7111      4867.2709      2127.8777    
    722000   298.7463       0.0722         0.0038858904  -38.858904     -8.7058964     -9.9435779      124.35508      111.02795      113.12516     -45217.578      4219.9112      4893.6182      2126.2236    
    723000   299.54819      0.0723         0.0087079631  -87.079631      22.790969      42.231795      124.36667      111.087        113.06064     -45161.451      4220.3222      4921.8023      2124.4674    
    724000   298.05679      0.0724         0.0057438639  -57.438639     -13.681161     -49.472809      124.37827      111.16853      113.0828      -45193.498      4266.5449      4964.4413      2124.2863    
    725000   300.73889      0.0725         0.00069173314 -6.9173314     -59.684721     -4.6424576      124.38987      111.17476      112.99709     -45242.182      4211.2564      5016.4361      2125.6033    
    726000   298.74221      0.0726         0.0096395258  -96.395258      25.526519      34.489311      124.40147      111.0562       112.93679     -45258.838      4287.764       5024.4951      2126.281     
    727000   300.08963      0.0727         0.0097200275  -97.200275     -6.7632872      11.882005      124.41307      111.01141      112.97488     -45235.601      4246.4566      5020.4613      2124.4969    
    728000   298.75807      0.0728         0.0010758639  -10.758639     -9.3538838      51.536922      124.42466      110.96003      113.05263     -45223          4285.2651      5039.2228      2120.261     
    729000   301.60866      0.0729         0.0078798099  -78.798099      26.936121     -36.615225      124.43626      110.91667      113.21796     -45259.178      4246.1057      5019.4607      2115.2395    
    730000   300.9316       0.073          0.010735051   -107.35051     -45.947938     -74.052062      124.44786      110.92597      113.22518     -45222.98       4200.2772      5001.2492      2112.4787    
    731000   301.95068      0.0731         0.0012989457  -12.989457     -3.4273575      23.323794      124.45946      110.83349      113.0589      -45331.648      4232.7522      4992.2051      2111.1147    
    732000   301.31866      0.0732         0.0025541469  -25.541469     -7.6851395      24.983776      124.47106      110.74879      112.99433     -45378.146      4211.9006      4978.7201      2111.1239    
    733000   300.77744      0.0733         0.0088385934  -88.385934      26.265059     -12.69671       124.48266      110.68068      113.00207     -45369.747      4187.9485      4997.6508      2110.8063    
    734000   298.51627      0.0734         0.0060317532  -60.317532      56.73913       29.807837      124.49425      110.70826      112.99655     -45419.969      4308.176       4990.8034      2108.1699    
    735000   301.53791      0.0735         0.0067866117  -67.866117     -32.565398     -1.7855183      124.50585      110.85239      113.05861     -45353.535      4199.687       4959.4928      2104.9867    
    736000   297.47705      0.0736         0.010455394   -104.55394     -1.99991       -23.493476      124.51745      110.88708      113.08894     -45244.384      4239.7367      4954.4805      2104.3619    
    737000   301.09804      0.0737         0.0063864245  -63.864245      0.10561473     27.855751      124.52905      110.8914       113.07096     -45306.334      4218.2658      4946.5641      2103.1952    
    738000   300.19518      0.0738         0.0069315623  -69.315623     -8.8047996     -59.99343       124.54065      110.89943      113.08855     -45307.14       4240.3532      4951.8316      2102.9125    
    739000   298.82125      0.0739         0.005591379   -55.91379       1.5316892      0.16709445     124.55224      110.88334      112.96647     -45291.8        4234.1237      4970.7257      2106.0125    
    740000   300.51924      0.074          0.0053303882  -53.303882     -4.596821       46.529745      124.56384      110.86466      112.8834      -45355.451      4220.1205      4992.815       2109.7025    
    741000   300.14846      0.0741         0.0092868956  -92.868956      3.53772       -58.272247      124.57544      110.83924      112.91181     -45474.043      4307.3265      5033.9564      2112.7721    
    742000   301.88831      0.0742         0.0063341696  -63.341696      5.9687114      8.0171109      124.58704      110.84917      112.81642     -45459.049      4194.0301      5021.1185      2115.1512    
    743000   301.30789      0.0743         0.0065413636  -65.413636     -56.106913      19.24322       124.59864      110.83277      112.75179     -45522.414      4252.118       5009.3155      2116.8496    
    744000   300.70754      0.0744         0.013349442   -133.49442      49.633962     -33.28314       124.61023      110.728        112.74562     -45555.518      4216.5526      5017.9863      2117.0218    
    745000   299.11183      0.0745         0.0041556433  -41.556433      11.957241      19.074667      124.62183      110.7607       112.68587     -45449.269      4197.803       4996.1879      2113.7429    
    746000   300.93513      0.0746        -0.0052781056   52.781056      26.575104      27.633061      124.63343      110.8289       112.6845      -45394.285      4126.4801      4980.746       2109.9568    
    747000   299.16742      0.0747         0.005002449   -50.02449       11.582748     -36.821231      124.64503      110.94154      112.73382     -45434.638      4261.7265      4940.8812      2108.0144    
    748000   301.74955      0.0748         0.010128261   -101.28261     -43.222443      3.3955779      124.65663      111.0424       112.70735     -45380.12       4132.7891      4899.8283      2110.013     
    749000   300.89765      0.0749         0.0064475493  -64.475493     -22.089945     -9.9580679      124.66823      111.00123      112.67215     -45410.432      4145.1711      4916.194       2115.8812    
    750000   297.16071      0.075          9.4760264e-05 -0.94760264     39.523758      16.711408      124.67982      110.92936      112.63392     -45388.195      4246.8964      4916.5296      2121.218     
    751000   299.65609      0.0751        -0.0005685077   5.685077      -2.9384591     -8.9995295      124.69142      110.96323      112.64098     -45345.767      4156.22        4933.7142      2124.3874    
    752000   298.97478      0.0752         0.0043252574  -43.252574      33.899832     -31.935835      124.70302      111.0023       112.61286     -45410.591      4257.3603      4985.5026      2125.5618    
    753000   298.65777      0.0753         0.003588281   -35.88281       15.263672      25.675356      124.71462      111.11406      112.52787     -45342.321      4184.2697      4995.8982      2125.0809    
    754000   300.53983      0.0754         0.0031254358  -31.254358     -60.319699     -4.3998549      124.72622      111.21831      112.52355     -45297.47       4154.2417      4993.31        2123.7169    
    755000   300.08316      0.0755         0.0059325847  -59.325847      7.2308606     -12.582428      124.73781      111.15858      112.5072      -45389.197      4234.0131      4997.5508      2121.1997    
    756000   300.93416      0.0756         0.0088172395  -88.172395     -37.401734      10.093264      124.74941      111.09405      112.4643      -45423.572      4219.2659      4988.3862      2118.1882    
    757000   300.82446      0.0757         0.0050403069  -50.403069     -15.143169      4.2847088      124.76101      110.97311      112.46424     -45436.178      4219.5785      4947.0545      2114.4139    
    758000   301.37938      0.0758        -0.00063641853  6.3641853      33.194505      35.916462      124.77261      110.85358      112.49041     -45386.779      4130.1413      4950.9466      2112.0487    
    759000   299.29173      0.0759         0.0073493853  -73.493853      6.2399859      2.1501687      124.78421      110.84161      112.58211     -45436.871      4205.7728      4978.1366      2113.0728    
    760000   301.13593      0.076          0.010797578   -107.97578     -8.1892963     -11.205764      124.7958       110.86213      112.66948     -45477.724      4172.5967      4974.8822      2117.2549    
    761000   299.62468      0.0761         0.008685376   -86.85376      -4.4310689     -9.3554315      124.8074       110.85585      112.69671     -45421.55       4164.088       4977.6453      2123.4465    
    762000   298.42426      0.0762         0.010373619   -103.73619      15.30049      -54.9466        124.819        110.83975      112.66025     -45399.16       4191.4248      4994.0474      2127.7298    
    763000   300.46784      0.0763         0.0087938846  -87.938846      26.073837     -15.631199      124.8306       110.88036      112.51142     -45483.256      4213.563       5010.2489      2129.7256    
    764000   300.7323       0.0764         0.0062604133  -62.604133     -7.2756027      59.48337       124.8422       110.96287      112.38093     -45474.963      4167.4029      5008.3545      2130.6788    
    765000   298.56182      0.0765         0.0090361897  -90.361897     -20.543632     -10.797541      124.8538       110.997        112.40976     -45446.749      4267.3678      4978.2222      2131.5118    
    766000   302.07574      0.0766         0.00064736969 -6.4736969     -15.105075      17.770485      124.86539      110.97577      112.44804     -45434.352      4155.3014      4951.647       2133.3092    
    767000   298.96091      0.0767         0.0062534451  -62.534451      15.794798     -4.0092349      124.87699      110.92282      112.50964     -45438.75       4221.5769      4967.925       2136.4003    
    768000   298.98404      0.0768         0.011390461   -113.90461      33.154097     -57.345187      124.88859      110.92319      112.51891     -45425.116      4221.9681      4968.0434      2139.9936    
    769000   299.82956      0.0769         0.0050439967  -50.439967      9.1457431      11.943489      124.90019      111.01359      112.40284     -45410.555      4278.287       4947.5447      2142.3983    
    770000   298.31692      0.077          0.00207439    -20.7439        8.6024327      19.317091      124.91179      111.11624      112.34613     -45296.574      4205.4009      4946.3176      2141.9614    
    771000   301.39751      0.0771         0.0097796753  -97.796753     -10.530969      3.5036231      124.92338      111.18949      112.34804     -45372.034      4206.575       4955.1532      2141.3632    
    772000   299.70777      0.0772         0.010287745   -102.87745     -9.1662796     -0.43468334     124.93498      111.21457      112.36382     -45349.804      4223.3305      4948.0676      2141.2353    
    773000   300.92515      0.0773         0.008903989   -89.03989       34.561596     -53.164562      124.94658      111.22945      112.35534     -45369.188      4216.0023      4906.2236      2139.2205    
    774000   300.86072      0.0774         0.014738437   -147.38437      11.107218      0.27309242     124.95818      111.30803      112.21831     -45354.243      4182.2515      4890.1697      2137.8645    
    775000   299.95213      0.0775         0.012031682   -120.31682     -15.758297      12.27458       124.96978      111.39411      112.11688     -45351.302      4199.545       4900.0728      2137.1785    
    776000   300.58856      0.0776         0.0039612407  -39.612407      9.7910958      23.028654      124.98137      111.4301       112.09969     -45335.776      4166.6091      4893.7509      2134.4973    
    777000   298.78638      0.0777         0.0099126706  -99.126706     -31.176321     -22.463111      124.99297      111.44635      112.11851     -45339.039      4217.4947      4900.9727      2133.1002    
    778000   300.37579      0.0778         0.0061241111  -61.241111     -18.5082        1.4833758      125.00457      111.38451      112.09443     -45318.21       4157.1528      4885.1532      2134.4312    
    779000   300.65062      0.0779         0.0020870945  -20.870945      41.89341       6.8371729      125.01617      111.31614      112.08522     -45324.932      4158.161       4887.7968      2136.1117    
    780000   298.36966      0.078          0.0058337468  -58.337468     -9.3761424      26.667094      125.02777      111.35013      112.10008     -45311.741      4177.4999      4932.2968      2137.2989    
    781000   299.86119      0.0781         0.0060559867  -60.559867     -14.732931     -40.097538      125.03937      111.35957      112.16104     -45401.9        4237.9036      4955.724       2138.0838    
    782000   298.558        0.0782        -0.0001171111   1.171111       13.817657     -24.671314      125.05096      111.34649      112.11173     -45272.232      4165.3884      4979.2487      2138.6407    
    783000   299.08061      0.0783         0.0031839138  -31.839138     -34.307901      78.211437      125.06256      111.3374       112.02633     -45337.695      4232.5594      4991.7014      2137.6027    
    784000   300.06379      0.0784         0.0076452669  -76.452669     -7.6149094      2.0424668      125.07416      111.25854      112.14455     -45341.285      4238.529       4983.7147      2134.6308    
    785000   300.50315      0.0785         0.0043454647  -43.454647      37.759373     -46.170391      125.08576      111.19685      112.24026     -45286.249      4189.1169      4971.2374      2130.6746    
    786000   300.01547      0.0786         0.0044347746  -44.347746      18.631291      34.922217      125.09736      111.23567      112.20295     -45309.681      4255.5888      4929.7029      2128.1876    
    787000   299.71153      0.0787         0.0087735513  -87.735513     -17.938489     -38.805719      125.10895      111.30796      112.226       -45274.441      4282.5048      4870.9916      2127.5352    
    788000   301.98255      0.0788         0.0053090262  -53.090262      4.9316831      1.0023375      125.12055      111.33507      112.17401     -45256.101      4204.4001      4847.0613      2127.797     
    789000   299.27439      0.0789         0.0054541761  -54.541761     -2.3842234      55.672653      125.13215      111.34779      112.13756     -45175.594      4170.9827      4862.1293      2128.4846    
    790000   298.96415      0.079          0.010689498   -106.89498     -22.599994     -38.143221      125.14375      111.34433      112.22188     -45214.168      4253.3036      4854.7682      2127.5911    
    791000   300.72405      0.0791         0.0031382708  -31.382708      23.514361      8.3817807      125.15535      111.30559      112.2237      -45201.361      4226.2002      4835.5649      2125.7846    
    792000   299.49813      0.0792         0.0065630537  -65.630537      40.812366      29.607519      125.16694      111.33489      112.23733     -45127.957      4196.5745      4823.4656      2124.9392    
    793000   299.54603      0.0793         0.00973063    -97.3063       -34.744761     -39.906043      125.17854      111.43594      112.29893     -45162.34       4260.746       4795.6162      2123.5831    
    794000   301.4374       0.0794         0.0022075592  -22.075592      12.82704       12.065028      125.19014      111.45546      112.27236     -45151.122      4232.1255      4764.0531      2121.7901    
    795000   299.56492      0.0795         0.0054332434  -54.332434     -48.923766     -31.114346      125.20174      111.4655       112.24973     -45104.141      4203.2488      4772.6527      2121.2612    
    796000   299.65675      0.0796         0.0085047727  -85.047727      16.02977       40.246936      125.21334      111.36453      112.17893     -45134.031      4208.1802      4795.7623      2121.4837    
    797000   298.7944       0.0797         0.0057207028  -57.207028      29.085582     -11.324429      125.22494      111.3365       112.21309     -45155.802      4296.9608      4812.7677      2119.1826    
    798000   299.30591      0.0798         0.0065862662  -65.862662     -15.957892     -21.444043      125.23653      111.38052      112.21189     -45123.987      4219.3935      4852.7003      2116.5352    
    799000   299.1911       0.0799         0.0079932702  -79.932702      57.344678      52.529179      125.24813      111.39228      112.16949     -45117.775      4241.2335      4879.8372      2118.4325    
    800000   297.6351       0.08           0.0046038816  -46.038816     -3.1578674     -46.640701      125.25973      111.53846      112.24486     -45021.977      4285.6441      4871.3934      2121.3284    
    801000   300.51337      0.0801         0.0057130342  -57.130342     -33.644421     -30.995038      125.27133      111.63041      112.18684     -45092.252      4285.0538      4851.7014      2120.5096    
    802000   300.70243      0.0802         0.010661965   -106.61965     -21.273516      65.007234      125.28293      111.59969      112.082       -45036.491      4232.6875      4825.0345      2120.4097    
    803000   300.62146      0.0803         0.0041214201  -41.214201     -33.049797     -6.743378       125.29452      111.51503      112.15514     -45067.371      4249.4256      4818.9745      2121.4406    
    804000   300.27995      0.0804        -0.001355983    13.55983       49.555534     -12.539375      125.30612      111.39751      112.21415     -45084.864      4243.8665      4836.1348      2121.8214    
    805000   299.32691      0.0805         0.010129119   -101.29119     -17.157947     -42.697538      125.31772      111.4096       112.19495     -45104.518      4264.2188      4858.2713      2124.0037    
    806000   300.26232      0.0806         0.0091597207  -91.597207      15.483673      17.242426      125.32932      111.40324      112.09633     -45137.464      4267.166       4888.4175      2127.8122    
    807000   297.8388       0.0807         0.0018929193  -18.929193      48.500664     -17.838292      125.34092      111.44976      112.05542     -45070.286      4263.1791      4935.9187      2130.1505    
    808000   299.74789      0.0808         0.0075270308  -75.270308     -40.234234     -24.484887      125.35251      111.58115      111.97538     -45088.35       4246.1892      4951.7568      2129.4242    
    809000   301.1306       0.0809         0.011405902   -114.05902     -10.554229      49.684683      125.36411      111.58749      111.88822     -45108.771      4244.0693      4925.2972      2125.7971    
    810000   299.6165       0.081          0.0066433806  -66.433806     -11.026836     -10.204787      125.37571      111.55511      111.92992     -45060.158      4237.7299      4912.7708      2121.5927    
    811000   302.69981      0.0811         0.0059391149  -59.391149     -21.819414     -2.4092348      125.38731      111.4952       111.93578     -45180.262      4206.7273      4902.5162      2118.6962    
    812000   301.31194      0.0812         0.01060233    -106.0233      -0.49763662     49.104501      125.39891      111.40085      111.95316     -45193.673      4241.3342      4877.8159      2118.4391    
    813000   299.44124      0.0813         0.0098477847  -98.477847     -10.168262     -32.391999      125.41051      111.33126      112.06598     -45164.112      4260.8844      4849.4531      2118.3138    
    814000   302.24593      0.0814         0.008268079   -82.68079       23.146895     -10.639467      125.4221       111.2677       112.07851     -45199.772      4168.6958      4855.5559      2117.1901    
    815000   299.52971      0.0815         0.013737993   -137.37993     -29.665129      29.466366      125.4337       111.25797      112.0651      -45178.092      4205.0315      4875.8195      2117.0423    
    816000   300.37208      0.0816         0.0080725473  -80.725473     -33.735608     -8.4304076      125.4453       111.17512      112.11151     -45245.717      4205.905       4882.8186      2117.2493    
    817000   299.60451      0.0817         0.0075981868  -75.981868      35.457001     -6.4979567      125.4569       111.0464       112.13007     -45284.766      4223.5314      4919.7191      2116.2145    
    818000   297.8114       0.0818         0.01358754    -135.8754      -16.800994      0.60588119     125.4685       111.02185      112.12395     -45189.926      4201.3986      4962.848       2114.4711    
    819000   299.6456       0.0819         0.0040837333  -40.837333      0.53055522     34.446148      125.48009      110.97723      112.13662     -45233.067      4244.9646      4961.9956      2111.6019    
    820000   299.48461      0.082         -0.0019492429   19.492429      26.252603     -32.19275       125.49169      110.94386      112.21415     -45195.092      4208.0133      4979.6522      2108.0968    
    821000   297.91118      0.0821         0.011900339   -119.00339      27.510437     -29.456498      125.50329      110.99353      112.18829     -45184.362      4292.5691      4988.8179      2105.0885    
    822000   302.51789      0.0822         0.013197335   -131.97335     -37.125341      44.055688      125.51489      111.07765      112.11655     -45240.999      4199.5696      4987.8434      2104.2968    
    823000   299.83295      0.0823         0.012544956   -125.44956     -17.337829     -30.456967      125.52649      111.05452      112.13945     -45260.302      4218.6542      5029.9429      2106.3632    
    824000   298.50875      0.0824         0.012672511   -126.72511      31.291478      29.375335      125.53808      111.00723      112.11645     -45236.646      4227.7393      5040.072       2109.4083    
    825000   299.27562      0.0825         0.012122008   -121.22008      0.84173264    -15.070171      125.54968      111.03681      112.15314     -45202.188      4264.8878      5020.9825      2110.5643    
    826000   300.41443      0.0826         0.0067397789  -67.397789     -10.155292     -47.228165      125.56128      111.06196      112.13219     -45228.189      4245.5423      5015.4893      2111.3431    
    827000   300.43236      0.0827         0.0036145279  -36.145279      30.007056      36.333243      125.57288      111.06815      112.01848     -45192.547      4232.5778      4982.91        2113.0438    
    828000   298.59758      0.0828         0.011235108   -112.35108     -20.44438       5.1197409      125.58448      111.12622      112.0067      -45142.303      4278.7102      4959.8139      2114.6014    
    829000   301.11888      0.0829         0.0097129882  -97.129882     -7.5427654     -19.073811      125.59607      111.13279      112.01879     -45192.779      4196.0146      4989.1037      2115.5952    
    830000   300.18397      0.083          0.0030546454  -30.546454     -28.108011     -16.08155       125.60767      111.10476      111.97679     -45203.882      4251.5012      5004.902       2114.2719    
    831000   299.63087      0.0831         0.0093230661  -93.230661     -15.389178      14.039036      125.61927      111.01128      111.90443     -45246.48       4281.658       5011.0641      2111.0604    
    832000   303.36182      0.0832         0.0078712582  -78.712582      0.54827027     54.461692      125.63087      110.90802      111.91645     -45308.321      4146.1078      5017.8119      2110.4435    
    833000   300.07533      0.0833        -0.00073217486  7.3217486     -20.263238     -57.835489      125.64247      110.82372      112.02275     -45333.225      4229.5018      5015.9958      2111.3926    
    834000   298.99858      0.0834         0.0053763794  -53.763794      39.386594      16.619083      125.65407      110.72739      111.98064     -45294.541      4201.1065      5036.4216      2109.6506    
    835000   301.12008      0.0835         0.012321464   -123.21464      18.387251      26.263975      125.66566      110.7587       111.98878     -45343.928      4183.4758      5030.7657      2107.5579    
    836000   299.31782      0.0836         0.0032890704  -32.890704      0.029357285   -58.325049      125.67726      110.83405      112.034       -45301.957      4216.4919      5026.8663      2107.4953    
    837000   299.74069      0.0837         0.005857363   -58.57363      -20.987573      35.825288      125.68886      110.86895      111.94583     -45357.967      4261.3595      5034.1375      2107.5247    
    838000   300.44309      0.0838         0.012912612   -129.12612     -12.427554      37.258546      125.70046      110.84812      111.97021     -45281.811      4163.0098      5011.0047      2108.2709    
    839000   299.64576      0.0839         0.0030841737  -30.841737     -11.681989     -17.804381      125.71206      110.79211      112.07529     -45284.051      4224.613       4981.3773      2111.3052    
    840000   300.71953      0.084         -0.00057393969  5.7393969      15.908245      22.390348      125.72365      110.7283       112.12829     -45282.817      4186.124       4978.5753      2114.7653    
    841000   297.96948      0.0841         0.010502606   -105.02606      13.16663      -31.74014       125.73525      110.72175      112.1966      -45203.725      4230.4343      4979.6339      2116.3089    
    842000   299.7543       0.0842         0.0009733216  -9.733216       30.292097      6.6460513      125.74685      110.77321      112.18862     -45167.639      4204.4981      4943.803       2116.8423    
    843000   302.25542      0.0843         0.0057202308  -57.202308     -52.637122     -0.81592081     125.75845      110.85946      112.18696     -45257.785      4210.7745      4924.7176      2115.1809    
    844000   300.22726      0.0844         0.011903164   -119.03164     -24.148122     -40.680531      125.77005      110.79118      112.1621      -45239.886      4206.7355      4925.0769      2111.8306    
    845000   298.62759      0.0845         0.0012917224  -12.917224      19.448619      50.833286      125.78164      110.68842      112.07648     -45245.408      4267.2154      4927.4451      2108.8266    
    846000   302.50762      0.0846         0.00045654584 -4.5654584     -29.355281      23.663065      125.79324      110.6442       112.13422     -45287.803      4128.6443      4965.4205      2105.1617    
    847000   298.44238      0.0847         0.005871299   -58.71299       7.15908       -40.038737      125.80484      110.55027      112.2227      -45296.947      4252.5336      4993.0407      2103.6805    
    848000   299.94707      0.0848         0.0038584762  -38.584762      21.624314      12.395686      125.81644      110.51375      112.20674     -45260.404      4178.0664      4991.122       2104.383     
    849000   299.33713      0.0849         0.0033897312  -33.897312     -2.7062816     -18.929113      125.82804      110.53355      112.19965     -45268.736      4204.689       4997.7805      2104.9816    
    850000   301.58125      0.085          0.0026685329  -26.685329      35.789745     -33.19599       125.83964      110.56301      112.14448     -45312.572      4196.7538      4974.538       2108.5576    
    851000   299.51765      0.0851         0.0053856361  -53.856361     -16.555927      41.308368      125.85123      110.66081      112.04181     -45235.446      4217.8501      4916.2415      2114.9062    
    852000   301.22638      0.0852         0.0051951642  -51.951642     -23.415086      37.640154      125.86283      110.68605      112.07145     -45281.137      4211.1734      4874.3344      2118.524     
    853000   301.12127      0.0853         0.0020664577  -20.664577      8.3003265     -13.57389       125.87443      110.65435      112.18578     -45203.803      4149.554       4863.536       2118.9072    
    854000   298.43873      0.0854         0.0047012403  -47.012403     -35.871172      7.0868881      125.88603      110.62788      112.24582     -45201.423      4227.6346      4858.6645      2119.7038    
    855000   299.27949      0.0855         0.0013474513  -13.474513      34.128074      49.852519      125.89763      110.54733      112.32227     -45118.645      4192.1796      4830.2426      2121.5357    
    856000   298.49767      0.0856         0.008232777   -82.32777       18.46456      -20.960959      125.90922      110.5613       112.4798      -45056.564      4200.2922      4847.4209      2122.9331    
    857000   298.61472      0.0857         0.010466589   -104.66589     -1.4083857     -54.518624      125.92082      110.62755      112.5362      -45035.723      4171.101       4917.6348      2122.8734    
    858000   298.00436      0.0858         0.00073421974 -7.3421974      26.378205      17.323445      125.93242      110.68064      112.45312     -45018.577      4214.9413      4944.5805      2122.9406    
    859000   300.85616      0.0859         0.010290945   -102.90945     -23.651348     -54.51053       125.94402      110.76858      112.38685     -45103.253      4257.2387      4918.4363      2123.5438    
    860000   300.19594      0.086          0.015366356   -153.66356     -22.89634      -25.902238      125.95562      110.78319      112.22382     -45086.897      4217.6137      4932.2686      2124.5663    
    861000   300.4074       0.0861         0.0022393504  -22.393504      42.824396      48.028534      125.96721      110.75049      112.05413     -45154.971      4241.087       4946.2038      2127.6852    
    862000   300.07201      0.0862         0.006436958   -64.36958      -18.722992     -22.262583      125.97881      110.80294      112.03362     -45168.071      4237.7475      4936.0092      2131.3211    
    863000   300.88966      0.0863         0.012687356   -126.87356      11.193638      22.064399      125.99041      110.8239       111.99748     -45156.829      4234.4453      4932.8904      2133.2214    
    864000   301.19963      0.0864         0.0079998629  -79.998629     -11.410545      5.4198331      126.00201      110.85927      112.0198      -45282.066      4268.7734      4924.2551      2134.4129    
    865000   301.92849      0.0865         0.0013980004  -13.980004     -43.808889     -68.622917      126.01361      110.83747      112.03066     -45208.157      4148.4642      4910.2596      2137.7275    
    866000   297.34629      0.0866         0.0045150834  -45.150834      57.98641       32.462876      126.02521      110.74154      111.88486     -45181.253      4302.6143      4894.1266      2142.6883    
    867000   302.56174      0.0867         0.01463417    -146.3417      -1.2097268      62.546269      126.0368       110.79927      111.86998     -45274.397      4197.6051      4883.8838      2146.2611    
    868000   299.299        0.0868         0.0078956609  -78.956609     -43.781644     -17.164041      126.0484       110.8281       112.00801     -45192.018      4209.7054      4900.7564      2148.5952    
    869000   298.89264      0.0869         0.0048233502  -48.233502      34.373297     -27.427295      126.06         110.76076      112.06019     -45221.227      4280.7624      4885.6029      2150.0545    
    870000   301.3744       0.087          0.011537882   -115.37882     -47.926523     -10.873539      126.0716       110.75731      112.02025     -45181.854      4180.8785      4843.1378      2149.7219    
    871000   300.10835      0.0871         0.005846613   -58.46613       10.928504      72.057907      126.0832       110.66003      111.98555     -45184.326      4237.1253      4807.7226      2147.1826    
    872000   299.19134      0.0872         0.0071410819  -71.410819      31.177036     -22.39724       126.09479      110.61115      112.1193      -45234.834      4318.5509      4823.6436      2146.3017    
    873000   300.0723       0.0873         0.010202068   -102.02068     -17.262281     -86.583218      126.10639      110.65049      112.14562     -45179.674      4203.9304      4871.2865      2147.6648    
    874000   299.24557      0.0874         0.0037382001  -37.382001      37.215433      70.097159      126.11799      110.65998      111.98881     -45160.091      4215.9534      4878.5244      2148.3592    
    875000   299.18064      0.0875         0.0089298601  -89.298601      24.346004     -45.663885      126.12959      110.75112      111.99105     -45157.478      4261.2386      4869.0944      2147.5599    
    876000   300.06469      0.0876         0.011925466   -119.25466      10.582141     -19.067364      126.14119      110.88404      111.90848     -45096.748      4181.8722      4854.647       2146.3003    
    877000   300.84996      0.0877         0.012154685   -121.54685     -10.632412      63.330728      126.15278      111.00189      111.82228     -45131.135      4247.8494      4826.6175      2145.2764    
    878000   301.65254      0.0878         0.01964911    -196.4911      -84.196778     -37.732905      126.16438      111.03067      111.88901     -45148.152      4184.2304      4822.1885      2143.3918    
    879000   300.84399      0.0879         0.0094591071  -94.591071      26.022019     -4.125767       126.17598      110.85884      111.86277     -45195.02       4211.1855      4808.4693      2139.8374    
    880000   300.37064      0.088          0.0058042468  -58.042468      86.728569     -29.588086      126.18758      110.82583      111.82055     -45104.52       4167.8222      4753.8364      2137.4197    
    881000   301.42562      0.0881         0.0091683939  -91.683939     -28.400947     -65.311369      126.19918      110.98453      111.69063     -45180.317      4184.179       4744.2116      2135.5591    
    882000   300.18991      0.0882         0.0005137336  -5.137336       14.621531      57.553837      126.21078      111.04671      111.47894     -45236.052      4210.2008      4777.1455      2131.91      
    883000   298.83522      0.0883         0.0040398471  -40.398471      14.696319     -33.074486      126.22237      111.13202      111.44747     -45150.473      4156.1801      4805.5505      2130.9974    
    884000   298.4656       0.0884         0.0086453038  -86.453038     -5.6249433      26.890395      126.23397      111.21105      111.37371     -45174.291      4221.7244      4848.843       2134.0235    
    885000   297.82452      0.0885         0.0081067891  -81.067891      10.907726      56.859685      126.24557      111.26001      111.39622     -45160.875      4255.5799      4884.9994      2136.8565    
    886000   298.33128      0.0886         0.0069883601  -69.883601     -50.632051     -41.95336       126.25717      111.30786      111.53854     -45035.015      4180.8016      4910.5248      2139.2656    
    887000   298.81395      0.0887         0.0062527884  -62.527884      3.6564633     -2.5085433      126.26877      111.22169      111.54002     -45122.783      4259.7107      4940.5007      2140.0061    
    888000   299.80613      0.0888         0.013588385   -135.88385     -0.808861       9.3679041      126.28036      111.15253      111.52762     -45121.096      4245.5141      4946.0474      2139.9836    
    889000   299.68291      0.0889         0.010758329   -107.58329     -17.611762     -16.995186      126.29196      111.10906      111.54107     -45098.541      4236.5275      4951.7542      2139.813     
    890000   300.37221      0.089          0.0057947848  -57.947848      51.244159      52.94146       126.30356      111.05983      111.54084     -45133.14       4274.1397      4952.3039      2137.523     
    891000   300.30901      0.0891         0.015714641   -157.14641     -73.113712     -106.507        126.31516      111.09054      111.59784     -45225.461      4311.4515      4954.3064      2134.4951    
    892000   302.73899      0.0892         0.0091944615  -91.944615      14.459279      13.309919      126.32676      110.98563      111.4266      -45224.873      4163.667       4969.285       2134.8059    
    893000   299.14123      0.0893        -0.0018686385   18.686385      43.809686      59.283534      126.33835      110.93686      111.32676     -45281.177      4282.9732      4978.9582      2136.4158    
    894000   299.98777      0.0894         0.002507948   -25.07948      -46.730556     -25.188424      126.34995      110.98081      111.38016     -45228.406      4228.0207      4958.6742      2135.3203    
    895000   300.66367      0.0895         0.01065577    -106.5577       6.0834668      22.705162      126.36155      110.92591      111.39814     -45295.702      4283.7628      4967.7782      2134.018     
    896000   300.43466      0.0896         0.008732978   -87.32978       35.991446     -12.250014      126.37315      110.90103      111.44709     -45313.303      4227.4934      4998.7842      2135.28      
    897000   300.69525      0.0897         0.0085819266  -85.819266     -53.519593     -41.457989      126.38475      110.94148      111.43504     -45359.785      4257.3351      5002.7602      2136.6781    
    898000   300.19535      0.0898         0.0097100525  -97.100525     -49.954557      27.123339      126.39635      110.84635      111.34449     -45375.052      4261.8085      4992.3602      2136.5378    
    899000   301.16493      0.0899         0.010807199   -108.07199      43.407178      38.885502      126.40794      110.67307      111.34837     -45321.772      4165.2191      4983.7719      2134.341     
    900000   299.48366      0.09           0.010652047   -106.52047      57.096124      35.977843      126.41954      110.65822      111.45727     -45343.836      4270.3042      4957.4172      2130.4232    
    901000   300.52278      0.0901         0.0063105616  -63.105616     -64.91056      -36.10153       126.43114      110.76573      111.61228     -45306.813      4171.0749      4953.2125      2127.8092    
    902000   298.8179       0.0902         0.0063825787  -63.825787      24.838987     -46.75824       126.44274      110.7161       111.6247      -45227.205      4191.0344      4974.6727      2127.2981    
    903000   298.75356      0.0903         0.008213521   -82.13521       42.644138      8.2306945      126.45434      110.73388      111.51676     -45259.936      4262.2435      4969.7867      2126.4278    
    904000   301.78257      0.0904         0.00800828    -80.0828       -54.707972     -5.4742893      126.46593      110.8289       111.452       -45313.548      4239.1396      4929.8885      2125.11      
    905000   300.86028      0.0905         0.0054399282  -54.399282      18.696919      18.945657      126.47753      110.79131      111.40447     -45276.629      4204.9566      4906.2379      2125.865     
    906000   301.13495      0.0906         0.0072000695  -72.000695     -14.939549      28.581681      126.48913      110.77582      111.42065     -45321.343      4232.24        4873.6096      2125.1401    
    907000   300.42452      0.0907         0.0017019139  -17.019139     -7.2955582     -17.7988        126.50073      110.73915      111.49896     -45245.611      4180.5501      4849.9967      2122.632     
    908000   297.57544      0.0908         0.003717643   -37.17643       50.011968     -27.769046      126.51233      110.71167      111.51011     -45216.329      4242.9829      4872.238       2121.4183    
    909000   301.09259      0.0909         0.0084084553  -84.084553      16.624222     -27.61694       126.52392      110.80556      111.43566     -45234.522      4177.4189      4871.6631      2120.5155    
    910000   298.74275      0.091          0.010058413   -100.58413     -41.238271     -16.498268      126.53552      110.91111      111.31082     -45278.119      4296.5724      4898.6983      2119.5235    
    911000   299.89204      0.0911         0.0019889104  -19.889104      14.927927      20.283692      126.54712      110.90587      111.1921      -45301.391      4235.5122      4933.6807      2119.4976    
    912000   300.24649      0.0912        -0.00030480151  3.0480151     -10.770114      45.883737      126.55872      110.90623      111.16278     -45263.881      4227.0277      4913.171       2118.7416    
    913000   299.864        0.0913         0.012853272   -128.53272      16.23363      -9.2557475      126.57032      110.89843      111.25501     -45216.074      4208.4761      4907.6418      2117.8608    
    914000   297.0554       0.0914         0.0064617747  -64.617747      34.65108       2.5074778      126.58192      110.94482      111.31795     -45125.982      4267.2808      4905.829       2116.0685    
    915000   300.04842      0.0915        -0.0025408669   25.408669     -23.464593     -18.788348      126.59351      111.04539      111.35511     -45074.428      4207.5888      4889.402       2112.4611    
    916000   299.20596      0.0916         0.015393797   -153.93797     -15.175765     -16.60888       126.60511      111.06775      111.33499     -45133.586      4341.2596      4898.7009      2110.7024    
    917000   301.68559      0.0917         0.012040261   -120.40261     -9.5311144      0.41656373     126.61671      111.04112      111.2781      -45150.976      4172.1891      4901.5996      2111.2632    
    918000   301.25763      0.0918        -0.0023351224   23.351224     -8.6731766     -8.870349       126.62831      110.98397      111.22149     -45185.021      4254.7229      4871.2917      2111.7717    
    919000   299.84637      0.0919         0.0024237127  -24.237127     -6.9308833      23.934546      126.63991      110.92255      111.16818     -45213.325      4278.0785      4850.9801      2112.4602    
    920000   301.92832      0.092          0.0080260252  -80.260252      26.371719      34.367683      126.6515       110.88441      111.20845     -45189.726      4159.354       4856.9758      2113.5823    
    921000   299.19891      0.0921         0.0054284958  -54.284958      9.4316137     -43.521067      126.6631       110.90735      111.29228     -45209.182      4272.0937      4855.1618      2110.9013    
    922000   299.70944      0.0922         0.0080615194  -80.615194     -49.492991      12.076087      126.6747       110.94231      111.27206     -45199.382      4211.2812      4880.1701      2108.2634    
    923000   300.32134      0.0923         0.0060995726  -60.995726     -5.5092518      54.074029      126.6863       110.85983      111.30117     -45177.767      4179.4275      4911.4712      2107.165     
    924000   298.96541      0.0924         0.0092919093  -92.919093     -22.771021     -63.562606      126.6979       110.75541      111.41353     -45256.968      4267.6056      4933.184       2104.7036    
    925000   302.25461      0.0925         0.0091743925  -91.743925     -13.655486     -39.25636       126.70949      110.63461      111.35191     -45344.879      4209.6657      4945.6435      2102.557     
    926000   299.76589      0.0926         0.0036430206  -36.430206      32.813622      49.506971      126.72109      110.52708      111.22951     -45347.3        4242.0564      4969.7759      2102.773     
    927000   300.89598      0.0927         0.0079324319  -79.324319      33.148876     -10.116942      126.73269      110.5291       111.23795     -45371.636      4168.6706      4986.229       2103.2872    
    928000   300.65745      0.0928         0.010369271   -103.69271     -23.291295      1.0076193      126.74429      110.60465      111.232       -45444.633      4222.0575      5018.3769      2102.7818    
    929000   299.59496      0.0929         0.0086157454  -86.157454     -10.132735      24.134143      126.75589      110.62533      111.25321     -45424.719      4198.8097      5045.4498      2104.569     
    930000   299.49872      0.093          0.0095624971  -95.624971      20.423705     -59.067857      126.76749      110.60493      111.29587     -45360.166      4176.1262      5029.8243      2109.1903    
    931000   297.99375      0.0931         0.009531829   -95.31829       39.027124     -1.3735778      126.77908      110.64686      111.19477     -45314.744      4236.3221      5018.4439      2111.4408    
    932000   301.11909      0.0932         0.012487133   -124.87133      6.8611202      52.709812      126.79068      110.78588      111.14108     -45344.247      4216.848       4989.7286      2112.4211    
    933000   299.2082       0.0933         0.0080568866  -80.568866     -44.103521     -50.172725      126.80228      110.88177      111.19738     -45257.502      4204.8462      4971.2088      2114.3195    
    934000   299.66185      0.0934         0.0065373483  -65.373483      6.3917081      22.325115      126.81388      110.85213      111.14132     -45255.723      4243.2356      4943.2611      2115.4689    
    935000   299.13225      0.0935         0.0078191738  -78.191738     -6.178953       31.722705      126.82548      110.83965      111.15408     -45181.515      4262.1405      4885.9776      2116.0212    
    936000   300.15387      0.0936         0.0017873465  -17.873465     -35.58729       6.4801059      126.83707      110.81069      111.24555     -45123.108      4196.8725      4875.65        2117.4954    
    937000   299.90515      0.0937         0.0020572127  -20.572127      27.95729       42.765843      126.84867      110.7189       111.34474     -45155.679      4231.9078      4906.9119      2118.4696    
    938000   298.39161      0.0938         0.010397472   -103.97472     -26.326237     -35.619934      126.86027      110.69888      111.49627     -45110.885      4234.5346      4922.967       2119.5439    
    939000   298.3977       0.0939         0.0037322613  -37.322613      3.1295591      16.9704        126.87187      110.64514      111.55024     -45024.311      4203.0007      4948.0517      2121.3194    
    940000   301.37289      0.094          0.0022706679  -22.706679      21.992343     -36.288295      126.88347      110.61067      111.59928     -45155.117      4230.5398      4968.9575      2121.0288    
    941000   300.74271      0.0941         0.0057096349  -57.096349     -28.998556     -46.55365       126.89506      110.62267      111.53566     -45116.947      4202.7458      4933.9852      2121.2193    
    942000   300.52969      0.0942         0.0041869209  -41.869209      11.750797      25.044525      126.90666      110.58302      111.38764     -45148.208      4233.8312      4900.7717      2125.0181    
    943000   300.73675      0.0943         0.003027473   -30.27473       10.390434      24.758207      126.91826      110.57367      111.33562     -45150.575      4161.7789      4925.1587      2128.1875    
    944000   301.34541      0.0944         0.0041395638  -41.395638     -1.8667367      22.212692      126.92986      110.59366      111.36941     -45207.529      4187.4839      4908.1181      2129.9292    
    945000   300.09973      0.0945         0.008803115   -88.03115      -20.53678      -35.670288      126.94146      110.60174      111.4371      -45230.595      4179.6385      4928.94        2134.5705    
    946000   300.43384      0.0946         0.010980507   -109.80507     -37.613569     -14.536676      126.95306      110.53948      111.39272     -45274.504      4133.2282      4985.1332      2138.2967    
    947000   298.08228      0.0947         0.0077708528  -77.708528      34.676385      66.080176      126.96465      110.42013      111.34655     -45237.199      4179.5882      5003.5488      2139.6338    
    948000   297.91174      0.0948         0.007302246   -73.02246       48.384532     -40.42444       126.97625      110.43055      111.44006     -45179.078      4183.0814      5016.6033      2139.8866    
    949000   297.65243      0.0949         0.0058835418  -58.835418      0.39991306     27.322607      126.98785      110.54434      111.44741     -45094.798      4187.7914      5019.4437      2141.0745    
    950000   299.89441      0.095          0.0018997887  -18.997887     -36.042794     -6.0791421      126.99945      110.61862      111.48904     -45047.487      4122.7997      5001.6044      2141.1012    
    951000   300.27217      0.0951         0.0023711544  -23.711544      3.5602262     -45.572443      127.01105      110.59255      111.49401     -45097.596      4245.0124      4952.5421      2139.2885    
    952000   300.13544      0.0952         0.0014223993  -14.223993      6.0470677      35.501091      127.02264      110.57304      111.40714     -45028.638      4188.1182      4891.4128      2139.6983    
    953000   302.59516      0.0953         0.0068323986  -68.323986     -19.957802      23.866432      127.03424      110.56635      111.41934     -45074.579      4169.1715      4848.176       2139.5101    
    954000   300.97066      0.0954         0.0034301589  -34.301589      14.722889     -5.02321        127.04584      110.52437      111.48885     -45109.802      4225.7511      4797.7204      2139.9057    
    955000   300.33272      0.0955         0.003783362   -37.83362       4.5221741      13.837989      127.05744      110.53265      111.54034     -44990.572      4112.6599      4781.1219      2143.2179    
    956000   299.23883      0.0956         0.0047396941  -47.396941     -35.44857      -32.286272      127.06904      110.52442      111.57929     -45013.577      4186.8698      4795.1719      2143.4706    
    957000   299.98365      0.0957         0.0026209854  -26.209854      28.181623     -0.61023702     127.08063      110.4608       111.5462      -45101.682      4203.2813      4826.2654      2140.5871    
    958000   301.02915      0.0958         0.0087816727  -87.816727     -5.2687955     -6.5498126      127.09223      110.46985      111.50441     -45062.034      4102.576       4851.6167      2140.4473    
    959000   298.76166      0.0959         0.011843423   -118.43423      17.080276      17.043158      127.10383      110.47152      111.4614      -45124.411      4262.6464      4833.8562      2143.3947    
    960000   302.01105      0.096          0.0051003864  -51.003864     -20.199282     -36.284084      127.11543      110.51073      111.45951     -45172.21       4146.4579      4843.1372      2146.3609    
    961000   298.89036      0.0961         0.0014015563  -14.015563     -41.749388      16.085113      127.12703      110.48082      111.38641     -45106.712      4174.0816      4871.5332      2148.6212    
    962000   299.20186      0.0962         0.00016951332 -1.6951332      54.784267      49.874382      127.13863      110.38116      111.3758      -45098.075      4199.268       4859.1314      2149.2187    
    963000   301.10803      0.0963         0.0089637774  -89.637774     -31.053315     -26.265883      127.15022      110.42087      111.48683     -45198.535      4200.5194      4895.4778      2148.3576    
    964000   299.01371      0.0964         0.0073102691  -73.102691     -30.260728      6.5704788      127.16182      110.38873      111.51943     -45169.679      4197.7049      4944.6901      2148.9619    
    965000   300.50211      0.0965         0.0067856665  -67.856665      24.601839     -5.0570405      127.17342      110.28647      111.53522     -45212.038      4179.6186      4932.505       2150.4174    
    966000   300.03915      0.0966         0.011573848   -115.73848     -10.535978     -51.931148      127.18502      110.25904      111.52526     -45183.684      4181.958       4938.6027      2150.7191    
    967000   299.12544      0.0967         0.004705386   -47.05386       33.551502     -6.273602       127.19662      110.2477       111.40329     -45224.866      4240.8653      4941.5311      2149.3449    
    968000   303.4465       0.0968         0.0049477611  -49.477611      27.315253      5.7241203      127.20821      110.31689      111.29313     -45294.865      4175.7303      4906.7867      2145.7888    
    969000   299.2798       0.0969         0.014614428   -146.14428     -7.0356218     -25.636159      127.21981      110.42568      111.20677     -45224.94       4214.6562      4881.5201      2142.8008    
    970000   301.33892      0.097          0.010981314   -109.81314      1.2536183      71.958553      127.23141      110.50218      111.1275      -45283.57       4179.8706      4861.6403      2142.3475    
    971000   299.4206       0.0971         0.0080182824  -80.182824     -21.783185      23.928071      127.24301      110.55108      111.23626     -45182.737      4187.1623      4854.7369      2143.5292    
    972000   299.55466      0.0972         0.0064574332  -64.574332     -33.10262      -53.644418      127.25461      110.5111       111.35474     -45188.614      4206.9971      4843.3553      2144.7538    
    973000   299.88497      0.0973         0.0034578163  -34.578163      15.093211      21.394544      127.2662       110.42123      111.33839     -45168.692      4180.0969      4847.4989      2145.5816    
    974000   298.46674      0.0974         0.0034473002  -34.473002      19.193911     -51.635184      127.2778       110.38652      111.34052     -45155.699      4208.2162      4872.4411      2145.911     
    975000   302.78302      0.0975         0.00036664801 -3.6664801      29.22673      -54.676332      127.2894       110.40879      111.19854     -45292.246      4170.0801      4883.3415      2145.4714    
    976000   299.56847      0.0976         0.0080718038  -80.718038      17.496721      29.604163      127.301        110.51137      110.98802     -45274.286      4188.818       4896.2534      2146.9938    
    977000   299.51474      0.0977         0.010969288   -109.69288      26.78633       11.738911      127.3126       110.635        110.9077      -45174.509      4096.1732      4906.8362      2148.6194    
    978000   300.98391      0.0978         0.0069343975  -69.343975     -21.256079      32.33777       127.3242       110.75922      110.89217     -45296.976      4214.5636      4893.5766      2148.2529    
    979000   299.98815      0.0979         0.012380897   -123.80897     -51.19639      -45.630875      127.33579      110.79085      110.95093     -45308.568      4194.0919      4896.6471      2147.8772    
    980000   300.0394       0.098          0.0089213023  -89.213023      8.3440945     -2.4537312      127.34739      110.69235      110.89202     -45194.531      4093.7471      4909.9885      2148.0578    
    981000   297.73331      0.0981         0.0062389945  -62.389945      37.950071      48.821114      127.35899      110.63892      110.84985     -45226.824      4245.6542      4903.8554      2147.2351    
    982000   301.82747      0.0982         0.014804432   -148.04432     -17.330482     -62.752187      127.37059      110.6896       110.9101      -45284.322      4153.4429      4921.1057      2146.9959    
    983000   299.26684      0.0983         0.01049229    -104.9229      -10.174494      51.303459      127.38219      110.69862      110.84284     -45224.025      4165.8762      4930.9995      2148.1954    
    984000   299.71556      0.0984         0.006263213   -62.63213      -21.45013       45.836961      127.39378      110.65596      110.9136      -45178.668      4150.3065      4895.6419      2148.9946    
    985000   300.89881      0.0985         0.015428959   -154.28959     -18.162443     -39.560125      127.40538      110.56771      111.05496     -45231.733      4174.896       4856.8624      2148.8139    
    986000   300.91314      0.0986         0.015031011   -150.31011      0.53301355     72.188725      127.41698      110.47102      111.11255     -45183.224      4110.2232      4854.3431      2148.4254    
    987000   298.49956      0.0987         0.010007059   -100.07059     -8.9578749     -48.336311      127.42858      110.38541      111.26776     -45167.275      4163.4271      4880.1884      2146.9929    
    988000   298.05843      0.0988         0.0066125346  -66.125346      47.68399       12.01834       127.44018      110.33635      111.2906      -45095.091      4148.9483      4881.3407      2145.4191    
    989000   298.33589      0.0989         0.011572017   -115.72017     -50.691883      25.179404      127.45177      110.38878      111.34044     -45036.58       4143.092       4915.8417      2146.1904    
    990000   299.1178       0.099          0.0094560628  -94.560628      10.356004     -26.98274       127.46337      110.3187       111.4185      -45061.149      4147.8569      4951.362       2146.6897    
    991000   300.47189      0.0991         0.0096091867  -96.091867      29.200555     -56.997548      127.47497      110.28801      111.39413     -45160.425      4189.1721      4971.5865      2147.957     
    992000   300.45248      0.0992         0.014174762   -141.74762     -42.640011     -6.4667773      127.48657      110.32711      111.23925     -45163.424      4169.8451      4980.0094      2150.5597    
    993000   301.91925      0.0993         0.011590208   -115.90208      28.213045      75.258403      127.49817      110.27719      111.14164     -45161.698      4085.0789      4951.3505      2151.5984    
    994000   300.46274      0.0994         0.0081364662  -81.364662     -3.8376616     -52.348866      127.50977      110.28207      111.21069     -45228.517      4203.6243      4914.7176      2149.8745    
    995000   299.27275      0.0995         0.0080805927  -80.805927      23.117209      14.149653      127.52136      110.30835      111.17356     -45157.111      4143.2882      4910.1569      2147.3807    
    996000   301.5587       0.0996         0.0065286607  -65.286607     -33.417361      60.618493      127.53296      110.35843      111.18932     -45117.302      4097.6421      4887.2731      2145.7446    
    997000   298.76714      0.0997         0.0084015898  -84.015898     -41.896178     -84.852944      127.54456      110.30363      111.30185     -45191.2        4238.3928      4868.809       2142.8455    
    998000   302.23562      0.0998         0.010245436   -102.45436      46.212288     -12.692491      127.55616      110.19241      111.20985     -45223.574      4107.4222      4894.3625      2137.6322    
    999000   298.86671      0.0999         0.0051203759  -51.203759     -14.437264      64.586241      127.56776      110.19409      111.11804     -45140.658      4122.4858      4930.2105      2134.9233    
   1000000   299.26449      0.1            0.0022622556  -22.622556      17.463583     -18.823378      127.57935      110.17884      111.1865      -45199.193      4146.2587      4943.9608      2133.7424    
Loop time of 466.055 on 16 procs for 1000000 steps with 12350 atoms

Performance: 18.539 ns/day, 1.295 hours/ns, 2145.671 timesteps/s, 26.499 Matom-step/s
97.8% CPU use with 16 MPI tasks x no OpenMP threads

MPI task timing breakdown:
Section |  min time  |  avg time  |  max time  |%varavg| %total
---------------------------------------------------------------
Pair    | 183.25     | 188.06     | 192.55     |  19.8 | 40.35
Bond    | 71.185     | 72.262     | 72.999     |   5.4 | 15.51
Neigh   | 2.2027     | 2.2086     | 2.215      |   0.2 |  0.47
Comm    | 123.62     | 128.58     | 134        |  24.6 | 27.59
Output  | 0.56723    | 0.62804    | 0.71313    |   5.0 |  0.13
Modify  | 61.532     | 62.923     | 63.751     |   9.4 | 13.50
Other   |            | 11.4       |            |       |  2.45

Nlocal:        771.875 ave         787 max         759 min
Histogram: 2 2 1 1 3 2 1 1 2 1
Nghost:        2324.69 ave        2357 max        2298 min
Histogram: 1 3 1 3 1 1 3 1 1 1
Neighs:        25924.3 ave       26694 max       24897 min
Histogram: 2 0 1 2 3 0 1 1 3 3

Total # of neighbors = 414789
Ave neighs/atom = 33.586154
Ave special neighs/atom = 5.76
Neighbor list builds = 1843
Dangerous builds = 0
unfix               1
unfix               2
Total wall time: 0:11:44
