units               real
dimension           3
boundary            p p p
atom_style          full

# 读取包含PDMS分子结构的data文件
read_data           bad_pdms_50_box_nvt.data
Reading data file ...
  orthogonal box = (-2.699997 -2.594002 -2.75) to (181.7 181.956 181.75)
  2 by 4 by 2 MPI processor grid
  reading atoms ...
  12350 atoms
  scanning bonds ...
  1 = max bonds/atom
  scanning angles ...
  1 = max angles/atom
  scanning dihedrals ...
  1 = max dihedrals/atom
  orthogonal box = (-2.699997 -2.594002 -2.75) to (181.7 181.956 181.75)
  2 by 4 by 2 MPI processor grid
  reading bonds ...
  12103 bonds
  reading angles ...
  11856 angles
  reading dihedrals ...
  11609 dihedrals
Finding 1-2 1-3 1-4 neighbors ...
  special bond factors lj:    0        0        0       
  special bond factors coul:  0        0        0       
     2 = max # of 1-2 neighbors
     2 = max # of 1-3 neighbors
     4 = max # of 1-4 neighbors
     6 = max # of special neighbors
  special bonds CPU = 0.002 seconds
  read_data CPU = 0.111 seconds
mass                1 72
# -----------------------------------------------------
# 2. 力场参数设置（Martini 3参数）
# -----------------------------------------------------
# 定义非键相互作用（示例：Lennard-Jones势，截断距离可参考Martini 3常用取值）
pair_style lj/cut   12.0
special_bonds       lj 0.0 0.0 0.5
Finding 1-2 1-3 1-4 neighbors ...
  special bond factors lj:    0        0        0.5     
  special bond factors coul:  0        0        0       
     2 = max # of 1-2 neighbors
     2 = max # of 1-3 neighbors
     4 = max # of 1-4 neighbors
     6 = max # of special neighbors
  special bonds CPU = 0.001 seconds
pair_coeff          1 1 0.7337 5.1
# 定义键、角、二面角势（示例参数，实际参数请参考相关文献）
bond_style          harmonic
bond_coeff          1 13.243 4.48
angle_style         harmonic
angle_coeff         1 5.48 86.0
dihedral_style      harmonic
dihedral_coeff      1 0.3346  1  1
# -----------------------------------------------------
# 3. 邻域列表设置
# -----------------------------------------------------
neigh_modify        one 1000
neighbor            1 bin
neigh_modify        delay 0 every 1 check yes

# -----------------------------------------------------
# 4. 能量最小化与预平衡
# -----------------------------------------------------
minimize            1.0e-4 1.0e-6 10000 100000

CITE-CITE-CITE-CITE-CITE-CITE-CITE-CITE-CITE-CITE-CITE-CITE-CITE

Your simulation uses code contributions which should be cited:

- Type Label Framework: https://doi.org/10.1021/acs.jpcb.3c08419

@Article{Gissinger24,
 author = {Jacob R. Gissinger, Ilia Nikiforov, Yaser Afshar, Brendon Waters, Moon-ki Choi, Daniel S. Karls, Alexander Stukowski, Wonpil Im, Hendrik Heinz, Axel Kohlmeyer, and Ellad B. Tadmor},
 title = {Type Label Framework for Bonded Force Fields in LAMMPS},
 journal = {J. Phys. Chem. B},
 year =    2024,
 volume =  128,
 number =  13,
 pages =   {3282–-3297}
}

CITE-CITE-CITE-CITE-CITE-CITE-CITE-CITE-CITE-CITE-CITE-CITE-CITE

Generated 0 of 0 mixed pair_coeff terms from geometric mixing rule
Neighbor list info ...
  update: every = 1 steps, delay = 0 steps, check = yes
  max neighbors/atom: 1000, page size: 100000
  master list distance cutoff = 13
  ghost atom cutoff = 13
  binsize = 6.5, bins = 29 29 29
  1 neighbor lists, perpetual/occasional/extra = 1 0 0
  (1) pair lj/cut, perpetual
      attributes: half, newton on
      pair build: half/bin/newton
      stencil: half/bin/3d
      bin: standard
Per MPI rank memory allocation (min/avg/max) = 8.28 | 8.366 | 8.79 Mbytes
   Step          Temp          E_pair         E_mol          TotEng         Press     
         0   0              12362163       8080.9318      12370244       547701.99    
       864   0             -33201.439      4728.3822     -28473.057     -88.004302    
Loop time of 0.511545 on 16 procs for 864 steps with 12350 atoms

96.2% CPU use with 16 MPI tasks x no OpenMP threads

Minimization stats:
  Stopping criterion = energy tolerance
  Energy initial, next-to-last, final = 
      12370244.3955073   -28470.390358934  -28473.0572160329
  Force two-norm initial, final = 2189056.9 11.10734
  Force max component initial, final = 115970.56 3.7283548
  Final line search alpha, max atom move = 0.030740086 0.11460995
  Iterations, force evaluations = 864 886

MPI task timing breakdown:
Section |  min time  |  avg time  |  max time  |%varavg| %total
---------------------------------------------------------------
Pair    | 0.028304   | 0.11345    | 0.21437    |  18.8 | 22.18
Bond    | 0.015031   | 0.045953   | 0.077977   |   9.3 |  8.98
Neigh   | 0.11259    | 0.11499    | 0.11693    |   0.4 | 22.48
Comm    | 0.070872   | 0.18607    | 0.3031     |  17.7 | 36.37
Output  | 0          | 0          | 0          |   0.0 |  0.00
Modify  | 0          | 0          | 0          |   0.0 |  0.00
Other   |            | 0.05107    |            |       |  9.98

Nlocal:        771.875 ave        1385 max         252 min
Histogram: 2 2 2 1 2 1 3 1 1 1
Nghost:        1045.06 ave        1694 max         531 min
Histogram: 2 5 1 0 0 1 1 3 2 1
Neighs:        15575.7 ave       32627 max        4696 min
Histogram: 4 2 2 1 0 2 2 2 0 1

Total # of neighbors = 249211
Ave neighs/atom = 20.179028
Ave special neighs/atom = 5.76
Neighbor list builds = 114
Dangerous builds = 0
velocity            all create 300 4928459
region              slab block 75 105 75 105 75 105 units box
group               slabs dynamic all region slab every 100
dynamic group slabs defined
variable            nslab equal count(slabs)
variable            step equal step
variable            pxx  equal pxx
variable            pyy  equal pyy
variable            pzz  equal pzz
variable            etotal equal etotal
compute             pressperatom all stress/atom NULL
compute             Ppairperatom all stress/atom NULL pair
compute             Pbondperatom all stress/atom NULL bond
compute             Pangleperatom all stress/atom NULL angle
compute             Pdihedralperatom all stress/atom NULL dihedral
compute             peperatom all pe/atom
compute             Epairperatom all pe/atom pair
compute             Ebondperatom all pe/atom bond
compute             Eangleperatom all pe/atom angle
compute             Edihedralperatom all pe/atom dihedral
variable            pxxperatom atom c_pressperatom[1]
variable            pyyperatom atom c_pressperatom[2]
variable            pzzperatom atom c_pressperatom[3]
variable            Pxxpairperatom atom c_Ppairperatom[1]
variable            Pyypairperatom atom c_Ppairperatom[2]
variable            Pzzpairperatom atom c_Ppairperatom[3]
variable            Pxxbondperatom atom c_Pbondperatom[1]
variable            Pyybondperatom atom c_Pbondperatom[2]
variable            Pzzbondperatom atom c_Pbondperatom[3]
variable            Pxxangleperatom atom c_Pangleperatom[1]
variable            Pyyangleperatom atom c_Pangleperatom[2]
variable            Pzzangleperatom atom c_Pangleperatom[3]
variable            Pxxdihedralperatom atom c_Pdihedralperatom[1]
variable            Pyydihedralperatom atom c_Pdihedralperatom[2]
variable            Pzzdihedralperatom atom c_Pdihedralperatom[3]
variable            NA equal 6.02214076e23
variable            dens equal "12350 * 72 / v_NA / (vol / 1e24)"  # 计算整体密度，单位g/cm3
variable            slabdens equal "v_nslab * 72 / v_NA / (30 * 30 * 30 / 1e24)"  # 计算slab密度，单位g/cm3
# npt系综下驰豫
dump                min all custom 10000 dump.pdms_min.lammpstrj id type x y z vx vy vz v_pxxperatom v_pyyperatom v_pzzperatom v_Pxxpairperatom v_Pyypairperatom v_Pzzpairperatom v_Pxxbondperatom v_Pyybondperatom v_Pzzbondperatom v_Pxxangleperatom v_Pyyangleperatom v_Pzzangleperatom v_Pxxdihedralperatom v_Pyydihedralperatom v_Pzzdihedralperatom c_peperatom c_Epairperatom c_Ebondperatom c_Eangleperatom c_Edihedralperatom
fix                 minp all print 1 "${step} ${pxx} ${pyy} ${pzz}" file minp100.txt screen no
fix                 1 all npt temp 300 600 10 iso 0 0 500 drag 2
thermo_style        custom step temp density press etotal pxx pyy pzz lx ly lz
thermo              10000
run                 500000
Generated 0 of 0 mixed pair_coeff terms from geometric mixing rule
Per MPI rank memory allocation (min/avg/max) = 10.66 | 10.77 | 11.17 Mbytes
   Step          Temp         Density         Press          TotEng          Pxx            Pyy            Pzz             Lx             Ly             Lz      
       864   300            0.23516744    -7.6056313     -17430.05      -8.9861015     -3.5045957     -10.326197      184.39999      184.55         184.5        
     10000   305.7396       0.35037738    -3.5874685     -13142.758     -7.2991057      9.6924861     -13.155786      161.4512       161.58254      161.53876    
     20000   311.23588      0.39126709     1.4839699     -15660.336      5.2029066     -0.61111063    -0.13988618     155.61885      155.74544      155.70324    
     30000   317.54155      0.39889251    -5.5079028     -16290.211     -11.017159      0.41177809    -5.918328       154.62083      154.74661      154.70469    
     40000   322.9371       0.39338913    -2.515718      -16224.894      10.797809     -16.438455     -1.9065086      155.33853      155.46489      155.42277    
     50000   328.19668      0.39004699    -2.0648467     -15860.894     -2.9533867     -16.408474      13.16732       155.78094      155.90767      155.86542    
     60000   335.12749      0.38517453     0.57717212    -15074.372      9.2571006     -2.3494658     -5.1761185      156.43507      156.56233      156.51991    
     70000   341.31465      0.38554595    -2.095874      -14795.836      2.0180586     -6.690375      -1.6153056      156.38482      156.51203      156.46963    
     80000   347.15153      0.3862757      0.1677027     -14425.4        4.0460654     -13.654944      10.111987      156.28627      156.41341      156.37103    
     90000   352.90917      0.38722757     3.6429448     -13855.775      21.802316     -1.6766807     -9.1968008      156.15811      156.28514      156.2428     
    100000   358.38137      0.3899553     -0.0043322803  -13444.205      31.854332     -23.683035     -8.184294       155.79315      155.91989      155.87764    
    110000   364.13385      0.39605997     1.4322457     -12613.96       8.8761176     -0.9111737     -3.6682066      154.98856      155.11464      155.07262    
    120000   372.96707      0.40663838    -5.0997042     -12252.841      4.7984771      8.0223706     -28.11996       153.63276      153.75774      153.71608    
    130000   378.37426      0.42345082     2.4484646     -11584.061      2.3407163     -4.1114069      9.1160845      151.572        151.6953       151.6542     
    140000   383.08036      0.44623931    -1.2432956     -11301.119     -24.54092       1.0531217      19.757912      148.94663      149.0678       149.02741    
    150000   389.44543      0.47500674    -1.9166412     -10631.528     -32.45262       31.442573     -4.7398771      145.87696      145.99563      145.95607    
    160000   396.09563      0.52762632    -9.4953289     -10708.928     -1.7636059     -28.930299      2.2079186      140.8568       140.97138      140.93319    
    170000   402.19837      0.57972498    -9.3952174     -10181.29      -3.8102344     -8.2184609     -16.156957      136.50418      136.61523      136.57821    
    180000   407.19168      0.62937279     3.2672616     -9937.4707      16.956391     -30.23356       23.078954      132.81608      132.92412      132.88811    
    190000   411.90054      0.68784512     0.088475874   -9795.7701     -56.682745      48.77319       8.1749832      128.94062      129.04551      129.01055    
    200000   418.62762      0.72689315     3.6674109     -9776.0939     -35.46987       21.516618      24.955485      126.58914      126.69212      126.65779    
    210000   425.84832      0.74961791    -3.9941273     -9543.4884      0.098999006    40.060272     -52.141653      125.2968       125.39873      125.36475    
    220000   432.58535      0.76550481    -10.246638     -8845.7599     -23.650763     -13.696543      6.6073915      124.42395      124.52517      124.49143    
    230000   436.40986      0.77942124     1.249373      -8503.0937      25.820857      39.48167      -61.554408      123.67898      123.77959      123.74605    
    240000   442.58957      0.80230936     1.6966494     -8148.5173     -72.266066      53.995328      23.360686      122.49152      122.59116      122.55795    
    250000   450.23824      0.82072112    -5.2448945     -8075.3648      8.0349778      18.256903     -42.026564      121.5686       121.6675       121.63453    
    260000   454.68393      0.83269218     6.5731973     -7503.6738      30.474237      1.983259      -12.737904      120.98322      121.08164      121.04883    
    270000   462.64588      0.83259335    -12.345033     -6733.1678      5.446867      -47.727094      5.2451298      120.98801      121.08643      121.05362    
    280000   465.35198      0.84288355     8.3778555     -6839.9645     -7.5994834      68.483757     -35.750707      120.49363      120.59166      120.55898    
    290000   473.64816      0.84142582    -6.6497962     -5877.3435     -20.960361     -42.815184      43.826156      120.56318      120.66126      120.62856    
    300000   478.47003      0.84606781    -5.492073      -5491.2722      10.877147      13.535425     -40.888791      120.34228      120.44018      120.40755    
    310000   486.70683      0.8488617     -11.772669     -4979.937       67.462485     -57.80402      -44.976472      120.21011      120.3079       120.2753     
    320000   492.86026      0.85077933     8.8370454     -4661.3158      0.56394193     68.533071     -42.585877      120.11972      120.21744      120.18487    
    330000   496.68028      0.84361052    -3.8288217     -4022.1203     -5.5392273      21.879586     -27.826824      120.45901      120.55701      120.52434    
    340000   502.12597      0.84119778     8.3770521     -3157.6914      7.8495103     -14.019818      31.301464      120.57407      120.67216      120.63946    
    350000   510.50006      0.84732428    -1.7231078     -2921.2718     -13.505088      0.17632054     8.1594445      120.28277      120.38062      120.348      
    360000   515.39085      0.84090153    -16.342671     -2259.3657     -47.751157      38.474327     -39.751183      120.58823      120.68633      120.65363    
    370000   522.67883      0.8385578      2.5268321     -1619.2354      4.8972091     -11.462665      14.145952      120.70047      120.79866      120.76593    
    380000   528.91681      0.83898034    -4.2151973     -1199.7375      22.840437     -33.637802     -1.8482269      120.6802       120.77838      120.74565    
    390000   531.73235      0.83392331     7.4692012     -877.1674       37.6349        2.4690447     -17.696341      120.92365      121.02202      120.98923    
    400000   538.60537      0.82815496    -0.95353076    -79.012543      6.6576941     -1.7973322     -7.7209541      121.20376      121.30236      121.26949    
    410000   545.8734       0.82706735    -4.0439866      574.11766      21.105693      12.470683     -45.708335      121.25687      121.35551      121.32263    
    420000   552.66725      0.82339329    -22.082691      1185.1446      29.603346     -36.387275     -59.464143      121.43695      121.53574      121.50281    
    430000   557.94481      0.82194684     4.363321       1825.7012     -18.288186     -8.4404257      39.818575      121.50814      121.60699      121.57404    
    440000   564.47631      0.81601335     0.851313       2418.4621      17.605242     -35.570564      20.519261      121.80194      121.90103      121.868      
    450000   566.95937      0.81156624     10.054186      3122.4764     -28.926914      44.802572      14.286901      122.02401      122.12328      122.09019    
    460000   576.70857      0.81185921    -15.999558      3325.7121     -40.283875     -13.707506      5.9927078      122.00933      122.10859      122.0755     
    470000   580.14997      0.80377115     0.8285937      4276.9996      4.439817      -44.463069      42.509033      122.41721      122.5168       122.4836     
    480000   587.93288      0.80496733    -10.253175      4503.2846     -37.235125      17.317221     -10.84162       122.35655      122.45608      122.4229     
    490000   593.19797      0.79925551    -4.3885623      5190.7121      69.475324     -22.490229     -60.150782      122.64733      122.7471       122.71384    
    500000   601.13323      0.79846366    -5.9673347      5641.4855      5.696282       5.9091755     -29.507462      122.68786      122.78766      122.75439    
    500864   600.59651      0.79545652    -7.9650835      5475.1213     -18.167238     -29.443899      23.715887      122.84226      122.9422       122.90889    
Loop time of 235.466 on 16 procs for 500000 steps with 12350 atoms

Performance: 183.466 ns/day, 0.131 hours/ns, 2123.450 timesteps/s, 26.225 Matom-step/s
96.9% CPU use with 16 MPI tasks x no OpenMP threads

MPI task timing breakdown:
Section |  min time  |  avg time  |  max time  |%varavg| %total
---------------------------------------------------------------
Pair    | 50.299     | 75.342     | 97.457     | 180.3 | 32.00
Bond    | 23.35      | 33.862     | 42.495     | 103.7 | 14.38
Neigh   | 12.37      | 12.397     | 12.434     |   0.6 |  5.26
Comm    | 41.635     | 68.617     | 103.15     | 231.2 | 29.14
Output  | 0.3452     | 0.43357    | 0.52208    |   8.3 |  0.18
Modify  | 37.258     | 40.045     | 44.802     |  45.5 | 17.01
Other   |            | 4.768      |            |       |  2.03

Nlocal:        771.875 ave         790 max         752 min
Histogram: 3 1 0 1 2 2 1 2 2 2
Nghost:        2116.06 ave        2172 max        2076 min
Histogram: 2 0 4 2 2 2 2 1 0 1
Neighs:        21765.3 ave       22792 max       20859 min
Histogram: 2 1 2 2 1 3 1 2 1 1

Total # of neighbors = 348245
Ave neighs/atom = 28.197976
Ave special neighs/atom = 5.76
Neighbor list builds = 11097
Dangerous builds = 0
unfix               1

fix                 2 all npt temp 600 300 10 iso 0 0 500 drag 2
thermo_style        custom step temp density press etotal pxx pyy pzz lx ly lz
thermo              10000
run                 500000
Generated 0 of 0 mixed pair_coeff terms from geometric mixing rule
Per MPI rank memory allocation (min/avg/max) = 18.47 | 18.63 | 18.95 Mbytes
   Step          Temp         Density         Press          TotEng          Pxx            Pyy            Pzz             Lx             Ly             Lz      
    500864   600.59651      0.79545652    -7.9650835      5475.1213     -18.167238     -29.443899      23.715887      122.84226      122.9422       122.90889    
    510000   594.38183      0.80170894    -3.2135668      5231.3895     -57.233434      66.159485     -18.566752      122.52209      122.62176      122.58854    
    520000   587.66636      0.80029599    -22.816796      4761.5881     -46.629917     -13.275768     -8.5447033      122.59415      122.69388      122.66064    
    530000   582.836        0.80673331    -16.986775      4249.9488     -64.407851      17.481945     -4.0344207      122.2672       122.36666      122.33351    
    540000   575.86346      0.81119389    -5.4429397      3714.1204     -39.169511      74.532037     -51.691345      122.04268      122.14196      122.10887    
    550000   571.63128      0.81170543     6.8062947      3262.4559     -15.335293     -8.0909319      43.845109      122.01704      122.1163       122.08321    
    560000   564.22616      0.82216063     1.981021       2033.8557      31.603753     -42.229719      16.56903       121.49761      121.59645      121.5635     
    570000   559.97064      0.81856638     12.744447      2133.1303      22.348094     -43.569421      59.454669      121.67518      121.77416      121.74117    
    580000   549.70811      0.82207807     30.920567      1554.4325      40.04841       50.243304      2.4699868      121.50168      121.60052      121.56757    
    590000   546.20155      0.82731288    -10.667136      874.13159      33.580991     -29.862259     -35.720141      121.24487      121.3435       121.31062    
    600000   541.07563      0.82843875     13.732196      343.17488      19.358803      11.66309       10.174696      121.18992      121.28851      121.25564    
    610000   535.13615      0.82852587    -10.736665      18.23319      -3.6503307      11.731355     -40.291018      121.18567      121.28426      121.25139    
    620000   528.09934      0.83684065     1.9701852     -780.90258      2.860845       32.19284      -29.143129      120.78297      120.88123      120.84848    
    630000   524.5511       0.83621492    -9.5786941     -1315.9916     -10.109187     -71.726543      53.099649      120.81309      120.91137      120.87861    
    640000   516.04053      0.83918375     2.3392176     -1842.6725     -16.625223      8.757222       14.885654      120.67045      120.76862      120.7359     
    650000   509.69262      0.84388124     3.389762      -2535.0562     -12.576359      51.431807     -28.686162      120.44613      120.54411      120.51145    
    660000   504.21003      0.84312391    -21.60327      -2916.1091     -42.085766     -31.605672      8.8816268      120.48218      120.5802       120.54752    
    670000   498.73791      0.85165885     2.4342324     -3666.2879     -27.518587      29.352685      5.4685995      120.07836      120.17604      120.14348    
    680000   492.86958      0.85423828     14.528311     -4210.2386     -16.19181       8.9637334      50.813009      119.95738      120.05496      120.02243    
    690000   486.53788      0.85631177    -17.924558     -4847.0259     -46.567882     -62.459925      55.254132      119.86047      119.95798      119.92548    
    700000   481.68041      0.8578395     -18.753701     -5350.9173     -11.97393      -54.257157      9.9699848      119.78928      119.88673      119.85424    
    710000   474.79469      0.85866351    -11.35726      -5857.2833      20.803755     -55.135709      0.26017528     119.75095      119.84837      119.81589    
    720000   468.28735      0.86298558     3.7450696     -6387.994       85.477997     -80.623665      6.3808773      119.5507       119.64795      119.61553    
    730000   462.28117      0.86712046    -20.167094     -7128.3935     -28.695607     -36.014844      4.209168       119.36037      119.45747      119.4251     
    740000   456.18718      0.8693361     -17.929289     -7737.8352     -51.044821      16.985396     -19.728443      119.25888      119.3559       119.32356    
    750000   449.24835      0.87513196    -1.3890786     -8220.0058      33.657152     -90.626963      52.802575      118.99502      119.09182      119.05955    
    760000   444.8232       0.87874851    -3.4056504     -8861.76        61.746047     -0.95071716    -71.012281      118.83155      118.92822      118.896      
    770000   437.85602      0.87683496     6.789121      -9122.2744     -36.898812      3.4595548      53.806621      118.91793      119.01467      118.98242    
    780000   432.19022      0.88534801     5.2700723     -10210.419      10.554861     -5.17246        10.427816      118.53555      118.63198      118.59984    
    790000   427.29161      0.88809879     7.0670846     -10692.391      0.16769688    -10.417039      31.450596      118.41304      118.50937      118.47726    
    800000   421.37878      0.88837368    -2.5226438     -11189.097     -18.522461      61.165443     -50.210913      118.40083      118.49715      118.46504    
    810000   414.61663      0.88565541    -11.093911     -11313.002     -30.825427     -38.409702      35.953395      118.52184      118.61825      118.58611    
    820000   408.05344      0.89183471    -9.3196309     -12293.616     -36.310425      43.524541     -35.173009      118.24747      118.34366      118.31159    
    830000   401.56971      0.89650633    -1.7444855     -12630.524      63.950155     -39.264026     -29.919585      118.04171      118.13774      118.10573    
    840000   395.51319      0.89739682    -17.483633     -13351.426     -53.665005     -0.41857439     1.6326795      118.00266      118.09865      118.06665    
    850000   391.01792      0.90175957    -10.795881     -14080.7       -5.00992       -26.610193     -0.76753021     117.81205      117.90789      117.87594    
    860000   386.08513      0.9075282      1.5065691     -14702.782     -16.644503      8.5026145      12.661596      117.5619       117.65753      117.62566    
    870000   378.63331      0.91063942     3.9796487     -15376.593      2.2377328     -8.6827076      18.383921      117.42786      117.52339      117.49155    
    880000   372.88065      0.91235657     2.5149248     -15905.266     -12.193317      42.362066     -22.623975      117.35414      117.44961      117.41779    
    890000   367.77273      0.91453277     0.68084356    -16717.124     -26.291648      45.548113     -17.213935      117.26099      117.35638      117.32458    
    900000   360.08261      0.92126024     0.11962612    -17400.444      49.094483     -90.483976      41.748371      116.97486      117.07002      117.0383     
    910000   354.53174      0.92264532    -2.2342664     -17619.836      20.024445     -1.4061645     -25.32108       116.91629      117.0114       116.9797     
    920000   347.64422      0.9249421     -3.3482715     -18292.078      59.028799     -33.897492     -35.176122      116.81944      116.91447      116.88279    
    930000   343.00886      0.92415863    -13.444123     -18905.056     -7.4735131      6.5955285     -39.454385      116.85244      116.9475       116.91581    
    940000   336.35551      0.93019012     9.1395962     -19536.512      30.386754      34.686385     -37.654351      116.59933      116.69418      116.66257    
    950000   330.33168      0.93229092    -5.6173663     -19976.972     -8.4427565     -16.910438      8.5010953      116.51168      116.60647      116.57487    
    960000   324.51895      0.93392802     8.0942029     -20797.124     -17.438214      46.028299     -4.3074761      116.44357      116.53829      116.50672    
    970000   318.8314       0.93792595    -4.935784      -21533.942      8.0077841     -8.8444156     -13.97072       116.27788      116.37247      116.34094    
    980000   311.94613      0.9407095      9.329384      -21837.559      43.808367     -31.476589      15.656374      116.16308      116.25758      116.22608    
    990000   307.23732      0.94276959    -13.967902     -22661.009     -28.325003     -24.090274      10.51157       116.07841      116.17284      116.14136    
   1000000   300.78038      0.94737722    -12.113856     -23360.439      7.3109808     -48.30065       4.6481029      115.88992      115.98419      115.95277    
   1000864   300.38967      0.94943117     5.2797955     -23459.237      26.53037      -42.722713      32.031729      115.80629      115.90049      115.86909    
Loop time of 216.737 on 16 procs for 500000 steps with 12350 atoms

Performance: 199.320 ns/day, 0.120 hours/ns, 2306.942 timesteps/s, 28.491 Matom-step/s
97.4% CPU use with 16 MPI tasks x no OpenMP threads

MPI task timing breakdown:
Section |  min time  |  avg time  |  max time  |%varavg| %total
---------------------------------------------------------------
Pair    | 77.545     | 81.339     | 90.052     |  34.0 | 37.53
Bond    | 33.646     | 34.54      | 36.626     |  13.0 | 15.94
Neigh   | 10.892     | 10.899     | 10.906     |   0.1 |  5.03
Comm    | 39.032     | 47.583     | 52.913     |  52.8 | 21.95
Output  | 0.30071    | 0.38663    | 0.47157    |   8.5 |  0.18
Modify  | 37.01      | 37.85      | 38.932     |  10.4 | 17.46
Other   |            | 4.14       |            |       |  1.91

Nlocal:        771.875 ave         789 max         755 min
Histogram: 2 0 1 3 2 2 2 2 1 1
Nghost:        2300.94 ave        2321 max        2278 min
Histogram: 1 1 1 1 3 3 1 3 0 2
Neighs:        26056.9 ave       26957 max       25324 min
Histogram: 1 1 2 3 2 3 3 0 0 1

Total # of neighbors = 416910
Ave neighs/atom = 33.757895
Ave special neighs/atom = 5.76
Neighbor list builds = 10908
Dangerous builds = 0
unfix               2

fix                 3 all npt temp 300 300 10 iso 0 0 50 drag 2
thermo_style        custom step temp density press etotal pxx pyy pzz lx ly lz
thermo              10000
run                 5000000
Generated 0 of 0 mixed pair_coeff terms from geometric mixing rule
Per MPI rank memory allocation (min/avg/max) = 18.48 | 18.63 | 18.95 Mbytes
   Step          Temp         Density         Press          TotEng          Pxx            Pyy            Pzz             Lx             Ly             Lz      
   1000864   300.38967      0.94943117     5.2797955     -23459.237      26.53037      -42.722713      32.031729      115.80629      115.90049      115.86909    
   1010000   299.84927      0.94755963    -0.099844967   -23449.498     -16.445943     -8.0633118      24.20972       115.88248      115.97675      115.94533    
   1020000   299.93117      0.94987657    -0.10087166    -23647.854     -17.972595     -9.907021       27.577001      115.78818      115.88238      115.85098    
   1030000   301.07684      0.94920869    -0.094102783   -23556.295      20.016585      25.016759     -45.315652      115.81533      115.90955      115.87814    
   1040000   299.80042      0.94730939     0.13399044    -23383.904     -5.7955512     -6.70867        12.906192      115.89268      115.98696      115.95553    
   1050000   299.57111      0.94853833    -0.10502851    -23379.219     -17.426364      34.260359     -17.149081      115.84261      115.93685      115.90544    
   1060000   300.07857      0.94888597    -0.36371666    -23507.122      29.110766     -80.974259      50.772343      115.82846      115.92269      115.89128    
   1070000   300.2203       0.95085613     0.31300158    -23688.306     -41.022761     -9.952915       51.914681      115.74841      115.84257      115.81118    
   1080000   299.51315      0.94659048    -0.050091688   -23341.88      -10.222329      10.094601     -0.022547738    115.92201      116.01632      115.98488    
   1090000   299.37853      0.94795873     0.24681192    -23551.658      7.4118684      2.4254229     -9.0968555      115.86622      115.96047      115.92905    
   1100000   300.99916      0.95009048    -0.090349479   -23543.096      2.5518109      19.187611     -22.010471      115.77949      115.87368      115.84228    
   1110000   299.68241      0.94732847     0.036021345   -23375.827      26.083747      1.5019492     -27.477632      115.8919       115.98618      115.95476    
   1120000   300.4372       0.94977677    -0.04146965    -23457.007      0.36749374    -5.1806679      4.6887652      115.79224      115.88644      115.85504    
   1130000   299.89192      0.94701252     0.28955326    -23321.015     -6.3371678     -28.342116      35.547944      115.90479      115.99908      115.96765    
   1140000   300.13366      0.9502905      0.062987747   -23581.007      26.788597     -4.7815726     -21.818061      115.77137      115.86555      115.83416    
   1150000   299.98908      0.94632542    -0.017464669   -23501.166      10.056633      56.953864     -67.062891      115.93284      116.02715      115.99571    
   1160000   299.92735      0.94845698     0.054533804   -23526.358     -34.636668     -6.005263       40.805533      115.84592      115.94016      115.90875    
   1170000   299.76467      0.9471801      0.15386918    -23432.833     -20.714651      14.220362      6.9558963      115.89796      115.99224      115.96081    
   1180000   298.80742      0.94746397     0.20243523    -23394.43      -17.755945      3.7837826      14.579468      115.88638      115.98065      115.94923    
   1190000   300.30611      0.95004533     0.042379538   -23596.527      4.721155      -6.8589048      2.2648885      115.78133      115.87551      115.84412    
   1200000   300.95617      0.94982931    -0.12713513    -23577.261     -5.5815395      0.31934199     4.8807922      115.7901       115.8843       115.8529     
   1210000   300.04673      0.9481599     -0.1451277     -23491.087      4.1326693      29.381092     -33.949145      115.85802      115.95227      115.92085    
   1220000   300.29138      0.95137646     0.020284309   -23676.535     -8.4628937      6.3516001      2.1721466      115.7273       115.82145      115.79007    
   1230000   300.79882      0.95021028     0.28243385    -23569.584     -19.173237     -0.04880864     20.069347      115.77463      115.86881      115.83741    
   1240000   299.87466      0.94728522     0.26179324    -23469.221     -11.698758      1.1963021      11.287836      115.89367      115.98795      115.95652    
   1250000   300.16368      0.94892399     0.046980809   -23579.243     -0.30671096    -26.37016       26.817813      115.82691      115.92114      115.88973    
   1260000   300.24843      0.95346221     0.35514048    -23698.532     -8.7837063      16.947339     -7.098211       115.64285      115.73693      115.70557    
   1270000   300.25187      0.94903995    -0.2339551     -23677.49      -69.4058        33.236308      35.467627      115.8222       115.91642      115.88501    
   1280000   300.30862      0.95034177     0.030890023   -23524.858     -29.267475      18.586763      10.773382      115.76929      115.86346      115.83207    
   1290000   299.21434      0.94696962    -0.25380252    -23520.293     -3.0022583     -4.1029544      6.3438052      115.90654      116.00083      115.9694     
   1300000   300.0348       0.94880178    -0.026720058   -23614.691      32.945339     -3.1679152     -29.857584      115.83189      115.92612      115.89471    
   1310000   299.43628      0.94854086    -0.23736919    -23616.6       -84.191607      89.38696      -5.9074611      115.84251      115.93674      115.90533    
   1320000   299.93192      0.94775927    -0.10954897    -23526.919      23.304981      8.4679694     -32.101598      115.87434      115.96861      115.93719    
   1330000   299.00207      0.94869506     0.17315306    -23643.244     -30.23936       6.0049194      24.7539        115.83623      115.93046      115.89905    
   1340000   300.9156       0.94811919     0.16280915    -23528.177     -31.63665       36.837993     -4.712916       115.85968      115.95393      115.92251    
   1350000   299.48638      0.94679343    -0.32978587    -23444.715      21.590807      2.37233       -24.952495      115.91373      116.00803      115.97659    
   1360000   300.84993      0.94871035    -0.019916295   -23473.595      14.47272      -36.622394      22.089925      115.83561      115.92984      115.89843    
   1370000   300.71712      0.95229819    -0.013032295   -23767.427      12.235387     -20.256183      7.9816996      115.68995      115.78407      115.7527     
   1380000   300.27774      0.95022579    -0.33982952    -23612.247     -23.522256      17.031195      5.4715725      115.774        115.86818      115.83678    
   1390000   300.54593      0.94830501     0.48959569    -23502.254     -19.734667      54.84174      -33.638286      115.85211      115.94636      115.91494    
   1400000   300.38815      0.9487478     -0.46390263    -23504.778     -10.77821      -13.412066      22.798569      115.83408      115.92832      115.8969     
   1410000   298.45757      0.94702163     0.1345766     -23387.617      1.9075077     -51.840641      50.336863      115.90442      115.99871      115.96728    
   1420000   300.40077      0.94675216    -0.14226304    -23389.646      35.992394      1.922901      -38.342084      115.91542      116.00971      115.97828    
   1430000   299.39175      0.94914338    -0.17609489    -23574.698     -42.779153      4.7062005      37.544668      115.81799      115.91221      115.8808     
   1440000   299.73067      0.95009201    -0.18335363    -23525.511     -18.510899     -44.03441       61.995248      115.77943      115.87362      115.84222    
   1450000   298.58327      0.94821644     0.42535173    -23628.284      23.430101     -27.825861      5.671815       115.85572      115.94997      115.91855    
   1460000   299.32031      0.94807593     0.18099498    -23509.221      4.6296696     -39.707565      35.620881      115.86144      115.95569      115.92428    
   1470000   299.4357       0.94549536     0.37393337    -23493.743      3.967496      -40.699468      37.853772      115.96675      116.06109      116.02965    
   1480000   299.60857      0.9494954      0.45551837    -23776.49      -14.25354       9.4138809      6.206214       115.80367      115.89788      115.86648    
   1490000   300.09756      0.94682617     0.43886556    -23417.841     -11.007539      10.506279      1.8178566      115.9124       116.00669      115.97526    
   1500000   299.7231       0.94770057    -0.1426425     -23562.013      8.9815685      42.607922     -52.017417      115.87674      115.971        115.93958    
   1510000   299.50871      0.94960318    -0.25265012    -23611.046     -21.973036     -53.622341      74.837427      115.79929      115.8935       115.8621     
   1520000   300.28759      0.94638876     0.26770146    -23495.771      1.8517179     -3.1758132      2.1271996      115.93025      116.02456      115.99312    
   1530000   299.48086      0.94906717    -0.15798286    -23656.161      12.029691     -74.936338      62.432698      115.82109      115.91531      115.8839     
   1540000   300.60348      0.95044464     0.07188577    -23713.259      10.574794      55.724891     -66.084027      115.76511      115.85928      115.82789    
   1550000   300.71366      0.9497857     -0.0098794424  -23668.901      22.468031      6.9047635     -29.402433      115.79188      115.88607      115.85467    
   1560000   299.8306       0.95027579    -0.18555672    -23644.325     -10.082164      20.85552      -11.330026      115.77197      115.86615      115.83475    
   1570000   299.51584      0.94981519    -0.10443822    -23645.357     -13.501364      15.167196     -1.9791462      115.79068      115.88487      115.85347    
   1580000   300.77093      0.94880204     0.11578319    -23602.802     -5.2092615      5.2478948      0.30871622     115.83188      115.92611      115.8947     
   1590000   300.46802      0.949206      -0.17672361    -23564.974     -21.850717      13.757471      7.5630742      115.81544      115.90966      115.87825    
   1600000   300.01126      0.95028496     0.38881031    -23598.443     -18.364532     -32.214472      51.745434      115.77159      115.86577      115.83438    
   1610000   300.99889      0.94546423    -0.054457449   -23589.505      7.9673547      9.3236751     -17.454402      115.96803      116.06237      116.03092    
   1620000   300.44134      0.94835143    -0.16821939    -23718.675      18.008762     -26.249687      7.7362663      115.85022      115.94446      115.91305    
   1630000   300.69473      0.94840541    -0.089179123   -23658.314      13.923547      8.2842996     -22.475384      115.84802      115.94226      115.91085    
   1640000   301.38052      0.94948732     0.24488703    -23699.032     -6.6124028     -49.581318      56.928382      115.804        115.89821      115.86681    
   1650000   299.27808      0.94755606     0.12484175    -23526.447      21.868439     -11.284536     -10.209377      115.88263      115.9769       115.94547    
   1660000   299.36192      0.94548655     0.19940966    -23438.782     -16.247438      6.7353289      10.110338      115.96711      116.06145      116.03001    
   1670000   300.8612       0.94791533     0.063555393   -23510.159     -21.227059      19.765457      1.652269       115.86798      115.96224      115.93082    
   1680000   300.07736      0.94854655    -0.11566239    -23466.273      10.364074     -21.973019      11.261958      115.84228      115.93651      115.9051     
   1690000   299.74156      0.94873684     0.03994032    -23484.634      9.1170528      0.1776536     -9.1748854      115.83453      115.92876      115.89735    
   1700000   300.49883      0.94694982     0.064286572   -23529.496     -55.046853      14.406125      40.833588      115.90735      116.00164      115.97021    
   1710000   300.53543      0.95022964    -0.37227133    -23645.595     -5.0500596     -9.76081        13.694056      115.77384      115.86802      115.83663    
   1720000   300.49182      0.94862174    -0.19352292    -23660.257     -19.637829     -1.0675256      20.124786      115.83922      115.93345      115.90204    
   1730000   299.80927      0.94825358    -0.28788632    -23679.199      10.408143      10.124885     -21.396687      115.8542       115.94845      115.91704    
   1740000   300.53322      0.94744793    -0.22329657    -23553.381      49.105617     -46.973405     -2.802101       115.88703      115.98131      115.94988    
   1750000   300.17419      0.94900342    -0.20459097    -23661.865     -52.523936      53.519885     -1.6097221      115.82368      115.91791      115.8865     
   1760000   300.15598      0.94701743     0.152137      -23636.646     -43.292387      0.06300183     43.685797      115.90459      115.99888      115.96745    
   1770000   300.37618      0.94828585     0.25734921    -23659.131     -6.1955789      34.424615     -27.456988      115.85289      115.94714      115.91572    
   1780000   300.51918      0.94843319    -0.41494344    -23657.127     -10.840741      3.4855493      6.1103614      115.84689      115.94113      115.90972    
   1790000   300.33788      0.94638814    -0.24140929    -23503.234     -4.003572      -15.581085      18.860429      115.93028      116.02458      115.99315    
   1800000   299.19152      0.94783436    -0.28313737    -23465.295     -44.056749      15.168673      28.038664      115.87128      115.96554      115.93412    
   1810000   299.71638      0.94694134     0.24666084    -23506.224     -31.883878     -12.233095      44.856956      115.9077       116.00199      115.97056    
   1820000   300.96325      0.94733809    -0.2765572     -23419.542     -9.1628317      24.384164     -16.051004      115.89151      115.98579      115.95436    
   1830000   300.53345      0.9493629      0.072595848   -23551.037      28.450934     -48.667307      20.43416       115.80906      115.90327      115.87187    
   1840000   300.15342      0.94866717     0.027593577   -23659.503      12.674184     -26.046778      13.455375      115.83737      115.9316       115.90019    
   1850000   300.39692      0.94813286     0.42417228    -23672.421     -10.563146     -31.586891      43.422553      115.85912      115.95337      115.92196    
   1860000   299.73847      0.95036655     0.14436004    -23695.53      -116.99237      25.409064      92.016388      115.76828      115.86246      115.83107    
   1870000   300.48054      0.94710683     0.063600007   -23658.805     -35.613723     -31.830359      67.634881      115.90094      115.99523      115.9638     
   1880000   300.35426      0.94744752    -0.004870773   -23531.484      29.014516     -36.478469      7.4493407      115.88705      115.98132      115.9499     
   1890000   300.22509      0.94811435    -0.17579609    -23590.916     -55.039217      26.511484      28.000345      115.85988      115.95413      115.92271    
   1900000   300.284        0.94718075    -0.06810271    -23755.268      39.247356     -13.542222     -25.909442      115.89793      115.99221      115.96078    
   1910000   299.81112      0.94727914    -0.16314493    -23475.701     -37.621431     -18.388787      55.520784      115.89392      115.9882       115.95677    
   1920000   301.48235      0.94614443     0.20130441    -23519.406     -0.29965992    -32.195206      33.098779      115.94023      116.03455      116.00311    
   1930000   299.87824      0.94636083    -0.19431199    -23423.822     -1.3585187      35.310411     -34.534829      115.93139      116.0257       115.99426    
   1940000   300.80291      0.94706529     0.036157034   -23507.037      18.125342     -12.556537     -5.4603331      115.90264      115.99693      115.9655     
   1950000   299.99895      0.94848033     0.031312903   -23517.697     -14.326164      8.9644139      5.4556883      115.84497      115.93921      115.9078     
   1960000   301.33228      0.94782289     0.086132465   -23658.492      29.146483     -62.945753      34.057667      115.87175      115.96601      115.93459    
   1970000   299.87892      0.94756995    -0.18936397    -23650.599     -7.9590342      3.7736782      3.6172641      115.88206      115.97633      115.94491    
   1980000   299.57957      0.94926043    -0.036006855   -23523.131      53.67041      -30.429893     -23.348538      115.81323      115.90744      115.87604    
   1990000   299.84435      0.94530905    -0.20337946    -23450.653      22.04475      -56.70023       34.045342      115.97437      116.06872      116.03727    
   2000000   299.7215       0.94875309    -0.11256347    -23730.46      -1.3171657      10.637846     -9.6583706      115.83387      115.9281       115.89669    
   2010000   300.10174      0.95072089    -0.23139866    -23644.33      -28.375078      17.409406      10.271477      115.7539       115.84806      115.81667    
   2020000   300.12185      0.94805307     0.0070361744  -23472.764      24.757279     -15.287198     -9.4489731      115.86237      115.95663      115.92521    
   2030000   300.80585      0.94977267     0.047859761   -23561.118      28.80346      -33.459057      4.7991769      115.7924       115.8866       115.8552     
   2040000   302.05342      0.94903546     0.01243408    -23546.779      44.771279      0.91546791    -45.649445      115.82238      115.9166       115.88519    
   2050000   300.18562      0.95016218     0.20604356    -23669.803     -44.633106      63.083554     -17.832317      115.77658      115.87076      115.83937    
   2060000   300.5902       0.94942812     0.059450574   -23719.609      22.295524     -55.723268      33.606096      115.80641      115.90062      115.86922    
   2070000   299.65378      0.9481446      0.21977041    -23499.285      6.4478817      10.212903     -16.001473      115.85864      115.95289      115.92148    
   2080000   299.93517      0.95018594    -0.13392096    -23579.357     -28.199381      9.2004328      18.597185      115.77562      115.8698       115.8384     
   2090000   300.69239      0.94766892    -0.0092614063  -23601.031     -18.286831      14.82342       3.4356262      115.87803      115.97229      115.94087    
   2100000   300.39038      0.95017646     0.28752873    -23717.539     -3.5118347      9.3061274     -4.9317065      115.776        115.87018      115.83879    
   2110000   299.53209      0.94877247    -0.012730036   -23649.935     -55.416709      15.566827      39.811692      115.83308      115.92731      115.8959     
   2120000   299.3247       0.94746518     0.11733778    -23622.844      50.66641      -31.33922      -18.975177      115.88633      115.9806       115.94918    
   2130000   299.90694      0.94777695     0.11260845    -23635.537     -8.6764126     -54.672119      63.686357      115.87362      115.96788      115.93646    
   2140000   300.31505      0.94864388    -0.19253091    -23482.762      9.6054459      4.6007748     -14.783813      115.83831      115.93255      115.90114    
   2150000   299.57311      0.94857342     0.167829      -23538.728      96.341306     -95.160185     -0.67763412     115.84118      115.93542      115.90401    
   2160000   300.36392      0.94654924    -0.28742627    -23438.312      41.688194      19.175016     -61.725489      115.9237       116.018        115.98657    
   2170000   301.10414      0.94860778    -0.11611058    -23557.383      4.5687915     -9.1860794      4.2689562      115.83978      115.93402      115.90261    
   2180000   300.30968      0.94799516     0.25569435    -23653.892      22.369404     -28.679029      7.0767087      115.86473      115.95899      115.92757    
   2190000   301.19779      0.94998233     0.02153793    -23494.575      20.74078      -23.104981      2.4288148      115.78389      115.87808      115.84668    
   2200000   300.7046       0.94922046     0.16376431    -23758.909     -57.772621      76.599989     -18.336075      115.81485      115.90907      115.87766    
   2210000   300.25413      0.95026811     0.42264363    -23898.724      9.7555222     -2.5908871     -5.8967042      115.77228      115.86646      115.83506    
   2220000   300.4962       0.94980878     0.66917894    -23645.285     -25.058718      7.4789988      19.587256      115.79094      115.88513      115.85373    
   2230000   300.65063      0.94658337    -0.6817917     -23483.334     -9.5670349      46.771501     -39.249841      115.9223       116.01661      115.98517    
   2240000   299.99824      0.95010487     0.2411738     -23640.351      9.2913527      25.635182     -34.203013      115.77891      115.87309      115.8417     
   2250000   300.36013      0.94640521    -0.065477597   -23609.29       8.2550176      20.926192     -29.377642      115.92958      116.02389      115.99245    
   2260000   300.29146      0.94670117     0.21551705    -23467.571      22.075934     -0.28543016    -21.143952      115.9175       116.01179      115.98036    
   2270000   300.48446      0.94820189     0.23828656    -23591.917      27.249845      10.337957     -36.872942      115.85631      115.95056      115.91914    
   2280000   299.79216      0.94999652     0.23283476    -23702.728     -14.019865      23.35447      -8.6361006      115.78331      115.8775       115.8461     
   2290000   299.25767      0.94776653    -0.29996399    -23698.441      26.656881     -23.07236      -4.4844131      115.87405      115.96831      115.93689    
   2300000   299.52754      0.94835049     0.0034542373  -23713.003      19.563209     -0.85586193    -18.696985      115.85026      115.9445       115.91309    
   2310000   300.32104      0.94946937     0.17542433    -23675.55       6.3351305      93.938817     -99.747675      115.80473      115.89894      115.86754    
   2320000   300.08483      0.94771134     0.20443841    -23660.494      59.225813     -37.597253     -21.015245      115.8763       115.97056      115.93914    
   2330000   300.17608      0.95028299     0.013631201   -23686.286     -5.8601457      4.4754614      1.4255779      115.77167      115.86585      115.83446    
   2340000   300.00814      0.94932771    -0.22229343    -23651.995      31.849372     -4.9676091     -27.548643      115.81049      115.9047       115.8733     
   2350000   300.75527      0.95032745     0.10933502    -23720.542      13.363771      18.241499     -31.277265      115.76987      115.86405      115.83265    
   2360000   299.42972      0.95038266    -0.18015132    -23769.428     -36.443891      65.403771     -29.500334      115.76763      115.8618       115.83041    
   2370000   300.17727      0.94876934    -0.27903062    -23638.021     -19.089913      23.641769     -5.3889483      115.83321      115.92744      115.89603    
   2380000   299.88809      0.94767331    -0.34233067    -23603.488     -40.154218      14.812028      24.315198      115.87785      115.97211      115.94069    
   2390000   300.17825      0.94710467    -0.16541755    -23573.356      7.9535561      14.524946     -22.974755      115.90103      115.99532      115.96389    
   2400000   298.96449      0.94757067     0.20854891    -23485.855     -55.173418      53.385281      2.4137842      115.88203      115.9763       115.94488    
   2410000   300.44274      0.95013877    -0.60412736    -23730.834     -85.399132      49.274917      34.311833      115.77753      115.87172      115.84032    
   2420000   300.51761      0.94933323    -0.43761774    -23475.574      9.0265576      24.483555     -34.822965      115.81027      115.90448      115.87308    
   2430000   299.58015      0.94873249     0.0068445192  -23624.663      9.213049      -8.3302867     -0.86222878     115.83471      115.92894      115.89753    
   2440000   299.29896      0.94717561     0.35032488    -23649.413      12.900712     -53.876981      42.027243      115.89814      115.99242      115.96099    
   2450000   300.00471      0.94984367    -0.28414538    -23672.166     -13.38873       9.4426208      3.0936734      115.78952      115.88371      115.85232    
   2460000   299.89328      0.9480853      0.066871578   -23481.386     -7.9847121      1.692095       6.4932319      115.86106      115.95531      115.92389    
   2470000   299.69323      0.94792989     0.059008523   -23629.582     -47.895944      63.414053     -15.341084      115.86739      115.96165      115.93023    
   2480000   300.69474      0.94761197    -0.12752169    -23546.078     -17.244663     -57.559353      74.42145       115.88035      115.97461      115.94319    
   2490000   300.2628       0.94858458     0.4101739     -23741.988      14.129584      16.596642     -29.495704      115.84073      115.93496      115.90355    
   2500000   299.5442       0.95007466    -0.085447622   -23758.553      42.809763     -42.732598     -0.33350808     115.78014      115.87432      115.84293    
   2510000   299.84412      0.94778002     0.019275974   -23443.312     -5.0557279     -13.911267      19.024822      115.8735       115.96776      115.93634    
   2520000   299.96392      0.94795735    -0.17497752    -23662.147     -3.8519785      53.094897     -49.767851      115.86627      115.96053      115.92911    
   2530000   299.67871      0.94583572    -0.04305312    -23517.883      3.3680489     -40.85292       37.355712      115.95284      116.04717      116.01573    
   2540000   299.15625      0.9459426      0.097195071   -23512.854     -30.290217     -9.8242442      40.406047      115.94847      116.0428       116.01136    
   2550000   299.85429      0.94838025     0.09410374    -23618.755     -18.158743      21.284908     -2.8438537      115.84905      115.94329      115.91188    
   2560000   300.60713      0.94784644     0.035099845   -23488.021      25.754446     -19.873634     -5.775513       115.87079      115.96505      115.93363    
   2570000   299.40606      0.94745929     0.51660092    -23701.788     -28.887714     -2.8764117      33.313928      115.88657      115.98084      115.94942    
   2580000   299.86766      0.95021388    -0.066580051   -23758.22      -19.744223     -48.263509      67.807992      115.77448      115.86866      115.83727    
   2590000   300.37937      0.94775176     0.39372264    -23506.531      3.5409359      7.002871      -9.362639       115.87465      115.96891      115.93749    
   2600000   300.53479      0.94726401    -0.030315725   -23542.691      19.214005      4.3075522     -23.612504      115.89453      115.98881      115.95739    
   2610000   301.15428      0.94920709    -0.33888768    -23684.09      -50.57474       6.8092439      42.748833      115.8154       115.90961      115.87821    
   2620000   300.47899      0.94761871    -0.080534427   -23554.623     -55.695213      4.8670779      50.586532      115.88007      115.97434      115.94292    
   2630000   300.80969      0.94962653     0.13239405    -23708.616     -5.9063153      23.353269     -17.049772      115.79834      115.89255      115.86115    
   2640000   300.03792      0.94838155    -0.29501348    -23657.156     -6.4962495     -29.661717      35.272926      115.84899      115.94324      115.91182    
   2650000   300.60072      0.94837436    -0.48767601    -23452.458      10.740511     -20.026644      7.8231047      115.84929      115.94353      115.91212    
   2660000   299.86494      0.9480076     -0.4663479     -23484.567     -15.50823       11.211617      2.8975694      115.86422      115.95848      115.92706    
   2670000   299.31004      0.94895803     0.062019924   -23533.894      1.8514593     -1.8770134      0.21161393     115.82553      115.91975      115.88835    
   2680000   299.68895      0.94979013    -0.091755312   -23673.335     -39.303381      33.214322      5.8137929      115.7917       115.88589      115.85449    
   2690000   300.37264      0.94615582    -0.0097779783  -23582.589     -3.5843745      5.86611       -2.3110695      115.93976      116.03408      116.00264    
   2700000   300.37709      0.95087486    -0.037470206   -23632.711     -65.547758      10.213882      55.221465      115.74765      115.84181      115.81042    
   2710000   300.31531      0.94654171    -0.076903613   -23488.598      5.6809011     -1.31285       -4.598762       115.92401      116.01831      115.98687    
   2720000   299.69537      0.94648614    -0.45514821    -23499.871     -65.521925      65.955702     -1.7992219      115.92627      116.02058      115.98914    
   2730000   300.5619       0.94652978    -0.17684824    -23537.271     -48.805072      34.736359      13.538168      115.92449      116.0188       115.98736    
   2740000   301.05709      0.94917971    -0.10433739    -23608.207     -29.527674      21.200012      8.01465        115.81651      115.91073      115.87932    
   2750000   299.79624      0.94889941     0.069460663   -23702.954     -2.6764641      13.360268     -10.475422      115.82792      115.92214      115.89073    
   2760000   300.03456      0.95001272    -0.027798141   -23851.95      -41.147095      16.058726      25.004975      115.78265      115.87684      115.84544    
   2770000   301.32091      0.94807022     0.2725801     -23498.032      32.74313       37.41882      -69.34421       115.86167      115.95593      115.92451    
   2780000   299.56388      0.94822028     0.46048993    -23655.736     -47.857673      74.126068     -24.886926      115.85556      115.94981      115.91839    
   2790000   299.03669      0.9472775      0.18490011    -23452.56      -23.117683      31.626039     -7.9536558      115.89398      115.98826      115.95684    
   2800000   300.38276      0.94830903    -0.22680984    -23425.048     -29.973358      15.97727       13.315659      115.85195      115.94619      115.91478    
   2810000   300.27285      0.94928616    -0.39543453    -23522.348     -10.376197      16.639332     -7.4494379      115.81218      115.9064       115.87499    
   2820000   300.11388      0.95002919    -0.26730586    -23456.921      15.545224     -16.013727     -0.33341478     115.78198      115.87617      115.84477    
   2830000   300.21614      0.95007201    -0.53806732    -23639.862      18.921732      8.9199389     -29.455873      115.78024      115.87443      115.84303    
   2840000   300.88673      0.9482931     -0.22031857    -23600.061     -46.107568      9.7230689      35.723543      115.8526       115.94684      115.91543    
   2850000   299.49002      0.95190848    -0.21158711    -23735.316      43.576587     -27.269564     -16.941784      115.70574      115.79986      115.76849    
   2860000   300.24435      0.94811015     0.30874548    -23607.012     -14.772453      46.48934      -30.79065       115.86005      115.9543       115.92288    
   2870000   299.64967      0.95023114    -0.015821315   -23646.479      27.157624     -2.6843038     -24.520784      115.77378      115.86796      115.83657    
   2880000   300.68318      0.94914329    -0.092121681   -23615.849      21.425788      17.787483     -39.489637      115.81799      115.91221      115.88081    
   2890000   300.67638      0.94724879    -0.044742234   -23568.384      11.112388     -25.105686      13.859072      115.89515      115.98943      115.95801    
   2900000   299.76767      0.94605885     0.027365197   -23449.098     -27.89302       6.2919301      21.683186      115.94372      116.03804      116.0066     
   2910000   301.09088      0.95113613     0.11586725    -23540.244     -36.432358      13.1598        23.62016       115.73705      115.8312       115.79982    
   2920000   299.87829      0.94931307    -0.14407111    -23525.632     -24.534188      11.330881      12.771094      115.81109      115.9053       115.8739     
   2930000   298.51416      0.94989986     0.13198768    -23709.705     -24.051002     -7.4116648      31.858629      115.78724      115.88143      115.85003    
   2940000   300.29199      0.94746088    -0.38600224    -23541.255      20.510604     -13.363565     -8.3050453      115.88651      115.98078      115.94935    
   2950000   300.59688      0.94942373     0.4129004     -23630.758     -2.1342761      9.2785981     -5.9056208      115.80659      115.9008       115.86939    
   2960000   299.48003      0.94667885     0.26180148    -23583.688     -2.3437828     -34.898612      38.027799      115.91841      116.01271      115.98127    
   2970000   299.1243       0.94547924     0.095492817   -23410.409      11.421803     -59.655118      48.519794      115.96741      116.06175      116.0303     
   2980000   300.42156      0.95192184     0.16273328    -23612.758     -7.7394214     -33.40693       41.634551      115.7052       115.79932      115.76795    
   2990000   299.94315      0.94865965    -0.2663292     -23574.395     -13.251074     -14.276907      26.728994      115.83767      115.93191      115.90049    
   3000000   299.16145      0.95081967    -0.03616941    -23969.121      21.168382      23.347009     -44.623899      115.74989      115.84405      115.81266    
   3010000   300.45546      0.94870527     0.057657806   -23615.143     -12.781185      47.116786     -34.162627      115.83582      115.93005      115.89864    
   3020000   300.7344       0.94849501    -0.15484758    -23523.844     -16.182154      73.847307     -58.129696      115.84437      115.93861      115.9072     
   3030000   301.11834      0.94937457    -0.11374773    -23478.596      13.413068      27.625269     -41.379581      115.80859      115.9028       115.87139    
   3040000   300.3524       0.94901611     0.31577274    -23598.167      32.521092      26.279278     -57.853052      115.82317      115.91739      115.88598    
   3050000   298.95304      0.94829677     0.37311143    -23600.582     -20.103981      22.210712     -0.9873965      115.85245      115.94669      115.91528    
   3060000   300.47401      0.94933356     0.10857952    -23534.592     -42.97785       19.416404      23.887184      115.81026      115.90447      115.87306    
   3070000   300.01552      0.95026405     0.13298047    -23735.01       26.336915      70.860091     -96.798064      115.77244      115.86662      115.83523    
   3080000   300.62712      0.94681125    -0.12174479    -23469.413      6.8000276      29.509459     -36.674721      115.913        116.0073       115.97587    
   3090000   299.07832      0.94825463    -0.30964175    -23664.336      20.208032      11.177291     -32.314248      115.85416      115.94841      115.91699    
   3100000   299.17648      0.94738549     0.12711231    -23530.08       4.6621857      17.323387     -21.604236      115.88958      115.98386      115.95243    
   3110000   300.03087      0.94918927     0.054406414   -23579.053      38.422213     -12.960233     -25.298761      115.81612      115.91034      115.87893    
   3120000   300.31588      0.9474         0.15150792    -23641.095     -44.810639      5.8080974      39.457065      115.88899      115.98326      115.95184    
   3130000   300.35989      0.94964166     0.0084498951  -23632.882     -27.011572     -6.8351618      33.872083      115.79773      115.89193      115.86053    
   3140000   301.01614      0.94725164     0.066890505   -23489.109     -38.445598      28.321906      10.324363      115.89504      115.98932      115.95789    
   3150000   299.2655       0.94911066    -0.23666574    -23731.669     -66.641314      44.361296      21.570021      115.81932      115.91354      115.88213    
   3160000   299.43102      0.94695091    -0.11806358    -23508.657     -12.34394      -14.917923      26.907672      115.90731      116.0016       115.97017    
   3170000   299.24302      0.94877921     0.024706638   -23597.655      42.204558     -46.995664      4.8652261      115.83281      115.92704      115.89563    
   3180000   300.35028      0.95075731     0.27215257    -23867.823      11.644636     -39.277796      28.449617      115.75242      115.84658      115.81519    
   3190000   298.66207      0.94996525     0.13080325    -23784.164     -92.283902      58.351654      34.324658      115.78458      115.87877      115.84737    
   3200000   300.80294      0.94996867    -0.11383775    -23525.505      18.472045     -16.087109     -2.726449       115.78444      115.87863      115.84723    
   3210000   299.83021      0.94854288    -0.013559721   -23472.21      -5.0055264     -13.785006      18.749853      115.84243      115.93666      115.90525    
   3220000   299.70641      0.94974426     0.031015684   -23663.405      17.197926     -45.21354       28.108661      115.79356      115.88776      115.85636    
   3230000   299.87778      0.94842209     0.029651925   -23443.405     -40.809303      17.779126      23.119133      115.84734      115.94158      115.91017    
   3240000   300.16286      0.94950278    -0.21182117    -23535.691     -9.798556       0.14583276     9.0172597      115.80338      115.89758      115.86618    
   3250000   300.58887      0.94757384     0.060166305   -23618.649     -5.3036258     -10.631987      16.116111      115.8819       115.97617      115.94475    
   3260000   300.28642      0.94508994    -0.50389545    -23554.726      25.002349     -47.098776      20.584741      115.98333      116.07769      116.04623    
   3270000   300.12362      0.94629392     0.050320767   -23553.77      -57.335318      61.829156     -4.3428752      115.93412      116.02843      115.997      
   3280000   300.42144      0.94759041    -0.075761518   -23619.985     -54.193859      12.581056      41.385518      115.88123      115.97549      115.94407    
   3290000   299.82518      0.94892033     0.044550636   -23606.631      27.017491     -21.83056      -5.0532792      115.82706      115.92129      115.88988    
   3300000   300.1614       0.94704733    -0.53209289    -23571.894      19.026973     -10.058154     -10.565097      115.90337      115.99766      115.96623    
   3310000   299.57884      0.95084387     0.020089954   -23689.72       12.537617     -22.969498      10.49215       115.74891      115.84307      115.81168    
   3320000   299.42462      0.94867653     0.083542272   -23674.094      10.932667      24.429172     -35.111212      115.83699      115.93122      115.89981    
   3330000   299.15463      0.94838397    -0.11630071    -23679.509      30.822795      30.822155     -61.993852      115.84889      115.94314      115.91172    
   3340000   300.08557      0.95015174    -0.079073165   -23670.343     -12.180469      6.4681294      5.4751198      115.777        115.87119      115.83979    
   3350000   300.52761      0.94959086    -0.0025129689  -23615.813      4.1222534      16.776691     -20.906483      115.79979      115.894        115.8626     
   3360000   300.59336      0.94756292    -0.22596192    -23533.567      8.4597611     -30.485628      21.347982      115.88235      115.97662      115.94519    
   3370000   300.18906      0.9490188     -0.19572234    -23592.817     -7.2401672     -15.213855      21.866855      115.82306      115.91728      115.88587    
   3380000   300.43904      0.94653702     0.18258958    -23486.762     -8.4906793     -30.975421      40.013869      115.9242       116.0185       115.98707    
   3390000   299.72788      0.94765216     0.015076041   -23620.55       18.855822      12.182507     -30.993101      115.87871      115.97298      115.94155    
   3400000   300.22124      0.9490022      0.0017880587  -23549.27       6.3348215     -29.589877      23.260419      115.82373      115.91796      115.88655    
   3410000   298.34294      0.95077073    -0.19542067    -23595.716      44.461055      14.942831     -59.990148      115.75187      115.84604      115.81465    
   3420000   299.87149      0.94801154     0.0097545941  -23688.436      43.952534     -30.708874     -13.214395      115.86406      115.95832      115.9269     
   3430000   300.18569      0.94858799     0.14407688    -23657.497     -27.084455      21.194264      6.3224214      115.84059      115.93482      115.90341    
   3440000   300.4854       0.94683706    -0.11186228    -23587.222      7.4758453      1.9273269     -9.738759       115.91195      116.00624      115.97481    
   3450000   300.20848      0.94613357    -0.16897021    -23538.594      63.431825     -21.877455     -42.061281      115.94067      116.03499      116.00355    
   3460000   299.78409      0.94877485     0.014521298   -23574.981      13.232979     -25.578791      12.389376      115.83298      115.92721      115.8958     
   3470000   299.27902      0.94936007     0.28613995    -23627.613      15.527754     -32.029915      17.360581      115.80918      115.90339      115.87198    
   3480000   300.21164      0.94909497    -0.19983083    -23600.631     -54.185204      16.545804      37.039908      115.81996      115.91418      115.88277    
   3490000   300.853        0.94974609    -0.15995825    -23617.351     -37.916137     -29.0029        66.439163      115.79349      115.88768      115.85628    
   3500000   299.43884      0.95082893     0.3320741     -23710.781     -22.471028      4.5394599      18.92779       115.74951      115.84367      115.81229    
   3510000   300.26073      0.9495684     -0.52165479    -23609.218     -4.714309       50.247701     -47.098356      115.80071      115.89491      115.86351    
   3520000   299.02229      0.9470062     -0.21013333    -23568.126      5.0887465     -38.136946      32.417799      115.90505      115.99934      115.96791    
   3530000   300.70175      0.94813702    -0.099397476   -23699.223      41.706012     -38.553538     -3.4506662      115.85895      115.9532       115.92179    
   3540000   299.9633       0.94842386     0.0029070743  -23605.828      34.090323     -12.829051     -21.252551      115.84727      115.94151      115.9101     
   3550000   300.30103      0.94970565    -0.15482955    -23659.945     -62.237638      15.44858       46.32457       115.79513      115.88933      115.85793    
   3560000   299.37026      0.95007292    -0.26252929    -23683.56      -59.106382      56.872018      1.446776       115.78021      115.87439      115.843      
   3570000   300.58467      0.94786737     0.21817461    -23602.267      2.5290421     -49.815338      47.94082       115.86994      115.9642       115.93278    
   3580000   300.50064      0.94600783     0.0035385175  -23565.538     -47.515728      39.561934      7.96441        115.94581      116.04013      116.00869    
   3590000   300.37997      0.94896971    -0.21713483    -23659.795     -40.105138      0.6755067      38.778227      115.82505      115.91928      115.88787    
   3600000   299.99057      0.94880429    -0.095541784   -23580.197     -41.451669     -2.4812388      43.646283      115.83179      115.92601      115.8946     
   3610000   299.73628      0.94648979     0.15010055    -23536.357     -10.005475      8.3011964      2.1545802      115.92613      116.02043      115.989      
   3620000   300.51354      0.95204141     0.22419252    -23680.865      8.055695       9.5101775     -16.893295      115.70035      115.79447      115.7631     
   3630000   299.02064      0.95118559    -0.090833165   -23740.813     -11.644969      2.370066       9.0024038      115.73504      115.82919      115.79781    
   3640000   301.05339      0.94781847    -0.13313098    -23530.68      -36.185094      19.893153      15.892548      115.87193      115.96619      115.93477    
   3650000   300.00393      0.94956674    -0.29226882    -23534.559      3.0094901     -72.565273      68.678976      115.80077      115.89498      115.86358    
   3660000   299.76649      0.94918875     0.32874219    -23611.434      48.858513     -40.590974     -7.2813122      115.81614      115.91036      115.87896    
   3670000   300.36972      0.94846404     0.14814269    -23584.213      28.682712     -43.871428      15.633144      115.84563      115.93987      115.90846    
   3680000   299.04801      0.94827056    -0.20705383    -23416.808     -9.4324722      74.592986     -65.781675      115.85351      115.94776      115.91634    
   3690000   300.66487      0.94847668    -0.20909294    -23556.479     -38.730694      54.635808     -16.532393      115.84512      115.93936      115.90795    
   3700000   299.94784      0.94749978     0.085311269   -23663.129      36.728868      27.236954     -63.709889      115.88492      115.97919      115.94777    
   3710000   300.51507      0.94847018    -0.15713692    -23380.766      16.264042     -32.192645      15.457192      115.84538      115.93962      115.90821    
   3720000   300.09209      0.950406       0.02343096    -23698.27      -56.16143       25.226508      31.005214      115.76668      115.86085      115.82946    
   3730000   300.07261      0.94689311    -0.36309284    -23435.959     -1.9800047     -12.529039      13.419765      115.90966      116.00396      115.97253    
   3740000   299.7565       0.94859292     0.026694621   -23615.731      18.548615     -23.189669      4.7211375      115.84039      115.93462      115.90321    
   3750000   299.87057      0.94969919     0.3624051     -23464.943     -0.4737714      10.594518     -9.0335313      115.79539      115.88959      115.85819    
   3760000   299.23205      0.94732569     0.14718885    -23440.96       32.161657      17.246898     -48.966988      115.89202      115.9863       115.95487    
   3770000   300.26326      0.94867571    -0.30640992    -23603.293      6.671907      -45.257817      37.66668       115.83702      115.93125      115.89984    
   3780000   299.67337      0.94837776     0.036147619   -23472.949      12.6322       -13.822616      1.298859       115.84915      115.94339      115.91198    
   3790000   299.63378      0.95009878     0.28648553    -23743.512     -14.256463      30.329712     -15.213792      115.77916      115.87334      115.84195    
   3800000   299.28875      0.94947514     0.06606087    -23542.961      12.38107      -32.033747      19.85086       115.8045       115.89871      115.8673     
   3810000   300.88494      0.9486899      0.10472314    -23494.427     -32.967792      23.783608      9.4983529      115.83644      115.93067      115.89926    
   3820000   300.04796      0.94722386     0.027975824   -23431.06       20.655726     -38.030059      17.458261      115.89617      115.99045      115.95903    
   3830000   300.22832      0.94934321     0.2674873     -23686.367      56.862213     -24.030132     -32.029619      115.80986      115.90407      115.87267    
   3840000   300.70964      0.94915872     0.11369872    -23454.316      71.01447       17.681896     -88.35527       115.81737      115.91158      115.88018    
   3850000   300.13659      0.94932324     0.062310422   -23698.117     -5.5365819      30.115228     -24.391714      115.81068      115.90489      115.87348    
   3860000   299.65737      0.94881693    -0.26496457    -23440.109     -45.76661       2.8282802      42.143436      115.83127      115.9255       115.89409    
   3870000   299.8745       0.94683879    -0.053113225   -23511.291      0.67282998     53.280631     -54.112801      115.91188      116.00617      115.97474    
   3880000   299.79422      0.94674966    -0.097161085   -23646.069      2.2253699      11.858692     -14.375545      115.91552      116.00981      115.97838    
   3890000   300.31371      0.94748043    -0.54394058    -23537.956      52.920277     -14.658771     -39.893327      115.88571      115.97998      115.94856    
   3900000   299.70984      0.94898914     0.12127618    -23584.621     -1.8757006      15.850707     -13.611178      115.82426      115.91849      115.88708    
   3910000   300.59229      0.94692916     0.21064202    -23576.143     -9.3503468      10.306967     -0.32469401     115.90819      116.00248      115.97105    
   3920000   299.45564      0.94956313    -0.21436797    -23565.568      13.679175      20.796251     -35.11853       115.80092      115.89513      115.86372    
   3930000   298.94363      0.94828652     0.041248966   -23469.182     -45.531598      25.885215      19.77013       115.85286      115.94711      115.91569    
   3940000   300.98134      0.94938594     0.098830365   -23804.686     -14.810283     -7.7553027      22.862076      115.80813      115.90234      115.87093    
   3950000   300.97577      0.94657514    -0.1690791     -23550.521     -3.4704751      2.1077285      0.85550927     115.92264      116.01694      115.98551    
   3960000   299.25838      0.94976661    -0.0028918003  -23435.458     -4.163122       14.380777     -10.22633       115.79265      115.88685      115.85545    
   3970000   300.3315       0.94915735     0.28017803    -23561.97      -27.036286      18.118875      9.7579455      115.81742      115.91164      115.88023    
   3980000   300.83328      0.94625282    -0.33925086    -23480.756     -7.3297815     -29.822252      36.134281      115.9358       116.03011      115.99868    
   3990000   299.65905      0.94805178    -0.034940743   -23662.892     -38.00565       45.31403      -7.4132024      115.86242      115.95668      115.92526    
   4000000   300.65025      0.94958645    -0.32435119    -23563.038      52.814919     -9.2332173     -44.554755      115.79997      115.89418      115.86278    
   4010000   300.20994      0.94930035     0.40581423    -23597.363      28.093581     -33.433646      6.5575072      115.81161      115.90582      115.87441    
   4020000   299.80139      0.94594802     0.034828247   -23648.907      58.001224     -53.367639     -4.5291001      115.94825      116.04258      116.01113    
   4030000   300.26713      0.94757611    -0.0063552872  -23614.91       49.743113     -41.305112     -8.4570664      115.88181      115.97608      115.94465    
   4040000   299.73554      0.94744142     0.31602983    -23582.942     -36.468938      21.311982      16.105045      115.8873       115.98157      115.95015    
   4050000   300.17622      0.94816117     0.13136205    -23684.666      20.910124     -34.550271      14.034233      115.85797      115.95222      115.9208     
   4060000   299.10126      0.94764066    -0.057713      -23562.492      39.736173     -32.55421      -7.3551014      115.87918      115.97344      115.94202    
   4070000   300.11837      0.94904147     0.061763062   -23620.973     -21.633286      20.617892      1.2006832      115.82214      115.91636      115.88495    
   4080000   299.73764      0.94845397    -0.029405647   -23595.394      12.448308     -31.754994      19.218469      115.84604      115.94029      115.90887    
   4090000   299.35106      0.94727203    -0.051110028   -23584.944      15.600153      30.940106     -46.693589      115.89421      115.98849      115.95706    
   4100000   301.0296       0.94942581     0.29834953    -23604.013     -49.673741      29.37          21.19879       115.8065       115.90071      115.86931    
   4110000   299.3877       0.94963636     0.0042993834  -23677.131      9.5021676     -12.651311      3.1620411      115.79794      115.89215      115.86075    
   4120000   300.74379      0.94574488    -0.23758733    -23469.923     -33.611769     -1.5446746      34.443682      115.95655      116.05088      116.01944    
   4130000   299.79345      0.94492363    -0.1282539     -23344.345      63.664758     -9.4348951     -54.614625      115.99014      116.08449      116.05304    
   4140000   300.1901       0.94488662    -0.18556619    -23465.555      39.073622     -4.9249991     -34.705322      115.99165      116.08601      116.05456    
   4150000   299.65696      0.94632095     0.1939651     -23549.759     -20.134422      4.6045629      16.111754      115.93302      116.02733      115.99589    
   4160000   299.80828      0.94882298    -0.050188671   -23567.688     -24.840616      23.995171      0.69487885     115.83102      115.92525      115.89384    
   4170000   299.01967      0.95015735    -0.076945137   -23599.737      62.618683     -50.591069     -12.258449      115.77678      115.87096      115.83957    
   4180000   300.6495       0.94684718     0.0061409109  -23614.801      1.1841944      22.218272     -23.384044      115.91154      116.00583      115.9744     
   4190000   300.82011      0.95030728     0.22517011    -23582.884      13.527808     -20.443848      7.5915504      115.77069      115.86487      115.83347    
   4200000   300.96034      0.94835607    -0.20834715    -23578.33      -7.4156452      18.719624     -11.92902       115.85003      115.94427      115.91286    
   4210000   299.48504      0.94895727     0.045208315   -23787.459      6.4691191      16.167974     -22.501469      115.82556      115.91978      115.88838    
   4220000   300.30629      0.9490487      0.18644661    -23489.878      1.3474505     -32.362057      31.573947      115.82184      115.91606      115.88465    
   4230000   299.74964      0.95126303    -0.084753286   -23759.743      17.387612     -31.869174      14.227302      115.7319       115.82605      115.79467    
   4240000   300.54914      0.94881664     0.080942677   -23583.231      24.786122     -90.371075      65.827781      115.83128      115.92551      115.8941     
   4250000   299.22571      0.94890938     0.32663323    -23596.796      73.163206     -69.742131     -2.4411758      115.82751      115.92173      115.89033    
   4260000   300.96828      0.94884285     0.035222956   -23677.866     -26.321642     -40.294035      66.721345      115.83022      115.92444      115.89303    
   4270000   299.778        0.94617175    -0.13880785    -23523.806     -97.013684      14.160517      82.436744      115.93911      116.03343      116.00199    
   4280000   300.80767      0.94867528    -0.1944593     -23587.592      27.018359     -51.095635      23.493898      115.83704      115.93127      115.89986    
   4290000   300.32102      0.95024014    -0.33701507    -23787.765     -29.730199      10.538933      18.180221      115.77341      115.8676       115.8362     
   4300000   300.35088      0.945896       0.14448276    -23483.62       50.342851     -16.765209     -33.144193      115.95038      116.0447       116.01326    
   4310000   299.68498      0.94815056    -0.401745      -23614.864      11.599634      35.061705     -47.866574      115.8584       115.95265      115.92123    
   4320000   300.18857      0.94833397     0.060712936   -23720.727     -12.451866     -2.6222441      15.256249      115.85093      115.94518      115.91376    
   4330000   300.03311      0.95122931     0.33750243    -23801.748      53.684516     -26.327891     -26.344118      115.73327      115.82742      115.79604    
   4340000   300.72766      0.94746904     0.33832344    -23542.766     -28.037375      15.47119       13.581155      115.88617      115.98045      115.94902    
   4350000   300.75915      0.95067963    -0.066445881   -23559.28       7.4791566     -20.709427      13.030933      115.75557      115.84974      115.81835    
   4360000   300.28738      0.94800219     0.040137429   -23562.808      37.379634     -2.4179012     -34.84132       115.86444      115.9587       115.92728    
   4370000   299.48921      0.95028685     0.035557076   -23634.794     -33.198911      62.08653      -28.780948      115.77152      115.8657       115.8343     
   4380000   301.8638       0.9479235     -0.20979738    -23386.934     -7.15337       -18.970015      25.493993      115.86765      115.96191      115.93049    
   4390000   301.21898      0.94757187    -0.035178231   -23461.196     -39.385723     -2.3356494      41.615838      115.88198      115.97625      115.94483    
   4400000   300.04522      0.9490761     -0.10297342    -23585.721     -6.4805649     -6.6335823      12.805227      115.82073      115.91495      115.88354    
   4410000   299.79321      0.94664767    -0.49590562    -23493.304     -14.495627      3.2000172      9.8078924      115.91968      116.01398      115.98255    
   4420000   299.45727      0.94838585     0.24091983    -23597.212      35.926605     -15.054654     -20.149191      115.84882      115.94306      115.91165    
   4430000   300.16993      0.95015682     0.063701932   -23754.646      68.781923     -61.514531     -7.0762859      115.7768       115.87098      115.83959    
   4440000   299.18199      0.94897724     0.66315199    -23681.683     -6.4912347      6.3502707      2.13042        115.82475      115.91897      115.88756    
   4450000   300.08144      0.94708959     0.022616259   -23564.625     -10.264391     -5.4148364      15.747076      115.90165      115.99593      115.9645     
   4460000   299.7667       0.94957098    -0.406237      -23728.826     -5.4084131     -37.470176      41.659878      115.8006       115.89481      115.86341    
   4470000   299.06859      0.9506408     -0.014371642   -23817.858      10.195843      10.511008     -20.749967      115.75715      115.85132      115.81993    
   4480000   300.32713      0.94921535    -0.071351572   -23701.141      1.7539461     -35.331031      33.36303       115.81506      115.90928      115.87787    
   4490000   300.28754      0.94890504    -0.27732333    -23571.74       29.927007     -61.273191      30.514214      115.82769      115.92191      115.8905     
   4500000   301.10829      0.94814417    -0.27741863    -23663.292     -18.601833     -12.213636      29.983213      115.85866      115.95291      115.92149    
   4510000   300.48123      0.94634725    -0.043650328   -23477.505      1.2159481      13.920491     -15.26739       115.93195      116.02626      115.99482    
   4520000   299.75968      0.94690628    -0.38170932    -23666.972     -36.23531       19.045619      16.044563      115.90913      116.00342      115.97199    
   4530000   300.37568      0.94946586    -0.20371761    -23436.899     -33.749559      15.894379      17.244027      115.80488      115.89908      115.86768    
   4540000   300.56331      0.94986418    -0.27390025    -23486.475     -59.864994      52.434122      6.6091709      115.78869      115.88288      115.85148    
   4550000   300.57077      0.95120514    -0.025375501   -23613.762     -7.0120825     -44.489736      51.425692      115.73425      115.8284       115.79702    
   4560000   300.51768      0.94957218    -0.34172767    -23596.426      26.195505     -42.646606      15.425918      115.80055      115.89476      115.86336    
   4570000   299.95483      0.94808058    -0.23079018    -23608.269      16.704675      3.8312841     -21.228329      115.86125      115.9555       115.92409    
   4580000   299.70314      0.94929194     0.064722623   -23742.611      7.5780518     -12.404932      5.0210479      115.81195      115.90616      115.87476    
   4590000   300.36007      0.94893454    -0.27534941    -23532.859     -20.840468      29.909948     -9.8955287      115.82649      115.92071      115.8893     
   4600000   301.20094      0.95042597    -0.092084365   -23711.784     -8.2922094     -11.673076      19.689032      115.76587      115.86004      115.82865    
   4610000   299.42299      0.94648712     0.016995145   -23418.35       23.414718      16.482181     -39.845914      115.92623      116.02054      115.9891     
   4620000   300.84264      0.94830347    -0.21593301    -23624.171      11.218603     -11.831853     -0.034548862    115.85217      115.94642      115.915      
   4630000   300.41623      0.94871976     0.039943068   -23360.085      16.750537      3.1755673     -19.806275      115.83523      115.92946      115.89805    
   4640000   299.74512      0.949942      -0.096259402   -23632.63       27.14396       9.5148545     -36.947593      115.78552      115.87972      115.84832    
   4650000   300.55021      0.94892778    -0.20659639    -23642.013     -0.75919802    -12.324542      12.46395       115.82676      115.92099      115.88958    
   4660000   299.69365      0.95050942     0.28925493    -23618.045      33.938077      5.7959369     -38.866249      115.76248      115.85665      115.82526    
   4670000   299.70135      0.9465329      0.065881167   -23413.103      31.799937     -36.180457      4.5781636      115.92436      116.01867      115.98723    
   4680000   299.6231       0.946659      -0.35279062    -23462.143      12.245531     -10.290388     -3.0135145      115.91922      116.01352      115.98208    
   4690000   300.70789      0.94930419     0.17498329    -23471.083      63.834765     -41.0772       -22.232616      115.81145      115.90566      115.87426    
   4700000   299.67019      0.94978028     0.16030187    -23639.949      4.3889168      29.628886     -33.536897      115.7921       115.88629      115.85489    
   4710000   300.6214       0.95127752     0.12199648    -23804.615      49.593217     -34.085625     -15.141603      115.73131      115.82546      115.79408    
   4720000   299.24087      0.94853142     0.27447544    -23533.16       33.84157      -11.994964     -21.023179      115.84289      115.93713      115.90572    
   4730000   299.332        0.95001598     0.078989477   -23523.998      28.327035     -37.284453      9.1943861      115.78252      115.87671      115.84531    
   4740000   299.85371      0.94906966     0.52769189    -23631.244      11.005476      3.0326698     -12.45507       115.82099      115.91521      115.8838     
   4750000   300.00847      0.94673085     0.14561837    -23525.6        38.470213     -39.136382      1.1030234      115.91629      116.01058      115.97915    
   4760000   300.11973      0.94599271     0.20521666    -23531.864      32.30593      -41.316361      9.6260807      115.94643      116.04075      116.00931    
   4770000   299.99044      0.95065076     0.21104243    -23657.243     -23.491726      44.404894     -20.280041      115.75674      115.85091      115.81952    
   4780000   299.57843      0.94629648    -0.002551981   -23511.657      98.79282      -42.329958     -56.470518      115.93402      116.02833      115.99689    
   4790000   299.23739      0.94817894    -0.059569825   -23444.847      22.547099     -16.021198     -6.7046102      115.85724      115.95149      115.92008    
   4800000   299.19066      0.94759911    -0.21701822    -23502.525     -28.987208      49.74951      -21.413357      115.88087      115.97514      115.94372    
   4810000   300.15893      0.94589188    -0.27156686    -23490.575      36.210074      11.591592     -48.616367      115.95055      116.04487      116.01343    
   4820000   300.43912      0.94831521     0.19053131    -23630.571     -25.457601     -28.438447      54.467642      115.85169      115.94594      115.91452    
   4830000   299.81008      0.94709837    -0.40644335    -23425.453     -8.6937961      26.796689     -19.322223      115.90129      115.99557      115.96415    
   4840000   299.68765      0.94807867     0.26391975    -23603.157     -18.3924        4.8935843      14.290575      115.86133      115.95558      115.92416    
   4850000   299.05686      0.95064667     0.019080657   -23828.286      4.0032894     -29.331286      25.385239      115.75691      115.85108      115.81969    
   4860000   299.61268      0.94969982    -0.019857311   -23640.952      42.184624      23.878572     -66.122768      115.79537      115.88956      115.85817    
   4870000   300.4109       0.95017506     0.0018341324  -23653.011     -53.081994      71.214481     -18.126984      115.77606      115.87024      115.83885    
   4880000   300.38058      0.949185      -0.35091024    -23655.889     -39.335446      32.399069      5.8836464      115.8163       115.91051      115.87911    
   4890000   298.60101      0.95049809     0.10495882    -23669.826      12.644048      18.452966     -30.782138      115.76294      115.85711      115.82572    
   4900000   299.87078      0.94918705    -0.18938765    -23771.355      5.8938789      20.453251     -26.915293      115.81621      115.91043      115.87902    
   4910000   299.94887      0.94821433     0.17116026    -23492.984     -25.789498      10.215869      16.08711       115.8558       115.95005      115.91864    
   4920000   299.80809      0.94632541     0.55167932    -23475.155      29.338249     -25.961601     -1.7216104      115.93284      116.02715      115.99571    
   4930000   300.33946      0.94948922    -0.49922062    -23652.771     -53.622577      36.795424      15.329491      115.80393      115.89813      115.86673    
   4940000   298.55375      0.94900318     0.45602788    -23491.348     -21.531861      1.428078       21.471867      115.82369      115.91792      115.88651    
   4950000   300.11018      0.94982413     0.031391469   -23648.1        12.361951     -6.8202692     -5.4475078      115.79031      115.88451      115.85311    
   4960000   300.66524      0.94854753    -0.32181135    -23484.618      46.455926      9.9776542     -57.399014      115.84224      115.93647      115.90506    
   4970000   299.63049      0.94614668    -0.031658093   -23545.892      13.02219      -28.218069      15.100905      115.94014      116.03445      116.00301    
   4980000   300.55672      0.94833363    -0.12143468    -23659.405     -23.053242      24.500859     -1.8119213      115.85094      115.94519      115.91377    
   4990000   300.38953      0.94871709     0.060478651   -23601.264     -31.913677      32.945921     -0.85080829     115.83533      115.92957      115.89816    
   5000000   300.01781      0.95079392     0.043486406   -23842.364     -0.78585193    -35.458721      36.375032      115.75093      115.8451       115.81371    
   5010000   300.1255       0.94794892    -0.26945408    -23539.594     -10.361595     -33.446536      42.999769      115.86661      115.96087      115.92945    
   5020000   299.26864      0.94859389     0.28497022    -23708.726     -63.761588      14.823641      49.792858      115.84035      115.93458      115.90317    
   5030000   299.27965      0.94856258    -0.16195598    -23443.533     -8.6864153      5.2465395      2.9540078      115.84162      115.93586      115.90445    
   5040000   299.79744      0.94685008     0.25368979    -23376.52      -63.566919      31.29395       33.034039      115.91142      116.00571      115.97428    
   5050000   299.80834      0.94882369    -0.2363676     -23432.164     -8.9837202     -75.551553      83.82617       115.831        115.92522      115.89381    
   5060000   299.54963      0.95142901    -0.046522642   -23667.847     -37.507271      5.799103       31.5686        115.72517      115.81931      115.78793    
   5070000   299.78594      0.94964346     0.19168209    -23621.015     -19.133224     -44.990249      64.698519      115.79766      115.89186      115.86046    
   5080000   299.2734       0.94881333     0.0030267608  -23645.652     -25.239082     -23.161719      48.409881      115.83142      115.92565      115.89424    
   5090000   299.79851      0.95013754    -0.22387031    -23683.823      17.612896     -100.30073      82.016218      115.77758      115.87177      115.84037    
   5100000   300.35638      0.94955369     0.28040585    -23705.908      0.44870145    -13.588247      13.980763      115.80131      115.89551      115.86411    
   5110000   299.49997      0.94876072    -0.27811109    -23661.025      12.844796      41.45889      -55.13802       115.83356      115.92779      115.89638    
   5120000   299.78561      0.94736106    -0.20168815    -23660.065      12.542922     -6.2426913     -6.9052954      115.89058      115.98485      115.95343    
   5130000   299.62265      0.95004251    -0.42271099    -23650.471      11.425869      32.714134     -45.408136      115.78144      115.87563      115.84423    
   5140000   300.67144      0.94817227    -0.11873058    -23591.856     -15.418151     -13.184064      28.246024      115.85752      115.95177      115.92035    
   5150000   299.87973      0.95019781    -0.16607142    -23628.26       46.987276     -13.781619     -33.703871      115.77513      115.86932      115.83792    
   5160000   300.13933      0.94826453    -0.1084434     -23612.04      -57.389892     -11.767284      68.831846      115.85376      115.94801      115.91659    
   5170000   299.87927      0.94771591     0.06731723    -23520.888      10.826702     -12.093165      1.4684139      115.87611      115.97037      115.93895    
   5180000   300.34758      0.94762074     0.078101136   -23626.158      23.508234     -45.267827      21.993897      115.87999      115.97426      115.94283    
   5190000   300.24379      0.95031809    -0.032205635   -23693.086      62.41043      -99.729285      37.222238      115.77025      115.86443      115.83303    
   5200000   299.85245      0.95114501    -0.084884651   -23595.01      -53.597799      27.256892      26.086253      115.73669      115.83084      115.79946    
   5210000   300.63731      0.94830821     0.27763616    -23556.709     -49.582161      88.212063     -37.796993      115.85198      115.94623      115.91481    
   5220000   300.14177      0.94735667     0.051365425   -23445.911      46.106847     -68.30135       22.348599      115.89075      115.98503      115.95361    
   5230000   300.62845      0.94813762     0.113556      -23564.266     -6.4987569      24.033056     -17.193631      115.85893      115.95318      115.92176    
   5240000   300.33284      0.94702788     0.15082051    -23527.638     -24.261468     -32.442831      57.156761      115.90416      115.99845      115.96702    
   5250000   299.23942      0.94693243     0.29601805    -23515.407      1.55548       -8.2829733      7.6155475      115.90806      116.00235      115.97092    
   5260000   300.20037      0.94741967    -0.054029441   -23474.457     -11.812676     -7.7930823      19.44367       115.88819      115.98246      115.95104    
   5270000   299.5315       0.94899924     0.28567675    -23715.687     -39.459206      31.136071      9.1801654      115.82385      115.91808      115.88667    
   5280000   299.61257      0.94460549    -0.116203      -23358.081      17.353986     -5.5290117     -12.173583      116.00316      116.09753      116.06607    
   5290000   299.14224      0.94874067    -0.54130297    -23466.471      1.3594796      19.426003     -22.409392      115.83437      115.92861      115.8972     
   5300000   299.32341      0.94954343    -0.038469098   -23517.515      20.217297      28.521975     -48.85468       115.80172      115.89593      115.86453    
   5310000   300.86975      0.94974948    -0.036287072   -23544.039     -1.765781       45.807663     -44.150743      115.79335      115.88754      115.85615    
   5320000   298.97662      0.94901919     0.15116451    -23690.972      27.33803      -27.179232      0.29469564     115.82304      115.91726      115.88586    
   5330000   299.51022      0.94941152    -0.025915498   -23432.595     -41.577504      9.6348842      31.864874      115.80709      115.90129      115.86989    
   5340000   299.66107      0.94750494    -0.36405662    -23603.56      -3.7932358     -15.595662      18.296728      115.88471      115.97898      115.94756    
   5350000   301.13684      0.95075967    -0.30509343    -23554.9       -2.0782905      23.639841     -22.476831      115.75232      115.84649      115.8151     
   5360000   299.05307      0.94863603    -0.24900153    -23572.022      17.923449     -44.089865      25.419411      115.83863      115.93287      115.90146    
   5370000   300.05856      0.94878744    -0.13045439    -23641.028      10.602869      8.7416354     -19.735868      115.83247      115.9267       115.89529    
   5380000   300.8295       0.94689082     0.011419797   -23514.786     -26.982677      77.810377     -50.793441      115.90976      116.00405      115.97262    
   5390000   299.79143      0.94801783     0.14494542    -23650.287      47.904253     -16.88962      -30.579797      115.86381      115.95806      115.92664    
   5400000   299.37146      0.95067459    -0.13664775    -23676.426     -34.882432      31.582935      2.8895536      115.75578      115.84994      115.81855    
   5410000   300.96253      0.94767619     0.049075426   -23611.954      10.805622     -24.378694      13.720298      115.87773      115.972        115.94057    
   5420000   298.89755      0.94751902     0.02508946    -23674.934     -16.124359     -0.67240278     16.87203       115.88414      115.97841      115.94698    
   5430000   300.21235      0.94746607     0.12181927    -23698.861     -47.369467      48.355972     -0.62104673     115.88629      115.98057      115.94914    
   5440000   300.52175      0.95075467     0.14710504    -23654.702     -10.59543      -2.4369919      13.473737      115.75253      115.84669      115.8153     
   5450000   298.80488      0.94924188     0.088139781   -23708.323     -23.400995      5.3156321      18.349783      115.81398      115.9082       115.87679    
   5460000   300.20404      0.94940787     0.12132394    -23747.724      6.163493       36.251643     -42.051164      115.80723      115.90144      115.87004    
   5470000   299.23402      0.94836982     0.16299027    -23526.161      9.1673343      37.73072      -46.409084      115.84947      115.94371      115.9123     
   5480000   299.77216      0.94583954     0.1446211     -23330.475      46.446958     -56.113151      10.100057      115.95268      116.04701      116.01557    
   5490000   299.96153      0.94918575    -0.36475589    -23441.516      46.286023     -21.022406     -26.357885      115.81627      115.91048      115.87908    
   5500000   299.52107      0.94899658    -0.042375434   -23471.737      13.01606       15.428098     -28.571284      115.82396      115.91818      115.88678    
   5510000   300.07739      0.94551996     0.12195306    -23393.664      34.32908      -49.272137      15.308917      115.96575      116.06008      116.02864    
   5520000   300.71695      0.94910182     0.19421487    -23488.044     -27.641305      4.8918589      23.332091      115.81968      115.9139       115.88249    
   5530000   300.00733      0.94807433    -0.34655826    -23690.205      21.634752     -3.7723605     -18.902066      115.86151      115.95576      115.92434    
   5540000   300.37969      0.94847376     0.24687287    -23671.474      66.886603     -38.31783      -27.828154      115.84524      115.93948      115.90807    
   5550000   300.63693      0.94606539    -0.27937387    -23478.499     -15.090314      16.336407     -2.0842145      115.94346      116.03778      116.00634    
   5560000   299.57215      0.94905797     0.30879526    -23648.624      34.924589      17.787206     -51.785409      115.82146      115.91568      115.88428    
   5570000   299.7356       0.94742295    -0.12905976    -23714.203      16.865851     -29.838545      12.585515      115.88805      115.98233      115.9509     
   5580000   300.09929      0.94844106    -0.016830746   -23585.425     -25.690729      12.32569       13.314547      115.84657      115.94081      115.9094     
   5590000   299.55667      0.9454282      0.067031578   -23471.158      66.65864      -34.651366     -31.806179      115.9695       116.06384      116.03239    
   5600000   299.93579      0.94891838    -0.0092995062  -23765.249      41.446874     -30.661592     -10.81318       115.82714      115.92137      115.88996    
   5610000   299.08136      0.94950029     0.040393136   -23596.282     -21.321778     -11.763226      33.206184      115.80348      115.89768      115.86628    
   5620000   300.06459      0.94766558     0.031880894   -23732.394      4.269296       18.856158     -23.029811      115.87816      115.97243      115.94101    
   5630000   299.27507      0.94805348    -0.35571719    -23679.789      8.0045934     -21.171204      12.099459      115.86235      115.95661      115.92519    
   5640000   299.34352      0.94848833     0.33461544    -23547.688     -10.804447     -12.759441      24.567734      115.84465      115.93889      115.90747    
   5650000   299.66069      0.95259083    -0.17439418    -23727.206      13.027523      8.7916182     -22.342324      115.6781       115.77221      115.74084    
   5660000   300.01885      0.94896557    -0.080438937   -23685.113     -32.956812      66.384037     -33.668542      115.82522      115.91945      115.88804    
   5670000   300.15735      0.94743862     0.12355775    -23493.384      14.373543     -12.407618     -1.5952525      115.88741      115.98169      115.95026    
   5680000   300.35012      0.94905421    -0.038497055   -23639.616      66.400935     -14.439916     -52.07651       115.82162      115.91584      115.88443    
   5690000   299.89273      0.94687315    -0.38178856    -23564.456      40.601227     -65.096342      23.349749      115.91048      116.00477      115.97334    
   5700000   300.49937      0.94866251    -0.24615726    -23672.276     -22.985737     -27.843096      50.090361      115.83756      115.93179      115.90038    
   5710000   298.87889      0.94755134    -0.26361044    -23452.444     -51.183504      18.245492      32.147181      115.88282      115.97709      115.94566    
   5720000   299.55221      0.95084197     0.36850995    -23670.112      25.635665     -12.399096     -12.131039      115.74898      115.84314      115.81176    
   5730000   300.32736      0.94845484    -0.56548276    -23582.784      16.077984     -37.754101      19.979669      115.84601      115.94025      115.90884    
   5740000   301.0536       0.94976875    -0.061022371   -23438.656      52.862828     -27.894005     -25.151891      115.79256      115.88676      115.85536    
   5750000   300.19449      0.95062628     0.095149411   -23555.92       52.673283     -57.281918      4.8940832      115.75774      115.8519       115.82052    
   5760000   301.32443      0.94915295     0.27179223    -23744.487      24.702732     -4.8642141     -19.023141      115.8176       115.91182      115.88041    
   5770000   300.03003      0.94912696     0.13197921    -23510.379      15.732287      11.536804     -26.873153      115.81866      115.91288      115.88147    
   5780000   299.83347      0.9474281      0.13252965    -23562.283     -14.610733      31.222635     -16.214312      115.88784      115.98212      115.95069    
   5790000   300.11701      0.9506869      0.19472505    -23791.966     -21.527396      33.289939     -11.178368      115.75528      115.84944      115.81805    
   5800000   299.54291      0.94591868     0.19745205    -23591.635      1.6426881     -25.979814      24.929482      115.94945      116.04378      116.01233    
   5810000   300.52464      0.94975224    -0.0086623696  -23673.146      4.9412166     -17.202724      12.235521      115.79324      115.88743      115.85603    
   5820000   299.80843      0.95030612    -0.50438946    -23743.322     -4.9259765     -13.332868      16.745676      115.77073      115.86491      115.83352    
   5830000   299.14259      0.95076863    -0.04876777    -23668.556      23.616971     -1.2315947     -22.531679      115.75196      115.84612      115.81473    
   5840000   299.95901      0.94982749     0.16604202    -23645.513      1.4085585     -23.576312      22.665879      115.79018      115.88437      115.85297    
   5850000   299.29699      0.94661296    -0.073769598   -23581.145     -1.3125411     -8.1355591      9.2267914      115.9211       116.0154       115.98396    
   5860000   299.69192      0.94690231     0.1286303     -23444.918      14.726336     -41.156058      26.815613      115.90929      116.00358      115.97215    
   5870000   300.61495      0.94769291     0.29293821    -23504.632      20.816818     -37.995379      18.057375      115.87705      115.97131      115.93989    
   5880000   300.18126      0.95058341    -0.090791939   -23678.984     -44.853999      21.734045      22.847578      115.75948      115.85365      115.82226    
   5890000   299.89206      0.9520722      0.16333405    -23649.449      7.6361282     -27.574417      20.428291      115.69911      115.79323      115.76185    
   5900000   299.70546      0.94604084     0.011521002   -23486.856     -5.7202135      15.120942     -9.3661651      115.94446      116.03878      116.00734    
   5910000   300.33614      0.94989828    -0.03911111    -23673.297      43.046591     -35.701113     -7.4628109      115.7873       115.88149      115.8501     
   5920000   299.81058      0.94743913     0.073955942   -23490.917      45.354442     -58.235798      13.103224      115.88739      115.98167      115.95024    
   5930000   299.66331      0.94730181     0.24084601    -23595.813      6.0099911     -11.262148      5.9746948      115.89299      115.98727      115.95584    
   5940000   299.13483      0.94705721     0.010877248   -23530.262      0.45060462    -6.4400334      6.0220605      115.90297      115.99726      115.96583    
   5950000   299.90709      0.94925959     0.026202945   -23651.641      20.618241     -4.3180738     -16.221558      115.81326      115.90748      115.87607    
   5960000   299.77185      0.95170098     0.031008955   -23703.439     -18.912299     -11.484049      30.489375      115.71415      115.80828      115.7769     
   5970000   300.2988       0.94390589    -0.023508578   -23440.057      33.247126      6.8922856     -40.209937      116.03181      116.1262       116.09474    
   5980000   299.84632      0.94690868    -0.31473979    -23452.812      13.4638       -24.920253      10.512233      115.90903      116.00332      115.97189    
   5990000   299.87891      0.94785028     0.00047789913 -23436.255      41.225978     -30.319814     -10.90473       115.87063      115.96489      115.93347    
   6000000   299.92779      0.94758115     0.22854528    -23364.246     -25.98889      -15.559324      42.233849      115.8816       115.97587      115.94445    
   6000864   301.73696      0.94832279    -0.19324074    -23575.738     -13.759091      10.496039      2.6833304      115.85139      115.94563      115.91422    
Loop time of 2255.72 on 16 procs for 5000000 steps with 12350 atoms

Performance: 191.513 ns/day, 0.125 hours/ns, 2216.586 timesteps/s, 27.375 Matom-step/s
97.5% CPU use with 16 MPI tasks x no OpenMP threads

MPI task timing breakdown:
Section |  min time  |  avg time  |  max time  |%varavg| %total
---------------------------------------------------------------
Pair    | 832.48     | 887.45     | 970.47     |  97.5 | 39.34
Bond    | 329.22     | 343.84     | 352.1      |  31.0 | 15.24
Neigh   | 95.902     | 95.959     | 96.053     |   0.4 |  4.25
Comm    | 424.01     | 500.1      | 575.84     | 149.6 | 22.17
Output  | 3.0126     | 3.8844     | 4.7485     |  27.4 |  0.17
Modify  | 374.67     | 382.33     | 393.45     |  31.9 | 16.95
Other   |            | 42.16      |            |       |  1.87

Nlocal:        771.875 ave         790 max         753 min
Histogram: 1 0 2 1 4 3 3 1 0 1
Nghost:        2304.06 ave        2325 max        2277 min
Histogram: 1 0 1 1 4 1 3 2 1 2
Neighs:        26032.5 ave       26914 max       25373 min
Histogram: 2 0 5 1 2 2 1 2 0 1

Total # of neighbors = 416520
Ave neighs/atom = 33.726316
Ave special neighs/atom = 5.76
Neighbor list builds = 89060
Dangerous builds = 0
unfix               3
undump              min
unfix               minp

write_data          pdms_50_nvt_relaxation.data
System init for write_data ...
Generated 0 of 0 mixed pair_coeff terms from geometric mixing rule
# -----------------------------------------------------
# 5. npt下拉伸
# -----------------------------------------------------
# 计算应力
reset_timestep      0
timestep            1
compute             slabpressperatom slabs stress/atom NULL
compute             2 slabs reduce sum c_slabpressperatom[1] c_slabpressperatom[2]
variable            CorVol equal 30*30*30
variable            slabsigmaxx equal c_2[1]/(v_CorVol*10)
compute             3 all reduce sum c_pressperatom[1] c_pressperatom[2]
variable            sigmaxx equal c_3[1]/(vol*10)
# 计算应变值
variable            tmp equal "lx"
variable            L0 equal ${tmp}
variable            L0 equal 115.851386108542
variable            strain equal "(lx - v_L0)/v_L0"
#dump输出
dump                1 all custom 100000 dump.pdms.lammpstrj id type x y z vx vy vz v_pxxperatom v_pyyperatom v_pzzperatom v_Pxxpairperatom v_Pyypairperatom v_Pzzpairperatom v_Pxxbondperatom v_Pyybondperatom v_Pzzbondperatom v_Pxxangleperatom v_Pyyangleperatom v_Pzzangleperatom v_Pxxdihedralperatom v_Pyydihedralperatom v_Pzzdihedralperatom c_peperatom c_Epairperatom c_Ebondperatom c_Eangleperatom c_Edihedralperatom
# 设置npt系综
fix                 1 all npt temp 300 300 50 y 0 0 50 z 0 0 50 drag 2
# deform拉伸，x方向
fix                 2 all deform 1 x erate 1e-7 units box remap x
# 热力学输出
# fix                 ave_sxx all ave/time 100 100 10000 v_strain v_sigmaxx v_px file stress_profile.dat ave one
# fix                 ave_sxx2 all ave/time 1000 200 200000 v_strain v_sigmaxx v_px file stress_profile2.dat ave one
# fix                 ave_sxx3 all ave/time 200 1000 200000 v_strain v_sigmaxx v_px file stress_profile3.dat ave one
# fix                 ave_sxx4 all ave/time 1000 1000 1000000 v_strain v_sigmaxx v_px file stress_profile4.dat ave one
fix                 origin all print 100 "${strain} ${sigmaxx} ${etotal}" file origin100.txt screen no
# thermo_style        custom step temp v_strain v_sigmaxx density press pxx pyy pzz lx ly lz etotal
thermo_style        custom step temp density etotal ebond eangle edihed epair v_strain v_sigmaxx press pxx pyy pzz lx ly lz
thermo              10000

# 启动模拟，n步
run                 3000000
Generated 0 of 0 mixed pair_coeff terms from geometric mixing rule
Per MPI rank memory allocation (min/avg/max) = 15.08 | 15.23 | 15.55 Mbytes
   Step          Temp         Density         TotEng         E_bond        E_angle        E_dihed         E_pair        v_strain      v_sigmaxx        Press           Pxx            Pyy            Pzz             Lx             Ly             Lz      
         0   301.73696      0.94832279    -23575.738      3609.2711      5013.3242      2183.09       -45488.368     -3.6799356e-15  1.3759091     -0.19324074    -13.759091      10.496039      2.6833304      115.85139      115.94563      115.91422    
     10000   299.39943      0.9500682     -23533.417      3745.2846      5065.0467      2169.4592     -45534.108      0.001         -1.6381963      5.2502798      16.381963     -0.79633741     0.16521348     115.96724      115.69513      115.83594    
     20000   298.78342      0.94716945    -23584.96       3682.7798      4990.9039      2170.881      -45427.75       0.002         -5.9775918      20.180232      59.775918      1.036418      -0.27164186     116.08309      116.25075      115.51971    
     30000   301.96477      0.94785753    -23531.935      3731.699       4985.7698      2189.6239     -45554.358      0.003          1.912427      -6.5205667     -19.12427       0.44342923    -0.88085971     116.19894      116.42849      115.14471    
     40000   299.61209      0.94744783    -23563.015      3709.4055      4937.4239      2186.8993     -45425.471      0.004         -0.7623895      2.4794186      7.623895      -0.56253852     0.37689933     116.31479      116.93696      114.57938    
     50000   300.46142      0.94908277    -23694.425      3745.8066      4892.0284      2196.8919     -45589.144      0.005         -4.8174027      15.950901      48.174027     -0.66258562     0.34126128     116.43064      116.21984      114.97326    
     60000   300.77742      0.94920595    -23607.045      3781.4707      4978.951       2178.5992     -45617.69       0.006          0.16984666    -0.44280535    -1.6984666      1.3152462     -0.9451956      116.54649      115.6704       115.38959    
     70000   300.54906      0.9491711     -23395.864      3741.6795      5031.8246      2169.1718     -45401.758      0.007         -3.2625216      10.957999      32.625216      0.30351123    -0.054730207    116.66235      115.60471      115.34473    
     80000   301.81934      0.94955861    -23566.862      3684.84        5054.5173      2180.1937     -45596.39       0.008         -0.99952227     3.0996945      9.9952227     -0.62973522    -0.066404012    116.7782       114.97514      115.81399    
     90000   299.21962      0.95030305    -23611.449      3763.0329      5076.5613      2189.495      -45654.819      0.009         -10.442109      34.815429      104.42109     -0.030036874    0.055231464    116.89405      114.96075      115.62305    
    100000   300.77643      0.94955377    -23527.041      3759.1522      5055.1452      2186.3737     -45599.3        0.01           1.0809429     -3.7163935     -10.809429     -0.093237586   -0.24651419     117.0099       114.78488      115.77683    
    110000   299.93424      0.94994694    -23583.835      3713.5033      5052.0294      2190.7209     -45580.675      0.011         -0.3044615      1.2387795      3.044615       0.65373497     0.017988669    117.12575      115.02614      115.37195    
    120000   300.10033      0.94508249    -23486.129      3642.2759      4926.0754      2183.499      -45284.679      0.012         -3.698582       12.422073      36.98582       0.036394517    0.24400371     117.2416       115.17935      115.69708    
    130000   300.39982      0.95042419    -23770.254      3707.3599      4974.1626      2158.5915     -45668.093      0.013          9.6234596     -31.965226     -96.234596     -0.48265502     0.82157396     117.35745      114.91564      115.19701    
    140000   299.19488      0.94994798    -23679.821      3719.9065      5066.6891      2167.6896     -45647.477      0.014          7.7771864     -25.456903     -77.771864      1.6594131     -0.25825932     117.47331      114.84938      115.20753    
    150000   301.61077      0.94725047    -23631.554      3667.6173      4885.3701      2174.5102     -45461.351      0.015         -0.86044283     2.9224359      8.6044283     -0.089072912    0.25195242     117.58916      114.76752      115.50411    
    160000   301.21473      0.94962279    -23594.061      3639.0016      5056.5042      2184.6119     -45561.9        0.016         -0.032886385    0.1628475      0.32886385     0.20591562    -0.046236974    117.70501      115.17157      114.69834    
    170000   302.63275      0.94695877    -23562.788      3643.0496      4971.5317      2180.0295     -45497.317      0.017         -1.257492       4.1095183      12.57492      -0.81079738     0.56443209     117.82086      115.11755      114.96184    
    180000   300.81788      0.94612324    -23571.914      3689.9348      5018.225       2160.8848     -45514.071      0.018          0.98429079    -3.5850005     -9.8429079     -0.20179773    -0.71029569     117.93671      114.59077      115.47877    
    190000   300.84267      0.9484175     -23567.845      3724.4845      5042.3265      2179.5123     -45588.194      0.019          2.6722013     -8.9729478     -26.722013     -0.35862289     0.16179304     118.05256      114.23994      115.4398     
    200000   300.82713      0.94817178    -23641.202      3705.5467      4948.3927      2164.3928     -45532.988      0.02           0.058451729   -0.35316048    -0.58451729     0.4842258     -0.95918996     118.16841      113.5502       116.05723    
    210000   301.04809      0.94699227    -23557.208      3716.1817      4947.777       2144.503      -45447.257      0.021         -7.256648       24.309962      72.56648      -0.31274661     0.67615241     118.28427      114.04285      115.58648    
    220000   297.72406      0.94661074    -23528.262      3811.1066      4973.7343      2147.3251     -45419.657      0.022          6.9953447     -23.337791     -69.953447     -0.29350701     0.23357982     118.40012      113.77749      115.78935    
    230000   302.58374      0.94844866    -23610.132      3668.9804      4871.2364      2183.7703     -45472.234      0.023         -3.4778643      11.47793       34.778643     -1.0137654      0.66891388     118.51597      113.42181      115.81405    
    240000   300.17837      0.95019573    -23666.454      3676.9675      5024.3264      2188.2681     -45605.589      0.024          3.5897186     -11.895364     -35.897186     -0.63617223     0.8472669      118.63182      113.52985      115.37831    
    250000   299.4178       0.94824512    -23469.713      3767.3927      5068.47        2174.0019     -45501.154      0.025          0.69449766    -2.2383758     -6.9449766      0.27200635    -0.042157069    118.74767      113.64031      115.39059    
    260000   300.43166      0.9511163     -23795.814      3652.1903      5015.0355      2168.6745     -45690.611      0.026          0.98294121    -3.2898241     -9.8294121     -0.49463181     0.45457155     118.86352      113.92387      114.64406    
    270000   300.27694      0.94695723    -23456.938      3690.2428      5052.3884      2176.5816     -45429.352      0.027         -5.0203972      17.00717       50.203972      0.76950713     0.048030837    118.97937      114.60032      114.35645    
    280000   298.21418      0.94885003    -23581.623      3754.3175      5063.6753      2162.89       -45539.777      0.028         -7.0286001      23.271274      70.286001     -0.47713045     0.0049506066   119.09522      114.46446      114.15263    
    290000   300.64787      0.94940561    -23588.111      3711.3171      5003.3552      2176.6543     -45546.293      0.029          9.8473087     -32.722192     -98.473087      0.081833242    0.22467608     119.21108      114.38166      114.05747    
    300000   301.17285      0.94852821    -23602.732      3725.575       5025.1666      2142.8156     -45582.469      0.03           7.3964406     -24.621397     -73.964406      0.064842575    0.035372919    119.32693      113.91424      114.52012    
    310000   298.25537      0.94788092    -23563.155      3709.571       5076.7848      2166.7        -45494.998      0.031         -0.06665917     0.075471521    0.6665917     -0.94193813     0.501761       119.44278      113.51273      114.89212    
    320000   299.66463      0.94409488    -23490.371      3706.8834      4960.9717      2149.4034     -45338.291      0.032          3.7385468     -12.554179     -37.385468      0.11357027    -0.39063945     119.55863      113.56266      115.19043    
    330000   301.65964      0.94584807    -23616.613      3708.8445      4855.5369      2179.7528     -45464.846      0.033          1.8762038     -6.5216434     -18.762038     -0.24761506    -0.5552769      119.67448      113.03173      115.40515    
    340000   298.3815       0.94894342    -23628.261      3743.102       5050.2643      2167.4219     -45572.479      0.034          0.46835029    -1.3679878     -4.6835029      0.83072071    -0.25118128     119.79033      112.64432      115.3127     
    350000   298.93784      0.9469599     -23602.974      3759.4596      4946.448       2190.0981     -45502.889      0.035          0.87304613    -2.66558       -8.7304613      0.59657172     0.13714946     119.90618      112.72864      115.35624    
    360000   300.15438      0.9472052     -23430.699      3716.9506      5039.2598      2186.684      -45422.283      0.036          2.7697397     -9.2658527     -27.697397     -0.32742992     0.22726937     120.02204      112.13083      115.8293     
    370000   302.68573      0.94570231    -23443.22       3702.2266      4944.2886      2149.2549     -45380.859      0.037         -1.7652261      5.818184       17.652261      0.40919717    -0.60690641     120.13789      112.62955      115.38829    
    380000   298.58092      0.94776589    -23591.285      3774.0887      4933.3231      2167.7755     -45457.242      0.038         -3.105711       10.496587      31.05711      -0.088411331    0.5210636      120.25374      112.2851       115.37899    
    390000   300.79115      0.95008753    -23573.953      3785.0711      5138.3033      2156.0128     -45725.47       0.039         -0.97214167     3.070468       9.7214167     -0.12038824    -0.38962443     120.36959      112.68503      114.57817    
    400000   300.80768      0.94842928    -23589.255      3740.6199      4979.5706      2146.1204     -45528.303      0.04           3.5597835     -12.177673     -35.597835     -0.70301548    -0.23216763     120.48544      113.6722       113.67232    
    410000   300.40496      0.94659086    -23597.427      3682.2619      4966.739       2154.866      -45459.208      0.041          0.63188412    -2.0911392     -6.3188412      0.66749646    -0.62207287     120.60129      114.1133       113.34386    
    420000   300.24546      0.94747359    -23544.299      3693.8873      5008.9996      2144.0183     -45443.246      0.042          6.1341243     -20.307016     -61.341243      0.35596412     0.064231166    120.71714      113.54376      113.69704    
    430000   299.97623      0.94534317    -23624.456      3665.0057      4890.4113      2147.1226     -45369.128      0.043          2.4437903     -8.0869282     -24.437903     -0.3857495      0.56286772     120.833        113.51437      113.87349    
    440000   299.47036      0.94739693    -23723.534      3776.879       4863.8         2166.5403     -45554.264      0.044          0.1546222     -0.47646831    -1.546222       0.056704805    0.060112282    120.94885      113.15073      113.88262    
    450000   299.18869      0.94661391    -23493.589      3730.5313      4963.2576      2148.101      -45348.622      0.045          8.0148976     -26.835286     -80.148976     -0.12180436    -0.23507838     121.0647       113.22388      113.79419    
    460000   301.21966      0.94957198    -23692.983      3684.5829      5044.6941      2133.5085     -45643.672      0.046         -6.9784727      22.929562      69.784727     -0.29035508    -0.70568719     121.18055      113.73577      112.82118    
    470000   301.23278      0.95151022    -23788.175      3729.2502      5017.1689      2134.0433     -45757.023      0.047         -2.8421312      9.2530019      28.421312     -0.85609004     0.19378361     121.2964       113.41988      112.79711    
    480000   302.36784      0.95201226    -23699.71       3707.0316      5075.3002      2109.3929     -45721.602      0.048          0.38739782    -1.2785456     -3.8739782     -0.094524896    0.13286627     121.41225      113.34826      112.70122    
    490000   301.22036      0.94876476    -23618.165      3727.1372      5022.1629      2133.6022     -45588.996      0.049          5.0701755     -16.999494     -50.701755      0.083685543   -0.38041375     121.5281       114.04082      112.29306    
    500000   297.29572      0.94742205    -23415.056      3791.8569      5137.3556      2117.5417     -45405.273      0.05          -0.60732632     2.0121199      6.0732632     -0.1719022      0.13499858     121.64396      114.01273      112.37278    
    510000   301.83991      0.9449464     -23523.925      3674.6726      4988.4842      2128.9982     -45426.813      0.051          6.9138148     -22.969798     -69.138148     -0.22312252     0.45187711     121.75981      114.38016      112.1984     
    520000   297.51019      0.94994601    -23639.849      3766.5044      5183.1246      2121.2125     -45662.048      0.052          1.5875716     -5.1578686     -15.875716      0.082644169    0.31946632     121.87566      113.37528      112.49009    
    530000   299.90516      0.94869308    -23759.294      3699.6844      4870.3189      2157.4638     -45526.277      0.053          2.4199703     -7.8861888     -24.199703     -0.30823656     0.84937351     121.99151      113.4508       112.45677    
    540000   297.97444      0.94665805    -23747.963      3761.8432      4857.9071      2143.6179     -45479.777      0.054          2.5636163     -8.5038558     -25.636163     -0.39567773     0.52027357     122.10736      112.93564      113.10519    
    550000   299.50919      0.94741372    -23661.419      3728.0925      4952.5953      2147.6951     -45514.742      0.055          3.5783656     -11.906562     -35.783656      0.041413028    0.022557125    122.22321      112.59277      113.25167    
    560000   297.77099      0.94632691    -23612.442      3720.9551      4894.5904      2149.4694     -45338.414      0.056         -7.317233       24.735354      73.17233       0.43853596     0.59519534     122.33906      112.8153       113.05094    
    570000   297.03919      0.95136241    -23807.805      3781.5802      5017.8042      2136.0337     -45677.243      0.057         -5.9791446      19.976372      59.791446      0.78547474    -0.6478048      122.45492      112.7148       112.44635    
    580000   296.6382       0.94717127    -23620.647      3749.925       5023.4949      2164.3856     -45477.711      0.058         -1.6474152      5.7233964      16.474152      0.23567235     0.46036469     122.57077      112.68758      112.86442    
    590000   301.47323      0.9479998     -23651.995      3696.3762      4905.2248      2168.8378     -45519.67       0.059         -3.1924312      10.485775      31.924312     -0.19460811    -0.27237804     122.68662      112.28232      113.06592    
    600000   298.70524      0.94698394    -23601.894      3741.4439      4941.5881      2170.2673     -45450.54       0.06           1.8419964     -6.2176873     -18.419964     -0.86847091     0.63537297     122.80247      111.13273      114.25016    
    610000   296.98151      0.94609816    -23543.481      3732.3102      4980.2779      2177.3563     -45365.322      0.061          7.1238718     -23.790308     -71.238718      0.58081466    -0.71302083     122.91832      111.60208      113.76886    
    620000   298.12729      0.94633376    -23615.178      3771.2966      4849.695       2154.6633     -45364.906      0.062         -2.7778607      9.4015345      27.778607      0.26330997     0.16268626     123.03417      112.47209      112.75444    
    630000   299.47533      0.94791683    -23598.337      3792.774       4989.6707      2160.7048     -45565.18       0.063         -3.7707254      12.735401      37.707254      0.8644192     -0.36547102     123.15002      112.82241      112.11104    
    640000   298.58698      0.94920717    -23693.277      3702.8834      5014.6982      2155.625      -45557.477      0.064         -0.6510634      1.9734231      6.510634      -0.39623794    -0.19412694     123.26587      112.88691      111.78951    
    650000   301.4312       0.94900754    -23601.001      3680.4177      5043.1331      2147.1102     -45567.351      0.065          8.4549162     -28.311569     -84.549162     -0.023450748   -0.36209347     123.38173      113.795        110.8166     
    660000   299.80771      0.94893252    -23648.271      3713.9289      4975.5646      2187.2809     -45560.974      0.066          3.1276261     -10.430247     -31.276261     -0.27637453     0.2618951      123.49758      113.16991      111.33297    
    670000   299.27461      0.94649765    -23512.455      3737.4902      4960.6165      2205.5215     -45432.388      0.067         -2.8015556      9.262998       28.015556     -0.12853166    -0.098030492    123.61343      113.5638       111.12797    
    680000   300.23237      0.94711637    -23679.578      3738.342       4865.9591      2170.0986     -45505.538      0.068          3.5332955     -11.797004     -35.332955      0.32715802    -0.3852151      123.72928      113.22347      111.2849     
    690000   297.7563       0.94910593    -23573.666      3751.8412      5009.6681      2189.1931     -45484.784      0.069          0.33775912    -0.70105079    -3.3775912      0.75702766     0.51741119     123.84513      112.88748      111.27795    
    700000   301.02107      0.94650573    -23492.065      3709.0675      4957.8287      2191.2874     -45430.841      0.07           7.2714776     -24.11693      -72.714776     -0.91579162     1.2797789      123.96098      113.36163      111.01309    
    710000   300.42321      0.94712455    -23564.126      3754.9794      4874.824       2190.6568     -45443.171      0.071          9.4231042     -31.640013     -94.231042     -0.78050294     0.091507125    124.07683      113.38387      110.81523    
    720000   300.42571      0.94841657    -23659.527      3648.5523      4980.7696      2172.9877     -45520.514      0.072          4.3370325     -14.64982      -43.370325     -1.3120963      0.7329601      124.19269      113.00659      110.93015    
    730000   300.4679       0.94436952    -23343.158      3680.4743      5052.0773      2189.501      -45325.441      0.073          12.050124     -40.05179      -120.50124      0.08909831     0.25676971     124.30854      113.05825      111.25085    
    740000   300.08285      0.94633487    -23685.904      3729.9778      4857.9083      2200.7513     -45520.598      0.074          5.5940509     -18.781338     -55.940509     -0.19978682    -0.20371786     124.42439      112.41911      111.54703    
    750000   301.03055      0.94855579    -23560.818      3737.0423      4972.0587      2183.0502     -45533.911      0.075         -0.052733532    0.21188891     0.52733532    -0.59228821     0.70061962     124.54024      112.25999      111.33993    
    760000   303.68441      0.94982382    -23438.072      3683.5729      5124.693       2180.7673     -45605.735      0.076          3.4081751     -11.639565     -34.081751     -0.61827377    -0.21867069     124.65609      111.85832      111.48685    
    770000   299.96363      0.94702322    -23358.124      3707.4722      5049.1992      2185.7351     -45342.199      0.077          8.1378914     -27.071882     -81.378914      0.97147485    -0.8082079      124.77194      112.08735      111.48446    
    780000   298.61104      0.94842689    -23579.286      3723.9751      4996.4183      2169.9314     -45461.49       0.078         -5.9881463      20.289274      59.881463     -0.094497181    1.0808546      124.88779      111.39379      111.90865    
    790000   298.45795      0.94980183    -23687.941      3714.904       5051.5475      2145.104      -45585.74       0.079         -0.25846036     1.1134885      2.5846036     -0.0017853699   0.75764734     125.00365      111.65798      111.37894    
    800000   301.03648      0.95018318    -23634.354      3690.6785      5066.6642      2164.0832     -45636.94       0.08          -1.3335762      4.5104496      13.335762      0.55222373    -0.3566364      125.1195       111.20095      111.6883     
    810000   299.10966      0.94690521    -23568.573      3726.1758      4900.2638      2187.7054     -45392.952      0.081          6.8365558     -22.863254     -68.365558     -0.17877788    -0.045427626    125.23535      111.00372      112.17021    
    820000   299.26741      0.94882161    -23501.245      3737.2014      5049.8774      2181.1891     -45485.553      0.082         -5.7306705      19.297758      57.306705      0.85907343    -0.27250362     125.3512       110.44754      112.40339    
    830000   301.34286      0.94770925    -23578.055      3682.3401      5027.6532      2201.5288     -45582.015      0.083          0.58714143    -1.885707      -5.8714143      0.12432558     0.089967808    125.46705      110.16761      112.71709    
    840000   299.073        0.94659455    -23549.378      3768.5677      4962.6658      2195.0182     -45484.514      0.084          2.1144491     -7.1323658     -21.144491      0.45076831    -0.70337456     125.5829       109.73219      113.1931     
    850000   301.20527      0.94872546    -23654.284      3728.4367      4930.7425      2205.5947     -45606.431      0.085         -0.86967384     2.8404654      8.6967384      0.18356484    -0.35890693     125.69875      109.74596      112.82061    
    860000   299.45741      0.94785       -23704.699      3702.0723      4833.8056      2194.8964     -45458.508      0.086         -2.2832907      7.4582517      22.832907     -0.64844666     0.19029519     125.81461      109.45241      113.12342    
    870000   300.84147      0.94623995    -23541.119      3691.4787      4839.4583      2184.2192     -45330.257      0.087          4.8474121     -16.094691     -48.474121     -0.17704096     0.36709002     125.93046      109.81163      112.84131    
    880000   299.98545      0.94877317    -23590.763      3739.3634      4985.5022      2184.7296     -45542.83       0.088         -1.4679436      4.7377523      14.679436     -0.086183828   -0.37999508     126.04631      109.40714      112.85227    
    890000   299.51684      0.94855798    -23707.767      3734.9998      4929.4741      2172.3201     -45569.783      0.089          3.5538644     -11.926336     -35.538644      0.26749405    -0.50785846     126.16216      109.36141      112.82138    
    900000   301.19578      0.94979112    -23605.037      3770.857       5050.6222      2176.241      -45689.781      0.09           0.50928282    -1.9788238     -5.0928282      0.17154141    -1.0151847      126.27801      109.23355      112.7033     
    910000   301.36317      0.95083049    -23723.54       3700.7244      5025.4192      2152.148      -45695.017      0.091         -5.9735503      19.731211      59.735503     -0.27507332    -0.26679521     126.39386      109.23237      112.47813    
    920000   300.91946      0.9493724     -23534.742      3750.2714      5088.1356      2165.9504     -45615.951      0.092         -5.8055914      19.494268      58.055914     -0.2490739      0.67596194     126.50971      109.50403      112.26851    
    930000   298.73887      0.94834479    -23603.364      3752.3353      4969.4152      2179.3342     -45501.034      0.093          1.3298197     -4.3333386     -13.298197     -0.076732752    0.37491345     126.62557      109.9114       111.87115    
    940000   298.87378      0.94966743    -23574.226      3770.2476      5058.2541      2150.1348     -45554.413      0.094          5.8441588     -19.332654     -58.441588     -0.11104555     0.55467248     126.74142      109.30464      112.2328     
    950000   298.85863      0.94725858    -23663.272      3738.846       4881.2724      2167.9054     -45452.289      0.095         -3.2501555      10.817041      32.501555      0.26275651    -0.3131888      126.85727      109.31874      112.40096    
    960000   299.90627      0.94976723    -23620.41       3718.8867      5083.5273      2126.8322     -45589.213      0.096          0.98080258    -3.4695557     -9.8080258     -0.17451863    -0.42612271     126.97312      109.29079      112.03042    
    970000   301.11893      0.94599787    -23531.368      3705.3724      4878.8241      2140.3962     -45340.155      0.097          0.84617861    -2.5432464     -8.4617861      0.20095653     0.63109037     127.08897      109.76441      111.8894     
    980000   300.74947      0.9467525     -23466.982      3749.4101      5041.0015      2151.6074     -45479.595      0.098          6.809561      -22.800237     -68.09561      -0.014222211   -0.29087705     127.20482      109.63901      111.82615    
    990000   299.73071      0.94644292    -23443.765      3723.7852      5043.1576      2160.7258     -45404.528      0.099          0.47942245    -1.756331      -4.7942245     -0.014029867   -0.46073869     127.32067      109.44627      111.95776    
   1000000   300.31254      0.94872932    -23639.849      3701.2085      4917.7772      2151.8588     -45465.205      0.1            1.6376537     -5.3219451     -16.376537      0.10270721     0.30799465     127.43652      108.89984      112.14632    
   1010000   299.11399      0.94688647    -23615.066      3714.0417      4864.4865      2166.3859     -45370.373      0.101          5.3798062     -18.362885     -53.798062      0.010849438   -1.3014414      127.55238      108.93928      112.22188    
   1020000   302.13534      0.94712667    -23626.489      3682.9335      4903.4345      2186.7899     -45521.256      0.102         -0.68705757     2.3197237      6.8705757      0.88207984    -0.79348452     127.66823      109.20561      111.81824    
   1030000   299.42403      0.94795622    -23752.529      3749.6389      4881.2262      2156.9164     -45562.116      0.103          1.0351663     -3.2245843     -10.351663      0.26864084     0.40926983     127.78408      109.27052      111.5528     
   1040000   302.77369      0.94785671    -23665.769      3645.8953      4933.3899      2172.8272     -45562.988      0.104          2.0292859     -6.8142394     -20.292859     -0.4838193      0.33396062     127.89993      109.73567      110.99098    
   1050000   301.3429       0.95036763    -23699.567      3723.1322      5067.8517      2152.3374     -45735.328      0.105          1.2478772     -4.287582      -12.478772      0.072532835   -0.45650664     128.01578      109.07997      111.26238    
   1060000   297.54007      0.94665623    -23515.409      3750.062       4956.8883      2165.7859     -45340.602      0.106         -1.0846428      3.8232793      10.846428      0.15528388     0.4681261      128.13163      109.52438      111.14478    
   1070000   301.17032      0.94787662    -23580.31       3646.5833      4997.0444      2165.1494     -45475.173      0.107          4.629088      -14.969237     -46.29088       0.3744713      1.0086992      128.24748      109.37341      111.05448    
   1080000   301.74788      0.94815257    -23567.908      3663.7855      5046.5833      2162.0519     -45547.675      0.108         -0.12161121     0.64219808     1.2161121      0.49356676     0.2169154      128.36334      109.10296      111.19692    
   1090000   299.17156      0.95015829    -23644.533      3767.2424      5065.2971      2177.2252     -45666.81       0.109          2.452163      -8.2514967     -24.52163       0.25960365    -0.49246435     128.47919      108.90844      111.06014    
   1100000   300.25459      0.94824149    -23573.685      3716.3308      5022.852       2164.0648     -45529.311      0.11          -1.0671399      3.4317208      10.671399     -0.19315175    -0.18308522     128.59504      108.6883       111.40959    
   1110000   299.51611      0.9493035     -23600.272      3776.1258      5000.9286      2165.1912     -45567.713      0.111         -2.6727876      9.0003298      26.727876      0.33528542    -0.0621723      128.71089      108.49691      111.38091    
   1120000   298.66908      0.9481436     -23567.021      3763.838       5000.3095      2153.2765     -45478.461      0.112          1.1068002     -4.1130796     -11.068002     -0.85904092    -0.41219628     128.82674      108.32717      111.59146    
   1130000   300.83601      0.9456905     -23469.752      3679.045       4975.7359      2138.0343     -45336.348      0.113          0.48385566    -1.8851997     -4.8385566     -0.91623366     0.099190995    128.94259      108.59437      111.50537    
   1140000   302.51211      0.94681118    -23569.682      3709.68        4908.7805      2155.3399     -45478.96       0.114          2.7077893     -9.0152265     -27.077893     -0.067705472    0.099919227    129.05844      108.9323       110.92822    
   1150000   299.63061      0.94843247    -23691.029      3653.1808      4935.7802      2178.7488     -45488.149      0.115          3.710633      -12.057366     -37.10633       0.60065477     0.33357645     129.1743       109.20672      110.36126    
   1160000   300.58698      0.94819996    -23632.059      3753.4528      4860.0596      2168.8023     -45478.987      0.116         -2.4082557      7.8917032      24.082557     -0.40383248    -0.0036151948   129.29015      108.46071      111.048      
   1170000   300.3156       0.94717554    -23523.644      3695.7463      4969.0049      2199.221      -45442.24       0.117          4.4477901     -14.926151     -44.477901     -0.42055497     0.12000284     129.406        108.78996      110.73243    
   1180000   299.94758      0.94862552    -23688.498      3681.1252      4935.7317      2216.4925     -45562.925      0.118          4.0687828     -13.299307     -40.687828     -0.56697637     1.3568838      129.52185      108.51793      110.74118    
   1190000   301.61223      0.94672514    -23476.238      3596.0923      5095.0413      2202.7955     -45472.52       0.119          8.2915532     -27.864891     -82.915532     -0.23076933    -0.44837109     129.6377       108.70849      110.66998    
   1200000   299.99569      0.95043394    -23693.64       3724.7151      4967.6562      2178.8376     -45607.697      0.12           0.15755556    -0.40994281    -1.5755556     -0.16029284     0.50601997     129.75355      108.25998      110.59599    
   1210000   300.61365      0.94907784    -23603.673      3744.8338      4955.6466      2170.9089     -45540.657      0.121         -7.5154932      24.881826      75.154932     -0.26859351    -0.2408597      129.8694       108.58189      110.32716    
   1220000   298.84107      0.94883617    -23798.968      3775.9655      4891.2333      2140.131      -45606.644      0.122         -3.1521428      10.518695      31.521428      0.085469382   -0.050811521    129.98526      108.98582      109.84827    
   1230000   301.49229      0.94946202    -23565.266      3761.8146      5049.1228      2156.2145     -45630.356      0.123         -0.25072153     0.75535606     2.5072153     -0.73475511     0.49360801     130.10111      108.75256      109.91334    
   1240000   299.28795      0.9469203     -23631.19       3670.5743      4907.8001      2197.0519     -45423.413      0.124         -3.6109366      12.328345      36.109366      0.50534851     0.37031937     130.21696      107.95323      110.92563    
   1250000   300.39896      0.94685108    -23593.893      3775.3065      4841.184       2178.8047     -45446.881      0.125          6.7539859     -22.421088     -67.539859      0.52777984    -0.25118357     130.33281      107.40415      111.40175    
   1260000   299.13769      0.94816626    -23546.644      3805.7447      4957.2423      2163.0244     -45483.921      0.126         -4.4290451      14.864466      44.290451      0.34172872    -0.038781229    130.44866      108.10351      110.42937    
   1270000   300.81782      0.94736582    -23607.786      3701.964       5008.2404      2168.4652     -45559.567      0.127          2.3492514     -7.7140452     -23.492514      0.7954414     -0.44506322     130.56451      107.81892      110.71607    
   1280000   300.02637      0.94784186    -23605.931      3710.0051      4968.9111      2169.2422     -45498.067      0.128         -5.2735298      17.625182      52.735298      0.57488075    -0.43463383     130.68036      108.51783      109.85029    
   1290000   301.51797      0.94965691    -23666.644      3768.3493      4992.3684      2161.9337     -45688.179      0.129          1.2285924     -4.314826      -12.285924     -0.48549529    -0.17305903     130.79621      108.17729      109.88806    
   1300000   299.72022      0.94668778    -23666.556      3684.8879      4877.2565      2180.4687     -45441.877      0.13          -1.6085767      5.5221747      16.085767      0.72886025    -0.24810278     130.91207      108.95182      109.35222    
   1310000   300.20004      0.94792379    -23619.506      3639.8491      4937.5119      2200.7562     -45447.994      0.131          5.6672388     -18.667252     -56.672388     -0.21148775     0.8821196      131.02792      107.85301      110.22472    
   1320000   302.32724      0.94763324    -23586.127      3710.8453      4887.1537      2202.9323     -45515.732      0.132          1.245446      -4.4092003     -12.45446      -0.11065046    -0.66249072     131.14377      108.24707      109.76008    
   1330000   301.4324       0.94824077    -23672.703      3716.0998      5015.8251      2164.1102     -45664.472      0.133          3.0714507     -10.546833     -30.714507     -0.14711988    -0.77887273     131.25962      108.3517       109.48712    
   1340000   301.61404      0.94775434    -23561.326      3690.2335      4978.2511      2188.914      -45521.145      0.134         -5.2402481      17.152712      52.402481      0.42029855    -1.3646449      131.37547      108.0327       109.76989    
   1350000   301.7294       0.94819728    -23611.799      3621.6261      4956.8059      2157.9939     -45454.891      0.135          4.1474859     -13.893964     -41.474859      0.4079262     -0.61495967     131.49132      107.61947      110.04285    
   1360000   298.13419      0.94669779    -23629.721      3807.672       4917.1209      2146.2283     -45475.068      0.136          4.2370772     -14.138519     -42.370772      0.4720962     -0.51688129     131.60717      107.57971      110.16083    
   1370000   298.48998      0.94759688    -23667.891      3755.0556      5035.6924      2137.9023     -45583.965      0.137          7.1778115     -23.904558     -71.778115     -0.45747338     0.52191506     131.72303      107.33758      110.20756    
   1380000   298.91478      0.94837011    -23615.811      3746.1949      4972.3178      2136.8061     -45474.19       0.138         -4.6321506      15.257603      46.321506      0.096346515   -0.64504289     131.83888      107.30671      110.0526     
   1390000   299.20983      0.94953468    -23750.103      3689.3428      5059.8007      2168.6822     -45681.85       0.139         -1.1428627      3.7445063      11.428627     -0.061188225   -0.13391985     131.95473      107.16776      109.96351    
   1400000   298.12889      0.9490385     -23867.624      3740.9093      4846.8963      2169.7312     -45599.292      0.14          -2.324231       7.922697       23.24231       0.1707959      0.35498539     132.07058      106.38424      110.73408    
   1410000   301.08061      0.94453142    -23253.258      3740.1346      5010.6308      2183.1948     -45270.002      0.141         -0.79410447     2.5870484      7.9410447     -0.84745471     0.66755504     132.18643      106.57867      110.96217    
   1420000   300.89568      0.94731555    -23652.973      3656.1681      4903.2227      2155.1633     -45443.504      0.142          6.0320898     -20.138057     -60.320898      0.68492737    -0.77820084     132.30228      106.59303      110.52428    
   1430000   300.43124      0.94859517    -23593.355      3703.1329      5044.5055      2135.7459     -45535.62       0.143          1.656479      -5.6282008     -16.56479      -0.023507029   -0.29630547     132.41813      107.07628      109.78092    
   1440000   300.75009      0.9499332     -23712.135      3703.6422      5057.7947      2144.0654     -45688.255      0.144         -2.9933316      9.7574206      29.933316     -0.33156498    -0.32948955     132.53399      106.85349      109.75883    
   1450000   300.53122      0.94831484    -23711.411      3710.8372      4934.8058      2167.0365     -45586.652      0.145          7.0535783     -23.707166     -70.535783     -0.39694528    -0.18877027     132.64984      107.09389      109.60353    
   1460000   297.74253      0.94488578    -23579.01       3736.3815      4939.2123      2158.7002     -45373.213      0.146         -2.5336252      8.6256012      25.336252      0.45473739     0.085813902    132.76569      107.16043      109.83706    
   1470000   298.37703      0.94881312    -23612.437      3754.0245      4990.4241      2150.7527     -45490.904      0.147         -4.2917442      14.491044      42.917442      0.6855528     -0.12986169     132.88154      106.50941      109.95506    
   1480000   300.14281      0.94781459    -23806.877      3777.3602      4903.6528      2142.8869     -45679.041      0.148         -0.0064849598  -0.22976413     0.064849598   -0.47051824    -0.28362374     132.99739      106.67659      109.80266    
   1490000   300.01497      0.94655435    -23622.713      3716.6756      4882.3543      2166.3928     -45431.693      0.149         -2.2789093      7.1696172      22.789093     -0.56263794    -0.717603       133.11324      106.75183      109.77574    
   1500000   299.02291      0.94447325    -23580.513      3681.7152      4876.0027      2138.2868     -45283.558      0.15           7.0634004     -23.201379     -70.634004     -0.21553479     1.2454006      133.22909      106.70523      109.96996    
   1510000   301.59901      0.94687997    -23578.661      3727.6527      4914.4637      2144.4055     -45467.05       0.151          4.3389145     -14.295143     -43.389145      0.6311435     -0.12742661     133.34495      106.6622       109.63936    
   1520000   299.46336      0.94628139    -23505.487      3741.7722      4919.5613      2168.9718     -45359.046      0.152          1.2373131     -4.1390876     -12.373131      0.18992478    -0.2340564      133.4608       107.1332       109.13158    
   1530000   300.75514      0.94675251    -23476.301      3726.4519      4984.1641      2175.8359     -45433.556      0.153          1.3470271     -4.7396925     -13.470271     -0.32840383    -0.42040328     133.57665      107.12531      108.99069    
   1540000   299.4621       0.95056047    -23822.096      3681.7904      4936.6138      2172.0996     -45635.806      0.154          7.18219       -23.795346     -71.8219       -0.21392234     0.64978536     133.6925       106.48331      109.11392    
   1550000   301.16337      0.94838288    -23606.642      3650.1553      4975.3672      2201.5285     -45519.524      0.155          4.2124032     -14.139297     -42.124032      0.022964242   -0.31682428     133.80835      106.59276      109.15758    
   1560000   300.27988      0.94789845    -23495.873      3721.8802      5026.7747      2160.0909     -45457.929      0.156          3.8292476     -12.481894     -38.292476      0.68813881     0.15865387     133.9242       107.03975      108.66321    
   1570000   300.60762      0.94681478    -23548.774      3689.441       5013.5336      2166.9623     -45484.084      0.157          0.3862153     -1.4486749     -3.862153       0.54117198    -1.0250435      134.04005      106.82585      108.9112     
   1580000   297.73544      0.94883458    -23802.345      3683.0494      4977.5701      2154.9416     -45577.555      0.158          0.081052301   -0.092989025   -0.81052301     0.12033461     0.41122133     134.15591      106.42236      108.9972     
   1590000   301.05809      0.94804154    -23637.995      3677.2264      5043.2776      2149.4836     -45589.938      0.159          4.3457001     -14.355605     -43.457001      0.514748      -0.12456366     134.27176      106.83904      108.56916    
   1600000   300.68876      0.9477322     -23518.406      3629.0358      5101.3631      2158.8827     -45476.047      0.16           0.056853004   -0.19810007    -0.56853004    -0.0057304369  -0.020039727    134.38761      106.87164      108.47787    
   1610000   299.28071      0.94917978    -23608.734      3756.2131      5033.9307      2157.333      -45572.741      0.161          3.7894326     -12.630587     -37.894326      0.29841865    -0.29585196     134.50346      106.66724      108.42653    
   1620000   301.1409       0.94849658    -23763.294      3640.2416      4919.1458      2150.7208     -45558.406      0.162          3.0872698     -10.56318      -30.872698     -0.81961234     0.002769223    134.61931      106.46784      108.61428    
   1630000   299.14883      0.94936693    -23695.745      3761.863       5028.566       2147.3135     -45645.163      0.163         -0.20760009     0.64013452     2.0760009      0.037730266   -0.19332756     134.73516      106.53954      108.34843    
   1640000   301.60427      0.94766596    -23567.602      3710.7716      4980.3604      2168.1622     -45528.956      0.164          3.6266391     -12.342465     -36.266391     -0.24279218    -0.51821165     134.85101      106.52203      108.46748    
   1650000   299.40465      0.94924688    -23658.995      3700.6706      5077.1575      2147.8571     -45605.773      0.165          12.97441      -43.183976     -129.7441       0.48055088    -0.2883774      134.96686      106.62815      108.08621    
   1660000   298.21109      0.94857974    -23675.549      3703.7271      5058.8047      2141.7057     -45556.944      0.166          4.787006      -16.00354      -47.87006      -0.72587946     0.58531858     135.08272      106.70462      107.99202    
   1670000   300.90587      0.94914591    -23636.557      3770.1011      4926.4539      2137.349      -45546.813      0.167         -2.0433009      6.8453759      20.433009      0.71440364    -0.61128487     135.19857      106.07732      108.47281    
   1680000   300.17464      0.94944862    -23708.187      3713.7556      5016.9335      2137.8232     -45626.134      0.168         -2.5073805      8.0589706      25.073805     -0.010572354   -0.88632087     135.31442      106.14759      108.27367    
   1690000   299.812        0.94952648    -23770.431      3661.2515      4994.4053      2151.241      -45613.415      0.169          4.995035      -16.535254     -49.95035       0.14414877     0.2004381      135.43027      106.09315      108.22768    
   1700000   298.51859      0.94999211    -23613.166      3699.1797      5053.3283      2157.4902     -45511.641      0.17           0.60211558    -2.1164895     -6.0211558      0.38524274    -0.71355555     135.54612      105.6272       108.55895    
   1710000   299.80974      0.94572819    -23550.474      3661.587       4907.3582      2171.5513     -45326.974      0.171         -2.4427863      7.8501862      24.427863     -0.97706372     0.099759475    135.66197      106.28657      108.27936    
   1720000   301.51874      0.94899467    -23624.242      3667.8584      5001.5827      2182.5287     -45575.124      0.172          7.6737302     -25.198984     -76.737302      0.76269786     0.37765305     135.77782      106.45737      107.6416     
   1730000   300.48444      0.94252006    -23365.21       3760.0503      4845.8076      2196.0675     -45227.975      0.173          9.2208567     -30.616861     -92.208567      0.09381791     0.26416664     135.89368      106.30507      108.44379    
   1740000   298.36419      0.94918024    -23696.507      3674.5081      5001.2811      2184.2844     -45539.373      0.174         -3.3562374      11.08942       33.562374     -0.54989881     0.25578476     136.00953      106.58197      107.31162    
   1750000   299.35664      0.94699983    -23547.364      3782.0527      4915.9944      2148.7645     -45413.5        0.175          1.8224789     -5.772714      -18.224789      0.33318345     0.57346313     136.12538      106.46022      107.59006    
   1760000   299.7812       0.94676274    -23524.188      3671.3328      5021.5361      2165.8632     -45417.873      0.176         -0.66888042     2.4938586      6.6888042     -0.21150206     1.0042738      136.24123      106.33958      107.64748    
   1770000   299.52906      0.9480258     -23520.658      3702.0549      5091.8749      2159.9902     -45500.25       0.177         -7.730779       25.544061      77.30779       0.058193921   -0.73380274     136.35708      106.44474      107.3066     
   1780000   301.6464       0.94768473    -23596.617      3747.1974      4976.5799      2159.2245     -45583.23       0.178         -4.0867904      13.600605      40.867904     -0.6199281      0.55383972     136.47293      107.07715      106.62064    
   1790000   299.8953       0.9507547     -23722.963      3729.9643      5044.7475      2137.3806     -45674.209      0.179          2.7950296     -9.4918748     -27.950296     -0.2331001     -0.29222823     136.58878      106.99139      106.27134    
   1800000   297.58797      0.94614534    -23604.213      3772.9663      4890.1353      2148.0809     -45369.616      0.18           3.3182159     -10.909464     -33.182159      1.2057414     -0.75197551     136.70464      106.87117      106.8186     
   1810000   301.4202       0.94614842    -23594.117      3604.4744      4981.415       2137.9788     -45413.27       0.181          2.3825044     -7.7325375     -23.825044     -0.22268147     0.8501135      136.82049      106.83767      106.76127    
   1820000   299.295        0.94843945    -23647.189      3787.994       5082.9016      2130.3357     -45665.477      0.182          3.2716337     -10.979273     -32.716337     -0.084198212   -0.13728439     136.93634      106.59107      106.65946    
   1830000   300.39533      0.94793311    -23584.151      3727.9184      5052.4166      2148.4768     -45570.522      0.183          2.6596289     -8.9662447     -26.596289     -0.011911871   -0.2905333      137.05219      107.14383      106.07614    
   1840000   300.25669      0.94714415    -23526.763      3698.1239      5041.7264      2137.8743     -45456.943      0.184          4.9276146     -16.38972      -49.276146     -0.36131906     0.46830578     137.16804      106.86444      106.35215    
   1850000   301.12088      0.94719805    -23482.661      3700.5808      5027.1997      2181.8887     -45476.597      0.185          3.2214464     -10.695669     -32.214464      0.32088579    -0.19342761     137.28389      107.01379      106.10807    
   1860000   300.56874      0.94787232    -23626.415      3753.0393      4908.3029      2160.4459     -45512.145      0.186          1.030282      -3.4158191     -10.30282       0.52975819    -0.47439501     137.39974      106.9664       105.99012    
   1870000   298.19655      0.94688258    -23633.56       3748.3781      4897.3763      2196.118      -45452.055      0.187          3.3729419     -11.146838     -33.729419      0.40634082    -0.11743646     137.5156       107.17538      105.80481    
   1880000   299.09981      0.94745805    -23601.278      3692.7447      4961.1699      2210.0193     -45475.083      0.188         -0.18387922     0.58477483     1.8387922     -0.64202886     0.55756117     137.63145      106.81259      106.01038    
   1890000   301.24767      0.94607926    -23565.872      3672.0849      4893.6737      2207.14       -45427.704      0.189         -0.95173525     3.4947397      9.5173525     -0.35940325     1.32627        137.7473       106.62568      106.26154    
   1900000   299.70163      0.94799441    -23682.999      3698.6929      4964.9566      2188.4938     -45567.167      0.19          -1.0336052      3.4429839      10.336052      0.016335863   -0.023436018    137.86315      106.62081      105.96259    
   1910000   299.40292      0.94823843    -23487.926      3751.8367      5058.7771      2162.4803     -45482.048      0.191          3.7956765     -12.795134     -37.956765     -0.080026564   -0.3486094      137.979        106.35172      106.11418    
   1920000   299.90235      0.94885856    -23581.722      3771.6558      4998.29        2178.767      -45569.848      0.192          2.0895235     -7.201203      -20.895235      0.10072262    -0.80909668     138.09485      106.19708      106.11016    
   1930000   297.99559      0.94759905    -23500.147      3773.7288      5063.4221      2187.2399     -45493.762      0.193          3.3381781     -10.887093     -33.381781      0.10004036     0.6204609      138.2107       106.96456      105.40041    
   1940000   301.03997      0.94489071    -23386.161      3698.9258      4870.0139      2195.4573     -45231.846      0.194         -5.503489       18.127179      55.03489      -0.039957956   -0.61339381     138.32656      106.86202      105.71534    
   1950000   297.8439       0.94626609    -23473.974      3694.488       5058.5033      2156.9306     -45347.536      0.195          7.4418429     -24.640766     -74.418429      0.74929168    -0.2531608      138.44241      106.55309      105.77914    
   1960000   300.86463      0.948952      -23675.161      3756.5607      4977.4294      2159.4464     -45643.431      0.196          5.6754312     -19.000405     -56.754312     -0.038262918   -0.20863925     138.55826      106.35766      105.58521    
   1970000   300.85845      0.9484633     -23568.134      3761.6527      4985.7077      2180.6338     -45570.735      0.197          1.3276923     -4.4763918     -13.276923     -0.25369376     0.10144174     138.67411      105.85558      106.05199    
   1980000   299.4341       0.94428131    -23357.436      3719.7238      5001.1308      2163.4488     -45263.915      0.198          1.0356152     -3.7254935     -10.356152     -0.52316326    -0.29716518     138.78996      106.42454      105.86375    
   1990000   298.302        0.94825289    -23552.515      3661.6424      5086.7577      2153.5714     -45434.99       0.199         -0.86334668     3.1338453      8.6334668     -0.04516493     0.81323394     138.90581      106.53316      105.22505    
   2000000   299.64632      0.94475369    -23532.1        3690.8129      4932.9628      2174.3011     -45360.165      0.2            6.8079386     -22.690146     -68.079386     -0.38903462     0.39798158     139.02166      106.11042      105.94719    
   2010000   303.10936      0.94889747    -23666.638      3632.1855      4977.0899      2172.5519     -45605.928      0.201         -4.1764892      13.900722      41.764892      0.10261058    -0.1653361      139.13751      105.882        105.62406    
   2020000   298.9217       0.94839772    -23708.29       3701.7837      4942.9145      2189.1562     -45545.459      0.202          3.0175072     -9.9299243     -30.175072      0.78495421    -0.39965475     139.25337      106.37847      105.09899    
   2030000   299.64844      0.94849114    -23659.935      3698.0288      5006.176       2184.8139     -45579.02       0.203          2.7842989     -9.0351856     -27.842989      0.45513502     0.28229672     139.36922      106.3195       105.05952    
   2040000   300.25508      0.94956357    -23737.052      3694.4384      4980.3716      2201.1359     -45665.395      0.204         -0.78733548     2.956483       7.8733548      0.15939707     0.83669715     139.48507      106.52714      104.64934    
   2050000   299.65921      0.94634275    -23632.557      3719.3008      4828.1715      2191.6655     -45402.158      0.205          4.6418858     -15.410983     -46.418858      0.44788907    -0.26198021     139.60092      107.10373      104.35354    
   2060000   300.40388      0.94711587    -23520.761      3655.072       4965.0523      2183.8989     -45382.658      0.206          1.27949       -4.2669291     -12.7949        0.11632073    -0.12220819     139.71677      106.2363       105.03255    
   2070000   299.44312      0.94920288    -23573.152      3795.7556      5110.8723      2179.0233     -45681.311      0.207         -2.6309276      8.5369634      26.309276     -0.59212216    -0.10626418     139.83262      105.74381      105.20248    
   2080000   299.5063       0.94721998    -23651.614      3726.9401      4960.7161      2191.5109     -45555.615      0.208          3.2623189     -10.930548     -32.623189     -0.35671104     0.18825641     139.94847      106.20055      104.88243    
   2090000   299.79449      0.94998059    -23667.552      3812.9462      5049.3476      2165.8639     -45731.152      0.209         -2.2212772      6.9345577      22.212772     -1.0417829     -0.36731593     140.06433      105.80387      104.8829     
   2100000   299.04128      0.94766127    -23525.12       3795.6414      4981.7842      2158.6147     -45468.876      0.21           8.4399009     -28.095163     -84.399009      0.63769532    -0.5241749      140.18018      105.77024      105.0861     
   2110000   299.83927      0.94993742    -23546.731      3752.2095      5134.2642      2160.758      -45631.053      0.211          2.5985584     -8.6608244     -25.985584      0.58976886    -0.58665784     140.29603      105.87252      104.64654    
   2120000   296.74366      0.94914371    -23648.375      3778.1409      4979.7587      2187.818      -45517.234      0.212         -3.7707594      12.42829       37.707594     -0.39610547    -0.026618348    140.41188      105.80437      104.71504    
   2130000   301.3243       0.94654311    -23576.027      3733.3834      4849.0841      2143.8153     -45394.065      0.213          2.1225381     -7.1328284     -21.225381     -0.74129499     0.56819135     140.52773      105.32745      105.39124    
   2140000   298.97895      0.94474474    -23553.098      3668.6864      4941.7518      2123.3919     -45292.35       0.214          10.260903     -34.22799      -102.60903     -0.016595529   -0.058341041    140.64358      105.61097      105.22164    
   2150000   300.85883      0.94723283    -23510.652      3794.2874      5054.7754      2133.7543     -45568.089      0.215         -2.9259575      9.7638585      29.259575      0.10752565    -0.075525377    140.75943      105.55471      104.91478    
   2160000   299.59357      0.94692811    -23585.214      3677.9769      4951.5855      2161.6341     -45404.456      0.216         -3.9423345      13.153866      39.423345     -0.56284397     0.60109792     140.87529      106.11995      104.30368    
   2170000   299.77043      0.94817841    -23516.186      3739.4039      5091.2353      2153.7125     -45535.095      0.217         -0.19554087     0.65961809     1.9554087     -0.24386907     0.2673146      140.99114      104.99539      105.19532    
   2180000   302.04852      0.94827762    -23595.145      3637.4185      5035.229       2136.3707     -45522.576      0.218         -1.0383993      3.4503043      10.383993      0.16793932    -0.20101996     141.10699      106.12145      103.98275    
   2190000   300.78467      0.94719575    -23541.649      3639.7965      4976.5403      2145.9721     -45375.849      0.219          3.1813981     -10.54372      -31.813981     -0.13999281     0.32281421     141.22284      105.71039      104.42059    
   2200000   299.84643      0.94608444    -23616.544      3761.3057      4940.7079      2169.5131     -45525.425      0.22           1.8342311     -6.238562      -18.342311     -0.094337496   -0.27903808     141.33869      105.35093      104.81397    
   2210000   300.58401      0.94745296    -23592.482      3740.1191      4993.1457      2150.1943     -45540.445      0.221         -1.1662636      3.8783841      11.662636      0.40544827    -0.43293178     141.45454      105.36489      104.563      
   2220000   299.10814      0.94854926    -23520.855      3762.9429      5087.6502      2146.7094     -45528.335      0.222          6.1428211     -20.214086     -61.428211      0.38037508     0.40557619     141.57039      105.84027      103.88797    
   2230000   299.08652      0.94488469    -23510.999      3672.8414      4976.6574      2145.0596     -45314.939      0.223          9.4311018     -31.489092     -94.311018     -0.95389129     0.79763237     141.68625      106.43966      103.61879    
   2240000   300.06128      0.94743117    -23501.9        3706.9926      5038.8185      2148.3924     -45441.367      0.224          5.2490375     -17.647917     -52.490375     -0.44913218    -0.0042433572   141.8021       106.06338      103.62218    
   2250000   300.94335      0.94539298    -23506.277      3700.9703      4967.4043      2168.038      -45420.421      0.225          7.2755374     -24.43625      -72.755374     -0.37007144    -0.18330598     141.91795      106.28439      103.54505    
   2260000   299.92567      0.94677481    -23597.838      3770.2584      4915.7628      2131.3287     -45455.458      0.226          2.9831093     -9.9195588     -29.831093     -0.45767078     0.53008725     142.0338       105.89547      103.68901    
   2270000   300.53977      0.94460996    -23544.157      3637.5436      4967.4224      2177.5607     -45389.559      0.227          6.4643297     -21.555517     -64.643297      0.32618207    -0.34943488     142.14965      105.56638      104.16566    
   2280000   299.68649      0.94724253    -23678.679      3742.0409      4923.9834      2162.0341     -45538.204      0.228          7.8878782     -26.340845     -78.878782     -0.38546781     0.24171514     142.2655       105.74838      103.61294    
   2290000   299.97473      0.94817878    -23614.567      3732.3137      4999.6906      2150.7769     -45539.425      0.229          2.455979      -8.0268674     -24.55979       0.5402191     -0.06103134     142.38135      105.53992      103.6307     
   2300000   300.28445      0.94921926    -23568.606      3717.9135      5114.647       2144.4492     -45599.093      0.23          -2.930821       9.7141069      29.30821      -0.76892848     0.60303912     142.4972       106.06829      102.9177     
   2310000   298.27828      0.9479133     -23698.97       3789.7492      4875.1946      2156.7263     -45500.271      0.231          0.67477141    -2.3753971     -6.7477141     -0.36868796    -0.0097893209   142.61306      105.20615      103.81963    
   2320000   299.52322      0.95080118    -23683.043      3694.5887      5065.2484      2165.1585     -45633.495      0.232          1.9379814     -6.3768983     -19.379814      0.52188112    -0.27276187     142.72891      105.40007      103.23001    
   2330000   300.20039      0.95050298    -23710.806      3730.1329      5007.0485      2181.4795     -45679.85       0.233          0.014091743   -0.20991012    -0.14091743    -0.27119148    -0.21762145     142.84476      105.6039       102.9795     
   2340000   297.68259      0.95030044    -23776.28       3796.8114      4978.9898      2175.9124     -45685.696      0.234         -1.6886978      5.4643886      16.886978     -0.41884087    -0.074970768    142.96061      105.73337      102.79195    
   2350000   301.97873      0.94750893    -23496.836      3669.7822      4982.9551      2180.0486     -45445.466      0.235         -4.1696406      13.984481      41.696406     -0.19881037     0.45584735     143.07646      106.42421      102.34263    
   2360000   300.9668       0.94986072    -23698.23       3698.9796      5061.435       2172.6727     -45709.912      0.236          3.1732725     -10.493357     -31.732725      0.56736101    -0.31470558     143.19231      105.62662      102.7769     
   2370000   300.02058      0.94838477    -23742.13       3663.0031      4990.7367      2161.1776     -45600.812      0.237          0.28651341    -0.99891976    -2.8651341      0.18048274    -0.31210791     143.30816      105.60842      102.87136    
   2380000   300.67011      0.94711092    -23506.65       3663.38        5012.6081      2161.8126     -45412.125      0.238          2.1453658     -7.5083968     -21.453658     -0.6942562     -0.37727586     143.42402      104.94535      103.57682    
   2390000   300.38143      0.94804002    -23669.74       3717.7821      4962.3986      2159.472      -45566.44       0.239          0.43297354    -1.4325663     -4.3297354      0.80467622    -0.77263983     143.53987      104.8585       103.47744    
   2400000   299.9253       0.94559178    -23562.582      3694.7926      4870.8133      2178.5497     -45346.995      0.24          -1.7051257      6.0517762      17.051257      1.4472097     -0.34313854     143.65572      105.56794      102.96506    
   2410000   299.79155      0.94753583    -23648.326      3655.7797      4949.3338      2196.6703     -45485.443      0.241         -0.0032370049  -0.035884796    0.032370049   -1.0209392      0.8809148      143.77157      105.36149      102.87219    
   2420000   299.7611       0.9450987     -23434.956      3661.0574      4993.0248      2147.1466     -45270.398      0.242          7.0132855     -23.41739      -70.132855     -0.27388427     0.15456896     143.88742      105.57745      102.84362    
   2430000   302.69744      0.94582288    -23613.158      3653.6974      4831.6551      2137.6485     -45378.458      0.243          7.285892      -23.983113     -72.85892       0.23113821     0.67844425     144.00327      105.4115       102.84386    
   2440000   297.82007      0.94737326    -23562.017      3732.7021      5004.1166      2137.6911     -45399.291      0.244         -3.7350423      12.684432      37.350423      0.61151604     0.091356458    144.11912      105.34391      102.65884    
   2450000   300.21205      0.94673594    -23633.634      3681.3353      4988.0547      2143.8821     -45497.718      0.245          4.5426346     -14.831065     -45.426346     -0.11301464     1.0461658      144.23498      104.92385      103.05637    
   2460000   299.18111      0.94713733    -23519.533      3794.7509      5002.5149      2144.8429     -45474.505      0.246          2.4461264     -7.9965237     -24.461264     -0.2111131      0.68280626     144.35083      104.5492       103.29887    
   2470000   299.29017      0.94938567    -23694.975      3772.1479      4989.7128      2176.8702     -45650.584      0.247         -6.3251173      20.91476       63.251173      0.088479093   -0.59537275     144.46668      104.78197      102.74284    
   2480000   299.45542      0.94615036    -23674.814      3743.6226      4845.1588      2176.6619     -45463.218      0.248          2.8242718     -9.6064956     -28.242718     -0.70989966     0.13313087     144.58253      105.04825      102.75044    
   2490000   300.06246      0.94646502    -23536.015      3677.8165      4870.4526      2179.0181     -45308.609      0.249          10.059458     -33.471237     -100.59458     -0.021002472    0.2018723      144.69838      105.01243      102.66905    
   2500000   299.31102      0.94830403    -23488.588      3777.0477      5073.3201      2162.319      -45518.921      0.25          -5.7910307      19.691484      57.910307      1.0367747      0.12737138     144.81423      104.73043      102.66367    
   2510000   299.91609      0.94825418    -23547.768      3763.6697      4996.0962      2165.6262     -45513.078      0.251         -2.2037093      7.4662663      22.037093     -0.35568122     0.71738684     144.93008      105.33908      101.99425    
   2520000   299.21467      0.94663979    -23519.992      3716.7353      4953.1451      2170.4047     -45374.376      0.252          2.5616378     -8.4967117     -25.616378     -0.49063717     0.61687965     145.04594      104.80761      102.60425    
   2530000   302.07854      0.95073785    -23693.715      3736.4         5036.1674      2177.7353     -45763.536      0.253         -1.2213212      3.6435822      12.213212     -0.085863549   -1.1966021      145.16179      104.50835      102.37276    
   2540000   298.21586      0.94713338    -23551.305      3797.9192      4910.6559      2176.9756     -45414.188      0.254          11.455271     -38.054198     -114.55271      0.65170026    -0.26158648     145.27764      104.86151      102.33459    
   2550000   299.84768      0.94801002    -23553.518      3736.6708      4995.2602      2174.3021     -45497.151      0.255          0.10249636    -0.49372966    -1.0249636     -0.85391992     0.3976945      145.39349      104.29849      102.70997    
   2560000   299.91605      0.94891169    -23689.277      3756.016       4951.7758      2146.4088     -45583.395      0.256         -7.9888961      26.574868      79.888961     -0.21309684     0.04874023     145.50934      103.89463      102.92923    
   2570000   300.70723      0.94611626    -23583.351      3720.2501      4964.679       2145.0635     -45482.384      0.257          1.2416766     -4.118408      -12.416766      0.45866841    -0.39712647     145.62519      104.58165      102.4736     
   2580000   300.38676      0.94872144    -23639.291      3655.1011      4993.8133      2146.1364     -45491.585      0.258         -1.0071819      3.1040086      10.071819     -0.67648716    -0.083306221    145.74104      104.21805      102.46723    
   2590000   301.25086      0.94825179    -23650.534      3714.7334      4973.4813      2153.1813     -45580.981      0.259         -1.051717       3.306948       10.51717      -0.64430336     0.047977556    145.8569       102.73252      103.9178     
   2600000   299.06581      0.94553464    -23612.358      3639.2606      4840.654       2154.751      -45255.643      0.26           6.2653972     -20.556414     -62.653972     -0.22878872     1.213518       145.97275      102.93405      103.92983    
   2610000   299.46827      0.94726906    -23628.65       3668.4662      4997.9363      2152.6491     -45471.136      0.261          4.3133754     -14.09744      -43.133754      0.23581553     0.60561851     146.0886       102.95819      103.63297    
   2620000   299.96231      0.94591944    -23585.935      3720.9891      4874.9785      2164.2712     -45387.793      0.262         -1.6694545      5.3933169      16.694545      0.12500807    -0.63960218     146.20445      103.66984      102.98675    
   2630000   300.72355      0.94907529    -23684.713      3718.917       4979.928       2178.8717     -45632.07       0.263          0.78117419    -2.7505034     -7.8117419      0.4553927     -0.89516103     146.3203       103.50239      102.72896    
   2640000   298.81946      0.94531441    -23516.483      3767.8883      4927.8528      2171.0003     -45382.776      0.264          1.2995545     -4.2768824     -12.995545     -0.51141901     0.67631694     146.43615      103.6944       102.86523    
   2650000   300.5189       0.94960443    -23693.551      3723.7158      4938.8804      2188.3195     -45606.574      0.265          6.3515481     -21.087214     -63.515481      0.27653758    -0.022697538    146.552        103.6685       102.34513    
   2660000   300.86594      0.94743948    -23489.108      3705.2658      5024.4629      2190.4023     -45484.121      0.266          8.1698142     -27.393841     -81.698142     -0.34153146    -0.14185014     146.66785      103.96926      102.20147    
   2670000   299.35946      0.94721592    -23488.484      3788.1532      4986.1959      2196.7623     -45479.024      0.267          7.2801115     -24.040191     -72.801115     -0.020887467    0.70142978     146.78371      104.4254       101.69873    
   2680000   298.13614      0.94870948    -23570.798      3708.4237      5080.8154      2183.2877     -45517.723      0.268          4.2970778     -14.0238       -42.970778     -0.36222679     1.2616051      146.89956      104.29095      101.58934    
   2690000   300.97364      0.94755477    -23468.002      3690.2568      5056.4169      2209.9783     -45503.501      0.269          11.737112     -39.077457     -117.37112      0.5437818     -0.40503058     147.01541      103.56192      102.34845    
   2700000   299.22995      0.94810395    -23484.272      3806.0704      4918.8321      2207.3812     -45431.217      0.27           1.1878378     -3.9777132     -11.878378      0.66065116    -0.71541274     147.13126      103.0563       102.71008    
   2710000   300.55984      0.94709035    -23498.099      3756.9938      4930.4927      2181.6246     -45430.825      0.271          8.0711934     -27.155541     -80.711934     -0.18654541    -0.56814467     147.24711      103.62934      102.17098    
   2720000   299.93627      0.94794599    -23542.201      3714.3336      5038.0972      2179.2122     -45514.505      0.272          0.47264036    -1.5289964     -4.7264036      0.016170605    0.12324363     147.36296      103.33555      102.2885     
   2730000   300.07847      0.94700282    -23600.727      3737.0918      4892.6049      2175.4527     -45451.772      0.273          5.9493546     -20.159435     -59.493546      0.090706551   -1.0754651      147.47881      103.53087      102.11693    
   2740000   301.85912      0.94736652    -23697.596      3690.4419      4824.3491      2186.9533     -45510.781      0.274          8.1999505     -27.382812     -81.999505      0.3541267     -0.5030588      147.59467      103.69011      101.84096    
   2750000   299.15163      0.94890395    -23594.213      3771.1198      4933.7821      2180.7962     -45491.69       0.275          6.7110073     -22.542284     -67.110073     -0.62798898     0.11120837     147.71052      103.2555       102.02384    
   2760000   297.91031      0.94752844    -23534.584      3738.2169      5004.7197      2171.0302     -45414.636      0.276          2.732405      -9.067361      -27.32405       0.10315151     0.018815278    147.82637      102.94419      102.4006     
   2770000   299.53754      0.95035174    -23688.801      3738.9586      5009.7481      2149.0466     -45612.538      0.277          3.3512679     -11.097165     -33.512679     -0.25654755     0.47773314     147.94222      103.22201      101.74186    
   2780000   301.24788      0.95086473    -23628.657      3808.0987      5087.0814      2183.5338     -45796.313      0.278          0.053154852   -0.25491284    -0.53154852    -0.23858984     0.0053998515   148.05807      102.28513      102.53808    
   2790000   298.21189      0.94613534    -23646.246      3754.3417      4827.4772      2181.9108     -45387.163      0.279         -3.3695115      11.033573      33.695115     -0.42011798    -0.17427795     148.17392      102.2153       103.04041    
   2800000   301.05304      0.94730746    -23530.977      3734.1076      4929.8545      2175.3739     -45452.083      0.28           1.1383054     -4.0450154     -11.383054      0.19717999    -0.94917245     148.28977      102.60676      102.44019    
   2810000   302.889        0.94748204    -23384.991      3731.8285      4999.0121      2161.1391     -45426.322      0.281          5.114892      -17.311993     -51.14892       0.8965911     -1.6836505      148.40563      102.08215      102.86731    
   2820000   299.16895      0.94615193    -23527.925      3760.5632      4989.882       2125.9878     -45416.774      0.282          4.100712      -13.78858      -41.00712      -0.89790354     0.53928507     148.52148      102.50498      102.50697    
   2830000   299.28138      0.947663      -23663.735      3665.6547      4909.8795      2150.3006     -45406.124      0.283         -1.304621       4.2796916      13.04621      -0.16154457    -0.045591062    148.63733      102.66337      102.10598    
   2840000   301.05089      0.94845706    -23597.774      3708.4251      5059.1701      2130.6951     -45577.754      0.284          5.6076568     -18.557462     -56.076568     -0.54630294     0.95048518     148.75318      102.31148      102.29166    
   2850000   298.52723      0.9453408     -23490.896      3768.391       5004.3681      2156.9143     -45409.364      0.285          7.2094205     -24.274954     -72.094205     -0.53264252    -0.19801322     148.86903      102.54796      102.3125     
   2860000   298.37807      0.94553267    -23550.099      3743.181       4935.3663      2155.1872     -45367.137      0.286         -0.41692587     1.2977344      4.1692587     -0.049768211   -0.22628722     148.98488      102.70619      102.05474    
   2870000   300.39027      0.94651367    -23435.696      3760.2875      4938.3627      2147.1224     -45338.841      0.287          1.8755852     -6.354619      -18.755852     -0.66084396     0.35283865     149.10073      102.47299      102.10158    
   2880000   300.30391      0.94720447    -23499.49       3748.7236      5055.048       2141.2712     -45498.727      0.288          3.0665918     -10.307171     -30.665918      0.65155763    -0.90715331     149.21659      102.40669      102.0139     
   2890000   300.94732      0.9475352     -23588.036      3697.8105      4948.1467      2127.9873     -45439.859      0.289         -0.64859438     2.2953265      6.4859438      0.4048314     -0.0047956848   149.33244      101.90893      102.39689    
   2900000   302.14245      0.94701226    -23521.98       3695.0573      4976.9923      2155.3468     -45471.247      0.29          -0.74017665     2.2282322      7.4017665     -0.089615669   -0.62745406     149.44829      102.38661      101.8964     
   2910000   301.21201      0.94794579    -23684.318      3671.0696      4955.666       2166.7745     -45565.45       0.291          3.70484       -12.340989     -37.0484       -0.33114567     0.35657958     149.56414      102.57492      101.53046    
   2920000   300.68707      0.94880338    -23659.614      3738.861       5007.5597      2140.0018     -45614.335      0.292         -3.833062       12.831896      38.33062       0.13024473     0.034824458    149.67999      102.70125      101.2355     
   2930000   298.97601      0.94771882    -23584.884      3799.0366      4984.1386      2169.2938     -45542.667      0.293          3.8002392     -12.745939     -38.002392     -0.62023832     0.38481503     149.79584      103.55807      100.43505    
   2940000   300.16449      0.94849738    -23545.463      3714.706       5114.9801      2148.4661     -45572.677      0.294         -3.4677495      11.293662      34.677495     -1.2126578      0.41614776     149.91169      104.0261       99.823903    
   2950000   299.23637      0.9500724     -23675.893      3735.2994      5096.1752      2133.5347     -45655.8        0.295          4.215939      -14.136828     -42.15939      -0.070831629   -0.18026332     150.02755      104.0682       99.541179    
   2960000   297.92634      0.94870401    -23657.407      3772.4087      4980.6891      2147.0007     -45524.181      0.296          2.1548709     -7.2219779     -21.548709      0.054142134   -0.17136644     150.1434       104.15058      99.529044    
   2970000   299.56789      0.94761584    -23561.048      3753.6427      5001.967       2163.579      -45507.337      0.297          0.72036839    -2.7717612     -7.2036839     -0.35340816    -0.75819164     150.25925      103.85752      99.847469    
   2980000   300.04022      0.94766419    -23645.488      3752.3966      4934.9727      2140.2453     -45517.59       0.298          6.6762403     -22.033483     -66.762403      0.50273728     0.1592173      150.3751       104.06602      99.565563    
   2990000   303.56263      0.94945779    -23596.618      3654.9023      5042.7252      2150.9559     -45619.349      0.299          0.19571423    -0.88822535    -1.9571423     -0.61803638    -0.089497323    150.49095      103.61932      99.729059    
   3000000   300.58218      0.94757693    -23697.055      3752.7897      4896.2529      2132.8876     -45543.422      0.3            2.739849      -9.2480364     -27.39849      -0.076519586   -0.26909992     150.6068       103.84438      99.633743    
Loop time of 1396.43 on 16 procs for 3000000 steps with 12350 atoms

Performance: 185.616 ns/day, 0.129 hours/ns, 2148.336 timesteps/s, 26.532 Matom-step/s
97.9% CPU use with 16 MPI tasks x no OpenMP threads

MPI task timing breakdown:
Section |  min time  |  avg time  |  max time  |%varavg| %total
---------------------------------------------------------------
Pair    | 538.55     | 552.94     | 610.86     |  67.8 | 39.60
Bond    | 208.42     | 211.1      | 215.33     |  12.4 | 15.12
Neigh   | 61.943     | 61.978     | 62.039     |   0.3 |  4.44
Comm    | 301.94     | 354.78     | 375.71     |  89.1 | 25.41
Output  | 0.25418    | 0.30405    | 0.35105    |   5.7 |  0.02
Modify  | 180.76     | 185.39     | 193.42     |  32.7 | 13.28
Other   |            | 29.94      |            |       |  2.14

Nlocal:        771.875 ave         789 max         753 min
Histogram: 1 1 1 3 2 1 2 2 2 1
Nghost:        2392.75 ave        2421 max        2364 min
Histogram: 2 2 0 1 2 2 1 4 1 1
Neighs:        25986.8 ave       26764 max       25182 min
Histogram: 3 0 1 2 2 2 1 2 0 3

Total # of neighbors = 415789
Ave neighs/atom = 33.667126
Ave special neighs/atom = 5.76
Neighbor list builds = 55350
Dangerous builds = 0
Total wall time: 1:08:25
