LAMMPS (29 Aug 2024)
# LAMMPS输入文件示例：使用Martini 3粗粒化力场计算PDMS的均方回转半径
# -----------------------------------------------------
# 1. 初始化设置
# -----------------------------------------------------
units               real
dimension           3
boundary            p p p
atom_style          full

# 读取包含PDMS分子结构的data文件
read_data           bad_pdms_10_box.data
Reading data file ...
  orthogonal box = (-2.108001 -1.1785 -1.396996) to (151.022 150.1315 150.413)
  4 by 2 by 2 MPI processor grid
  reading atoms ...
  26130 atoms
  scanning bonds ...
  1 = max bonds/atom
  scanning angles ...
  1 = max angles/atom
  scanning dihedrals ...
  1 = max dihedrals/atom
  orthogonal box = (-2.108001 -1.1785 -1.396996) to (151.022 150.1315 150.413)
  4 by 2 by 2 MPI processor grid
  reading bonds ...
  23517 bonds
  reading angles ...
  20904 angles
  reading dihedrals ...
  18291 dihedrals
Finding 1-2 1-3 1-4 neighbors ...
  special bond factors lj:    0        0        0       
  special bond factors coul:  0        0        0       
     2 = max # of 1-2 neighbors
     2 = max # of 1-3 neighbors
     4 = max # of 1-4 neighbors
     6 = max # of special neighbors
  special bonds CPU = 0.003 seconds
  read_data CPU = 0.156 seconds

# -----------------------------------------------------
# 2. 力场参数设置（Martini 3参数）
# -----------------------------------------------------
# 定义非键相互作用（示例：Lennard-Jones势，截断距离可参考Martini 3常用取值）
pair_style lj/cut   12.0
special_bonds       lj 0.0 0.0 0.5
Finding 1-2 1-3 1-4 neighbors ...
  special bond factors lj:    0        0        0.5     
  special bond factors coul:  0        0        0       
     2 = max # of 1-2 neighbors
     2 = max # of 1-3 neighbors
     4 = max # of 1-4 neighbors
     6 = max # of special neighbors
  special bonds CPU = 0.001 seconds
pair_coeff          1 1 0.7337 5.1
# 定义键、角、二面角势（示例参数，实际参数请参考相关文献）
bond_style          harmonic
bond_coeff          1 13.243 4.48
angle_style         harmonic
angle_coeff         1 5.48 86.0
dihedral_style      harmonic
dihedral_coeff      1 0.3346  1  1
# -----------------------------------------------------
# 3. 邻域列表设置
# -----------------------------------------------------
neigh_modify    one 1000
neighbor        1 bin
neigh_modify    delay 0 every 1 check yes

# -----------------------------------------------------
# 4. 能量最小化与预平衡
# -----------------------------------------------------
minimize        1.0e-4 1.0e-6 1000 10000

CITE-CITE-CITE-CITE-CITE-CITE-CITE-CITE-CITE-CITE-CITE-CITE-CITE

Your simulation uses code contributions which should be cited:

- Type Label Framework: https://doi.org/10.1021/acs.jpcb.3c08419

@Article{Gissinger24,
 author = {Jacob R. Gissinger, Ilia Nikiforov, Yaser Afshar, Brendon Waters, Moon-ki Choi, Daniel S. Karls, Alexander Stukowski, Wonpil Im, Hendrik Heinz, Axel Kohlmeyer, and Ellad B. Tadmor},
 title = {Type Label Framework for Bonded Force Fields in LAMMPS},
 journal = {J. Phys. Chem. B},
 year =    2024,
 volume =  128,
 number =  13,
 pages =   {3282–-3297}
}

CITE-CITE-CITE-CITE-CITE-CITE-CITE-CITE-CITE-CITE-CITE-CITE-CITE

Generated 0 of 0 mixed pair_coeff terms from geometric mixing rule
Neighbor list info ...
  update: every = 1 steps, delay = 0 steps, check = yes
  max neighbors/atom: 1000, page size: 100000
  master list distance cutoff = 13
  ghost atom cutoff = 13
  binsize = 6.5, bins = 24 24 24
  1 neighbor lists, perpetual/occasional/extra = 1 0 0
  (1) pair lj/cut, perpetual
      attributes: half, newton on
      pair build: half/bin/newton
      stencil: half/bin/3d
      bin: standard
Per MPI rank memory allocation (min/avg/max) = 8.445 | 8.505 | 8.881 Mbytes
   Step          Temp          E_pair         E_mol          TotEng         Press     
         0   0              3.1012118e+08  127107.56      3.1024828e+08  24330864     
       854   0             -115265.35      34103.802     -81161.548      417.34372    
Loop time of 1.86161 on 16 procs for 854 steps with 26130 atoms

97.1% CPU use with 16 MPI tasks x no OpenMP threads

Minimization stats:
  Stopping criterion = energy tolerance
  Energy initial, next-to-last, final = 
      310248284.586559  -81154.6006204582  -81161.5476823733
  Force two-norm initial, final = 28680001 46.207236
  Force max component initial, final = 1094020.9 12.773188
  Final line search alpha, max atom move = 0.0057625333 0.073605923
  Iterations, force evaluations = 854 855

MPI task timing breakdown:
Section |  min time  |  avg time  |  max time  |%varavg| %total
---------------------------------------------------------------
Pair    | 0.36085    | 0.67754    | 1.1476     |  24.7 | 36.40
Bond    | 0.071651   | 0.10866    | 0.15817    |   6.5 |  5.84
Neigh   | 0.40246    | 0.40508    | 0.40855    |   0.3 | 21.76
Comm    | 0.098879   | 0.58651    | 0.94291    |  26.7 | 31.51
Output  | 0          | 0          | 0          |   0.0 |  0.00
Modify  | 0          | 0          | 0          |   0.0 |  0.00
Other   |            | 0.08382    |            |       |  4.50

Nlocal:        1633.12 ave        1943 max        1303 min
Histogram: 2 2 3 1 0 0 1 1 4 2
Nghost:        2952.31 ave        3558 max        2358 min
Histogram: 5 3 0 0 0 0 0 1 3 4
Neighs:        58566.7 ave       78958 max       42519 min
Histogram: 4 2 2 0 1 1 1 1 3 1

Total # of neighbors = 937067
Ave neighs/atom = 35.86173
Ave special neighs/atom = 4.8
Neighbor list builds = 118
Dangerous builds = 0
fix             1 all npt temp 600.0 600.0 100.0 iso 1.0 1.0 1000
timestep        1
thermo_style    custom step temp press density vol
thermo          10000
run             500000
Generated 0 of 0 mixed pair_coeff terms from geometric mixing rule
Per MPI rank memory allocation (min/avg/max) = 7.322 | 7.406 | 7.808 Mbytes
   Step          Temp          Press         Density         Volume    
       854   0              417.34372      0.88816298     3517452.9    
     10000   603.03625     -1.0101138      0.62986139     4959934.9    
     20000   606.44083     -16.712234      0.61393892     5088570.6    
     30000   602.40141     -0.84255083     0.62482772     4999892.6    
     40000   598.83142      36.04993       0.63832346     4894182.5    
     50000   599.60852      21.092754      0.65871726     4742659.3    
     60000   602.06213      29.208786      0.6796573      4596539.3    
     70000   602.46952      1.31492        0.69332413     4505932.2    
     80000   597.16144      31.823837      0.70235914     4447968.7    
     90000   601.29303      18.115726      0.71142084     4391312.9    
    100000   598.22496      12.881234      0.7177116      4352822.9    
    110000   598.29106     -17.537483      0.72187927     4327692.5    
    120000   595.49766      30.94877       0.73239339     4265564.8    
    130000   603.26737      3.3533497      0.73353991     4258897.8    
    140000   603.83296      34.287586      0.73657139     4241369.6    
    150000   600.42646     -4.2932059      0.73527949     4248821.8    
    160000   606.20554     -12.410529      0.73854572     4230031.3    
    170000   598.49405      17.15922       0.74339587     4202433.2    
    180000   600.40671      7.9164269      0.74639269     4185560.2    
    190000   601.64201      12.402276      0.74252933     4207337.5    
    200000   603.01666      50.21133       0.74282547     4205660.2    
    210000   606.36505      4.1905675      0.74294405     4204988.9    
    220000   601.89411     -11.607093      0.73991278     4222215.9    
    230000   598.0366       0.32249783     0.74817238     4175603.9    
    240000   593.684       -54.187372      0.73633596     4242725.7    
    250000   597.33271      12.048093      0.74071904     4217620.1    
    260000   602.01408      19.394164      0.73814192     4232345.3    
    270000   599.03266      12.932124      0.74277589     4205940.9    
    280000   600.29595     -20.862143      0.74549428     4190604.2    
    290000   596.30762      17.759957      0.7421839      4209295.7    
    300000   602.44089      21.320026      0.74202052     4210222.5    
    310000   601.39009     -15.842572      0.73860472     4229693.4    
    320000   599.8764       10.100546      0.7412419      4214645.1    
    330000   590.47958     -27.836484      0.74416847     4198070.2    
    340000   597.6028      -51.64397       0.74529214     4191740.9    
    350000   599.27779      4.491361       0.74641719     4185422.8    
    360000   605.12263     -17.125531      0.74104689     4215754.2    
    370000   601.09459     -13.349109      0.74016527     4220775.6    
    380000   601.41458      12.797552      0.74236807     4208251.4    
    390000   603.96767     -9.3629841      0.74101532     4215933.8    
    400000   601.30085     -11.424154      0.74434217     4197090.6    
    410000   600.51918      10.335968      0.74600891     4187713.4    
    420000   596.54163      16.955795      0.74293791     4205023.7    
    430000   600.88553     -12.682493      0.74127956     4214430.9    
    440000   599.49708      7.2026276      0.74315045     4203821.1    
    450000   593.33988     -10.483229      0.74665356     4184097.8    
    460000   601.22478     -1.6969664      0.74188861     4210971.1    
    470000   594.04822     -35.431244      0.74171586     4211951.9    
    480000   604.51812      51.257423      0.7444372      4196554.8    
    490000   598.66338     -1.4615944      0.74056505     4218497.1    
    500000   602.15313      15.587071      0.74434849     4197055      
    500854   596.88744     -23.73673       0.73883896     4228352.4    
Loop time of 428.7 on 16 procs for 500000 steps with 26130 atoms

Performance: 100.770 ns/day, 0.238 hours/ns, 1166.316 timesteps/s, 30.476 Matom-step/s
98.6% CPU use with 16 MPI tasks x no OpenMP threads

MPI task timing breakdown:
Section |  min time  |  avg time  |  max time  |%varavg| %total
---------------------------------------------------------------
Pair    | 174.61     | 190.28     | 211.11     |  57.8 | 44.39
Bond    | 65.541     | 70.763     | 78.2       |  31.5 | 16.51
Neigh   | 29.769     | 29.803     | 29.834     |   0.4 |  6.95
Comm    | 67.77      | 94.544     | 115.75     | 103.4 | 22.05
Output  | 0.0016837  | 0.0018007  | 0.0030197  |   0.7 |  0.00
Modify  | 35.29      | 36.641     | 38.268     |  15.6 |  8.55
Other   |            | 6.668      |            |       |  1.56

Nlocal:        1633.12 ave        1659 max        1589 min
Histogram: 1 1 1 0 1 0 4 3 3 2
Nghost:        3060.06 ave        3109 max        2975 min
Histogram: 1 0 0 1 1 3 4 3 1 2
Neighs:        43002.2 ave       44360 max       41125 min
Histogram: 1 2 0 0 1 3 3 3 1 2

Total # of neighbors = 688035
Ave neighs/atom = 26.331228
Ave special neighs/atom = 4.8
Neighbor list builds = 13174
Dangerous builds = 0
unfix           1

# variable        lambda equal ramp(0.8,1.0)
# fix             2 all adapt 1 pair lj/cut/soft lambda * * v_lambda

# fix             3 all npt temp 600.0 600.0 100.0 iso 1.0 1.0 1000
# timestep        1
# thermo_style    custom step temp press density vol
# thermo          10000
# run             50000
# unfix           3

# -----------------------------------------------------
# 5. 计算均方回转半径
# -----------------------------------------------------
# 使用compute gyration命令计算整个体系的回转半径
fix             equil all npt temp 600.0 600.0 100.0 iso 1.0 1.0 1000
group           pdms1 id <= 10
10 atoms in group pdms1
group           pdms2 id 11:20
10 atoms in group pdms2
group           pdms3 id 21:30
10 atoms in group pdms3
group           pdms4 id 31:40
10 atoms in group pdms4
group           pdms5 id 41:50
10 atoms in group pdms5
group           pdms6 id 51:60
10 atoms in group pdms6
group           pdms7 id 61:70
10 atoms in group pdms7
group           pdms8 id 71:80
10 atoms in group pdms8
group           pdms9 id 81:90
10 atoms in group pdms9
group           pdms10 id 91:100
10 atoms in group pdms10
# variable        d_end equal "sqrt((x[1]-x[10])^2 + (y[1]-y[10])^2 + (z[1]-z[10])^2)"
compute         rg1 pdms1 gyration
compute         rg2 pdms2 gyration
compute         rg3 pdms3 gyration
compute         rg4 pdms4 gyration
compute         rg5 pdms5 gyration
compute         rg6 pdms6 gyration
compute         rg7 pdms7 gyration
compute         rg8 pdms8 gyration
compute         rg9 pdms9 gyration
compute         rg10 pdms10 gyration
# fix             avg pdms ave/time 1000 800 1000000 c_rg v_d_end file avg.txt
# 输出热力学信息及回转半径数据，每隔1000步输出一次
thermo_style    custom step temp pe ke etotal c_rg1 c_rg2 c_rg3 c_rg4 c_rg5 c_rg6 c_rg7 c_rg8 c_rg9 c_rg10 press density vol
thermo          10000
# 输出轨迹文件，便于后续可视化与分析
dump            traj all custom 1000 dump.pdms.lammpstrj id type x y z
# 运行模拟，记录回转半径数据（后续可统计分析均值与波动）
run             1000000
Generated 0 of 0 mixed pair_coeff terms from geometric mixing rule
Per MPI rank memory allocation (min/avg/max) = 7.338 | 7.416 | 7.812 Mbytes
   Step          Temp          PotEng         KinEng         TotEng         c_rg1          c_rg2          c_rg3          c_rg4          c_rg5          c_rg6          c_rg7          c_rg8          c_rg9          c_rg10         Press         Density         Volume    
    500854   596.88744     -36489.718      46488.928      9999.2108      5.5458407      6.2577795      6.3353993      6.7639549      6.9564776      6.6829022      7.2418952      6.4360889      6.7317781      7.9098783     -23.73673       0.73883896     4228352.4    
    510000   602.50667     -37015.375      46926.585      9911.2103      5.8347278      6.3818917      6.0235496      5.8768136      7.1144975      5.3810364      5.5161914      5.392741       5.4033326      6.9712749     -20.518835      0.74207961     4209887.3    
    520000   597.19861     -37469.256      46513.164      9043.9076      5.1246229      7.2871967      5.6848046      6.3275763      6.4389279      6.3214173      5.5204007      6.6653401      5.6893206      6.6588493      33.864839      0.7475112      4179297.3    
    530000   595.33996     -37289.892      46368.402      9078.5095      5.3896637      6.1496863      6.9108927      7.7955476      7.7315078      6.1607594      6.9723406      6.4848827      7.2763958      6.2562564     -21.05548       0.74275045     4206085      
    540000   598.36369     -36981.328      46603.906      9622.578       6.3777635      6.6826916      7.8670872      7.1915507      5.9933069      6.2268092      6.8888685      6.4536038      6.7588005      6.4976832     -32.753868      0.74288475     4205324.6    
    550000   598.1287      -37059.347      46585.604      9526.2566      6.9457295      7.3608975      6.8418055      6.6413967      7.8220029      7.412106       7.7838435      5.4800712      5.501723       6.7332476      23.638094      0.74181694     4211378      
    560000   600.62469     -36565.664      46780.006      10214.342      6.6018214      6.6636649      7.6360023      6.0573889      8.2194676      5.8582762      5.9334762      5.2188756      6.1063224      7.0331845     -45.594286      0.73659051     4241259.5    
    570000   599.21577     -37225.12       46670.272      9445.1513      7.6892969      7.9858422      5.9689413      7.1955577      5.1382036      5.7869832      5.4567045      6.3108487      6.1926615      5.4133856      18.650713      0.74583719     4188677.6    
    580000   595.34911     -36560.214      46369.115      9808.9002      6.6004214      6.8319783      6.5027666      7.4862974      5.4008951      8.1003203      5.3267934      5.1345014      7.1985826      7.7583892     -13.378116      0.74095022     4216304.2    
    590000   603.47823     -36810.93       47002.255      10191.325      5.2633926      5.9204441      6.0779383      6.2680921      6.2694693      7.9712295      5.977732       6.1265482      5.6726842      6.4388586      16.57587       0.74203481     4210141.5    
    600000   599.97428     -37738.307      46729.349      8991.0419      5.6859998      6.2700082      5.9158295      7.1736885      6.6744617      6.6062626      5.3947197      6.7339367      7.1119687      6.1671744      20.851212      0.74649656     4184977.8    
    610000   599.28157     -37427.044      46675.396      9248.3515      5.3518593      6.0230401      7.0498547      6.813485       5.3901851      7.3398788      5.7037916      6.5169839      7.1420741      5.7849955      38.185385      0.74354194     4201607.7    
    620000   598.90254     -37037.624      46645.875      9608.2518      5.2834956      5.498213       5.321884       6.4523154      5.3801651      5.8132087      5.7762812      6.5990383      7.4291533      6.7853157      25.561539      0.74033984     4219780.3    
    630000   594.68755     -36647.887      46317.588      9669.7013      6.2819897      6.8221738      4.8532335      6.1396152      4.9248945      6.8937065      6.047049       6.673386       7.4632618      6.6118493      10.989166      0.73894835     4227726.5    
    640000   597.74116     -37075.951      46555.42       9479.4694      6.5447107      5.485128       7.2874803      7.5093946      5.7322564      6.1008386      5.9452553      6.0108541      5.2307623      5.4238395     -1.7530673      0.74175075     4211753.8    
    650000   597.17415     -37024.96       46511.258      9486.2988      6.1390179      6.4778901      7.0989566      6.3071422      5.6133098      6.5387918      5.7082665      7.8298121      5.3569166      7.1002832      24.495646      0.74278683     4205879      
    660000   606.07339     -36928.825      47204.381      10275.556      6.3653499      5.6019668      5.6758261      5.8073601      6.652279       5.1113044      6.2885972      6.4445317      5.9953112      6.2774387     -25.51216       0.74108174     4215555.9    
    670000   603.78674     -36956.598      47026.284      10069.687      5.421668       6.6587224      5.8369531      5.9957629      6.9861468      7.6043213      7.4639109      6.5766107      6.4883084      7.5817931      52.790681      0.74132186     4214190.5    
    680000   601.06663     -36489.02       46814.427      10325.407      6.4785613      6.1728919      5.8745749      6.9396333      8.2360285      7.6795928      8.1064852      6.8578592      6.419786       6.0371069      20.00082       0.73714086     4238093      
    690000   600.84872     -36580.501      46797.454      10216.953      6.3072834      5.4477446      6.6761392      7.4465961      7.5516533      7.3546715      5.655962       5.6221918      6.061837       6.1472151     -2.6621276      0.73940326     4225125.4    
    700000   601.86887     -36621.079      46876.91       10255.831      5.5158921      7.343166       5.6029279      7.1534713      7.5018229      5.9993384      8.2529745      6.2322744      6.5812937      5.5146342      38.562474      0.73776541     4234505.2    
    710000   601.95626     -36865.225      46883.716      10018.49       6.2806564      8.0980751      7.6792291      6.8993778      8.5493388      6.3313212      6.595134       6.7759804      7.4062986      5.8523202     -5.9769756      0.74190909     4210854.9    
    720000   605.58012     -36874.08       47165.962      10291.883      6.3339505      6.7986088      6.3000856      5.5700921      5.7672339      6.8403464      5.9006572      6.8138023      6.9675676      5.9233711      7.23267        0.74123238     4214699.2    
    730000   597.87794     -37005.902      46566.074      9560.1717      6.720747       7.3825439      5.8879689      6.5105003      5.0523626      6.6643696      5.9643613      5.2285705      5.748695       5.154299       26.987497      0.7435003      4201843      
    740000   602.33854     -36883.723      46913.49       10029.768      6.0359389      6.5950528      6.2566831      5.5819451      7.023264       6.8796782      5.7951348      4.9260648      6.6150108      5.8450247     -11.880336      0.74054139     4218631.9    
    750000   597.6877      -37077.357      46551.257      9473.8996      5.7427277      6.3320651      5.8113032      7.0128457      6.9750367      6.96682        6.5002146      5.7575192      6.4228067      7.1177891      36.494763      0.74509942     4192825      
    760000   598.04474     -36505.027      46579.065      10074.038      6.9844702      5.7966208      5.8238757      6.0696834      6.2299192      7.6620427      5.1595078      7.331662       6.2592906      5.905209       51.703686      0.74147349     4213328.7    
    770000   600.77294     -37507.624      46791.552      9283.9288      7.5551697      5.626544       5.9545493      6.29146        5.4991582      5.4903312      4.7820961      6.8309929      5.9335609      5.6771165     -18.365341      0.74648797     4185025.9    
    780000   599.69686     -36765.882      46707.741      9941.8592      6.80703        6.0304929      7.6400872      6.3386348      5.5019663      5.5378164      5.851626       6.8028453      6.5515381      6.5322638      40.903227      0.74399506     4199048.7    
    790000   597.51445     -36838.301      46537.763      9699.4615      6.6206914      7.1088203      6.7310977      6.1216978      7.2703701      5.7046632      7.5907138      7.742207       5.8292152      6.0751206     -17.50079       0.74095866     4216256.2    
    800000   599.59178     -37153.809      46699.557      9545.7479      8.1425341      6.2470006      6.7367624      8.6784782      7.2398757      6.3155865      6.540303       6.0133894      5.431963       5.9386732      5.628          0.74136082     4213969      
    810000   595.78397     -36968.414      46402.984      9434.57        7.0322295      5.3395478      5.2878837      7.5410005      7.2967747      5.8174802      6.9621517      7.6917436      5.6477386      6.6299605     -21.43395       0.7409439      4216340.1    
    820000   598.45211     -37211.316      46610.793      9399.4778      5.5924815      5.2987014      7.0831702      7.0432153      7.602313       7.3530259      6.4782988      7.7795142      5.8212184      5.4397189      19.06198       0.74500064     4193381      
    830000   595.98998     -36946.179      46419.029      9472.85        6.2291441      5.780943       6.6490467      7.5636244      7.0338998      6.8800751      6.8469126      8.1969775      5.2577333      6.5463543      6.9785318      0.7427756      4205942.6    
    840000   601.17147     -37053.399      46822.592      9769.1932      6.0048843      7.7124139      5.8119318      6.9182218      6.7451402      5.3997987      7.7420167      7.3428085      5.7446286      5.7817561      36.081949      0.7404216      4219314.4    
    850000   601.64941     -36830.347      46859.817      10029.47       5.0577701      6.6069887      5.4431587      5.7610325      8.7143488      5.2208558      6.7518966      6.4034583      5.333943       5.964627      -13.12064       0.74039272     4219479      
    860000   594.3641      -37168.032      46292.396      9124.3644      5.7792968      6.4613276      4.9602001      6.4476057      6.325105       6.1367383      5.800621       5.8738825      4.7424831      5.8713722      33.606416      0.74311865     4204001      
    870000   601.26528     -37380.427      46829.899      9449.4716      8.0364598      4.7940748      5.865739       5.895553       5.8915169      6.7463655      5.4826593      6.8731879      5.6748956      6.2754248      53.848137      0.74547915     4190689.3    
    880000   600.87532     -37166.932      46799.526      9632.5939      6.4616292      5.0049758      6.6043024      6.8274981      6.416803       8.1698173      6.3138844      5.2884729      6.4776157      5.4691772      0.87353394     0.7410836      4215545.3    
    890000   600.86055     -37153.711      46798.376      9644.665       7.4456019      6.1214219      6.6784084      7.3684482      7.4315729      6.339332       5.596953       5.8966759      6.4094406      6.3555433     -14.178366      0.7434376      4202197.3    
    900000   600.89808     -36749.094      46801.299      10052.206      6.6324427      5.4023246      6.8530877      6.6555286      6.4524393      7.2374515      5.4604651      5.3799752      6.3293398      8.9436544      20.528949      0.74105729     4215695      
    910000   597.69165     -36932.779      46551.565      9618.7857      7.8192701      6.7486033      6.3667649      6.6836741      6.5560445      5.5391489      5.2494327      5.1893122      6.75151        7.5127552     -12.215022      0.74190191     4210895.6    
    920000   599.34264     -36445.544      46680.152      10234.608      7.1406913      7.1375222      4.949123       6.3222008      6.3926893      7.1236643      5.5667175      6.0456451      7.7690539      7.1085687     -33.368748      0.73725394     4237442.9    
    930000   601.76926     -36856.989      46869.151      10012.162      5.7435511      6.3477482      6.1444659      7.279519       5.7047221      5.6123561      6.1102008      6.3627763      5.9780099      6.0787696     -31.504415      0.74088287     4216687.4    
    940000   603.46977     -36993.293      47001.596      10008.303      5.8595507      7.0476993      5.9973663      6.9352056      4.7812423      7.4499657      6.4718676      5.9917608      6.245121       7.5195783     -50.811548      0.74085619     4216839.3    
    950000   604.36733     -37026.122      47071.504      10045.381      6.6421854      5.2669318      6.253353       6.3993223      5.4223927      7.143493       5.636672       6.6353746      6.672382       6.3408977      36.818483      0.73968314     4223526.7    
    960000   602.81895     -36552.5        46950.907      10398.407      5.8593526      5.2936999      5.125155       7.2914123      5.5365336      5.9867848      5.3464602      6.4205863      8.6003738      5.156194       7.3310436      0.73974568     4223169.7    
    970000   603.28717     -37018.236      46987.374      9969.1385      4.8237467      5.3041298      6.7542567      7.9732227      6.3066945      7.0183557      5.4714699      8.0946352      8.486205       6.2077733     -15.568665      0.74246332     4207711.6    
    980000   600.57033     -37267.533      46775.772      9508.2386      5.5590565      6.5027951      6.1681581      6.9294528      5.7113578      7.4306076      6.0937894      6.5539074      7.7356219      5.7442463     -7.9876698      0.74314408     4203857.1    
    990000   595.25534     -37491.704      46361.811      8870.1063      5.3594909      7.5099507      6.4945334      7.7502196      5.6732166      6.5249092      7.4620488      4.9954761      6.760955       7.6333416      40.942412      0.74596703     4187948.5    
   1000000   605.15525     -36960.496      47132.871      10172.375      6.3863266      6.3068831      6.1835814      6.0267447      5.5734549      6.5301464      7.3349714      6.1779965      6.8558822      7.3756409     -26.841213      0.74316213     4203755      
   1010000   596.79688     -37434.485      46481.875      9047.3893      6.6673765      6.3683188      6.940079       5.4531069      5.9822325      6.2197708      6.2742738      6.6776614      6.4286404      7.414364       32.177423      0.745132       4192641.7    
   1020000   601.13548     -37479.932      46819.789      9339.8574      6.6550202      6.4383683      6.6191837      7.3885302      6.4971337      6.0786855      7.0514885      6.8056846      6.8275792      7.7712327     -27.707852      0.74448558     4196282.1    
   1030000   598.2524      -36696.631      46595.238      9898.6076      5.6972523      5.3437609      7.847594       7.2696406      6.4756702      8.1931812      5.5201322      6.2162598      6.9205004      7.6573728      14.968557      0.74083233     4216975.1    
   1040000   599.16927     -37017.135      46666.65       9649.5146      5.9911889      5.1577323      5.2998452      8.9250306      5.4704958      7.9465439      5.3603653      6.5431524      7.6105631      6.7568993      13.955961      0.74352481     4201704.5    
   1050000   602.42525     -37035.223      46920.243      9885.0207      7.529243       5.7983358      8.087875       6.7315751      5.7302217      7.3151026      5.4562962      6.5338841      6.8396881      6.4326745     -15.219702      0.74292367     4205104.3    
   1060000   596.92526     -37226.053      46491.874      9265.8205      6.3565816      7.2829331      7.0343272      6.1829279      5.9646882      5.8797298      5.5027394      6.5702461      6.905893       6.8063705      0.53433336     0.74134481     4214060      
   1070000   594.60109     -36947.64       46310.854      9363.214       7.350605       7.5738979      7.5784451      7.0826336      7.628762       5.5832905      6.0273714      6.0482671      6.4010329      6.7893085      14.439465      0.74221603     4209113.5    
   1080000   601.24068     -36946.622      46827.982      9881.3598      6.0223863      6.1195487      6.4753249      6.6843107      6.437897       6.9647078      6.2541004      6.1552494      6.1089796      9.2527733     -9.8777257      0.74206633     4209962.6    
   1090000   597.8883      -36992.542      46566.881      9574.3384      5.0904759      6.6320724      6.3503711      5.7039268      7.2367964      5.844607       5.1530807      6.1185148      6.6955367      7.5015311      3.1730444      0.739004       4227408.1    
   1100000   599.04739     -37585.242      46657.157      9071.915       6.7508014      7.2446908      7.6647815      6.1595318      5.4803528      5.1504811      5.1560548      5.4391466      6.1729025      6.7601262      33.510069      0.74538286     4191230.7    
   1110000   603.36133     -37216.444      46993.151      9776.7065      6.7182994      7.0594832      6.2935655      7.1677425      6.3967777      5.474469       5.0341004      6.5021952      6.9545245      6.0894123      6.1790473      0.74633395     4185889.6    
   1120000   594.2171      -37132.128      46280.947      9148.8186      7.9591008      5.2607036      6.3578048      7.2459343      6.7180173      5.3264754      5.6900322      7.7784149      9.2396845      5.4703245      9.662035       0.74394582     4199326.6    
   1130000   605.45847     -36593.473      47156.487      10563.014      6.2364868      7.1388761      8.1215818      7.1115211      7.0681523      5.6511055      7.4151576      5.7204902      7.0878347      6.5533495     -23.654739      0.74047568     4219006.2    
   1140000   604.49931     -36958.205      47081.783      10123.577      7.3696038      6.8783853      5.3808749      6.3751164      7.3737018      6.4465533      7.5661894      4.9868979      8.107425       7.5552707     -32.321303      0.74037029     4219606.8    
   1150000   592.80365     -36924.764      46170.859      9246.0955      6.1482938      7.2103048      5.3403907      6.9441102      7.1806275      6.2691007      5.977759       7.2103929      7.1136593      5.9855253     -22.158362      0.74273427     4206176.6    
   1160000   601.1775      -36884.142      46823.062      9938.9199      5.2705622      5.8140587      5.6281174      7.101311       8.241124       5.6133367      5.9109733      6.5022563      5.9199193      6.0858993     -16.197492      0.74343771     4202196.7    
   1170000   592.0289      -36632.371      46110.518      9478.1472      5.2818068      6.4769915      7.3672782      6.3541089      5.7645224      5.9082361      5.8034297      5.7355147      7.6684374      5.5821669      1.9499803      0.74016509     4220776.6    
   1180000   602.82484     -36788.671      46951.366      10162.695      5.6086156      5.6177356      5.8478279      5.3263242      5.0726677      6.7249278      6.1654822      5.747056       7.0544278      5.0950685      15.57882       0.74125644     4214562.4    
   1190000   599.53529     -36856.019      46695.157      9839.1385      5.3725546      5.2847629      5.5713459      5.240595       6.3323818      6.993414       7.844782       5.0440365      5.1865382      5.0947496     -25.00978       0.7393718      4225305.2    
   1200000   603.15152     -36520.585      46976.81       10456.225      6.7669128      7.2743012      5.9074651      6.784457       6.2377886      6.9646025      7.2456185      7.3807125      4.8428452      5.4249497      23.060634      0.73964864     4223723.7    
   1210000   594.2         -37013.545      46279.615      9266.0704      6.268123       6.5838054      6.5519658      7.4906194      6.6391349      6.3603348      5.8853924      7.4133077      6.2086815      4.8280405     -1.9867198      0.74340775     4202366      
   1220000   602.02062     -36570.604      46888.729      10318.124      5.1391546      6.3065852      5.8041195      5.8540223      5.9464116      7.7886497      7.6104344      7.8966292      6.6086665      6.6599016     -20.60475       0.74057606     4218434.4    
   1230000   597.56519     -36873.81       46541.715      9667.9052      8.6004556      7.4941269      6.0944501      5.1749394      6.8839429      8.2491487      6.8391769      6.8410582      5.4471788      6.2057019     -19.999943      0.74205973     4210000.1    
   1240000   601.12022     -36575.157      46818.601      10243.444      8.1695824      6.8240314      5.6047945      6.1480012      7.6038408      6.371905       8.0129371      7.0639152      6.1653029      6.8542758      35.822013      0.74059729     4218313.4    
   1250000   600.45374     -37114.34       46766.691      9652.3513      7.5367312      6.8445825      5.6512252      6.3880855      7.1274414      6.1743652      6.2990387      4.9933218      6.0751776      7.0373932      53.25886       0.74207675     4209903.5    
   1260000   599.2154      -37170.668      46670.243      9499.5753      5.4293948      7.5367229      5.6928618      5.8858181      7.224743       7.8240517      6.1422317      4.9543895      7.7314178      7.0137524      14.62983       0.74414258     4198216.3    
   1270000   597.80521     -37105.07       46560.409      9455.3387      6.017379       6.3890892      5.6426519      5.4605421      8.3344226      7.5242208      7.3479412      5.5326656      5.777306       5.7170782      20.10894       0.74569872     4189455.4    
   1280000   600.52038     -37107.429      46771.881      9664.4521      6.0929628      5.6898923      5.1768689      5.5581992      6.230734       7.3185304      6.1189882      5.4371062      6.1703945      5.0300897     -0.1860424      0.74507778     4192946.8    
   1290000   598.56574     -36612.145      46619.643      10007.498      5.899497       7.1293467      5.7091498      7.3342235      6.7436099      6.4031288      6.3492931      5.9691305      7.3216281      6.4762382     -7.7462458      0.74129314     4214353.8    
   1300000   599.63987     -36464.284      46703.302      10239.019      5.9610745      7.4680385      5.9640037      7.3413153      6.7644557      6.5517742      7.7801474      5.4414346      7.1209805      5.6949222     -24.590509      0.73842357     4230731      
   1310000   599.39729     -37535.38       46684.409      9149.0292      6.7485791      6.475808       5.5057865      7.3180259      5.5077463      5.1584033      6.411764       5.7477344      5.9062139      6.3892547     -19.681005      0.74464797     4195367      
   1320000   599.05776     -37531.9        46657.965      9126.0645      6.8050851      7.7406188      7.6448386      6.8627064      7.2168139      7.8377581      6.6535405      5.8885521      5.5150529      5.8731307      4.3965167      0.7454861      4190650.2    
   1330000   600.83203     -37139.009      46796.155      9657.1453      5.9902525      6.8317339      6.2377152      6.8100371      7.7681031      6.6129482      5.5422246      5.3445415      6.8782354      5.9307754      22.881361      0.74395638     4199267.1    
   1340000   598.83339     -36664.001      46640.489      9976.4882      6.4607784      6.1313967      6.5596597      8.1897899      6.6217096      5.6709507      5.3854834      5.8352722      5.4873086      6.919211       19.781054      0.7390398      4227203.4    
   1350000   599.26475     -36855.28       46674.086      9818.8065      7.9576933      6.4991272      6.2400376      6.1577752      6.6772141      6.4445454      5.2282351      5.3772223      5.3619771      5.8331494      31.453516      0.74400578     4198988.2    
   1360000   597.74457     -37084.597      46555.686      9471.0883      7.4417468      6.4073117      6.970739       8.4139202      7.0005269      6.8196203      5.6705122      5.1662765      5.8362622      5.5629967     -1.0509158      0.74340484     4202382.5    
   1370000   598.49402     -37204.387      46614.057      9409.67        7.0231442      6.4548969      6.7457163      6.1948735      7.4247011      6.6948819      6.6503563      6.6035437      6.0596827      5.424514       32.188429      0.74491474     4193864.5    
   1380000   599.11001     -37090.681      46662.034      9571.3524      7.3851525      6.5201247      6.3005639      7.0404059      6.2452721      6.4611868      6.2456275      5.596293       5.7173537      8.0029275      0.89648089     0.74455271     4195903.7    
   1390000   594.1969      -37305.426      46279.374      8973.9479      5.9593474      6.1954784      5.2594204      6.9112866      7.632243       6.227609       6.2042157      6.7873432      5.0399351      7.6351618     -15.825968      0.74392006     4199472.1    
   1400000   601.21415     -37024.762      46825.916      9801.1544      5.6347445      6.5633069      6.5438219      7.4425481      7.1795296      6.3699745      6.5741663      5.5848168      6.8149224      6.7049166      13.108488      0.74129667     4214333.6    
   1410000   602.60178     -36939.474      46933.992      9994.5184      6.6145245      5.8529286      6.9379152      5.7942062      6.1944222      7.0211996      6.1428308      6.7263241      5.5997644      7.0758034      22.666248      0.73905698     4227105      
   1420000   603.67336     -36776.231      47017.453      10241.222      6.9176418      8.0920765      6.1475707      5.792895       5.3825579      6.2629278      5.8033484      7.6618449      7.5915592      5.9599989      35.027381      0.73987175     4222450.1    
   1430000   602.48044     -36737.509      46924.542      10187.033      5.4735004      6.5629137      5.8366051      5.1266714      5.2776505      7.5306691      5.1319928      7.5441739      7.1701566      5.0083348     -26.530063      0.73993332     4222098.7    
   1440000   592.58822     -36867.912      46154.081      9286.1686      6.2340819      7.244797       5.5444983      7.0027567      5.4916293      7.142609       5.8924316      7.5885698      6.2610038      6.5676572     -6.0496146      0.74205501     4210026.8    
   1450000   599.19464     -37395.421      46668.625      9273.2045      7.2275433      6.7097579      5.9959509      7.0088678      5.0550838      7.0254818      6.0162762      6.4496848      5.5096481      6.0889985     -15.882352      0.74369295     4200754.5    
   1460000   598.46771     -36863.565      46612.008      9748.4428      6.6879606      7.0261222      5.8169488      7.7649258      6.2634905      6.7610882      6.0064532      6.5208318      5.0716625      7.8359208      18.473555      0.7415749      4212752.5    
   1470000   601.73717     -36948.148      46866.652      9918.504       7.4350437      6.7591051      5.9986878      8.2109535      4.9190368      5.5290457      6.0322196      6.1551663      7.4351619      7.543778      -53.164701      0.74094904     4216310.9    
   1480000   608.57359     -37044.486      47399.111      10354.625      6.1171275      6.2520487      7.5510569      6.3040103      6.1104338      5.9678836      6.4063223      7.853364       6.2111482      5.8206527      3.8390678      0.74208425     4209860.9    
   1490000   600.78094     -37481.689      46792.175      9310.4867      7.5894865      6.5042038      6.1923544      6.4066942      7.0893899      5.9946889      6.0052873      5.8629905      5.1748733      7.1111876      35.524264      0.74501696     4193289.1    
   1500000   601.60686     -37283.457      46856.503      9573.0459      7.7851137      5.2535498      6.0997162      6.3401486      6.3175447      6.9315122      6.3330437      5.7713996      5.4586356      7.7771136     -31.076862      0.74463128     4195461      
   1500854   603.51506     -36926.565      47005.124      10078.559      7.4542279      5.8210914      6.3504892      5.9831546      6.3650273      6.3432999      6.4251893      5.7227811      4.8987479      7.2478138     -19.956715      0.74416751     4198075.6    
Loop time of 854.103 on 16 procs for 1000000 steps with 26130 atoms

Performance: 101.159 ns/day, 0.237 hours/ns, 1170.819 timesteps/s, 30.593 Matom-step/s
98.7% CPU use with 16 MPI tasks x no OpenMP threads

MPI task timing breakdown:
Section |  min time  |  avg time  |  max time  |%varavg| %total
---------------------------------------------------------------
Pair    | 371.84     | 384.3      | 403.75     |  47.9 | 44.99
Bond    | 138.32     | 142.63     | 149.72     |  29.4 | 16.70
Neigh   | 58.634     | 58.679     | 58.714     |   0.3 |  6.87
Comm    | 154.19     | 180.15     | 196.14     |  94.5 | 21.09
Output  | 1.8489     | 2.3775     | 2.9134     |  21.1 |  0.28
Modify  | 71.835     | 72.826     | 74.724     |   9.2 |  8.53
Other   |            | 13.15      |            |       |  1.54

Nlocal:        1633.12 ave        1661 max        1594 min
Histogram: 1 1 0 2 1 3 4 0 2 2
Nghost:         3063.5 ave        3102 max        3013 min
Histogram: 1 0 2 2 1 3 1 2 1 3
Neighs:        43304.9 ave       44497 max       41404 min
Histogram: 1 1 0 1 3 2 0 4 1 3

Total # of neighbors = 692878
Ave neighs/atom = 26.516571
Ave special neighs/atom = 4.8
Neighbor list builds = 26249
Dangerous builds = 0
unfix           equil
# -----------------------------------------------------
# 6. 数据输出
# -----------------------------------------------------


# # 写出最终体系数据文件
# write_data      pdms_out.data
Total wall time: 0:21:24
