LAMMPS (29 Aug 2024)
package gpu 1
# LAMMPS输入文件示例：使用Martini 3粗粒化力场计算PDMS的均方回转半径
# -----------------------------------------------------
# 1. 初始化设置
# -----------------------------------------------------
units               real
dimension           3
boundary            p p p
atom_style          full

# 读取包含PDMS分子结构的data文件
read_data           PDMS.data
Reading data file ...
  orthogonal box = (-62.5047 -62.5047 -62.5047) to (62.5047 62.5047 62.5047)
  1 by 1 by 1 MPI processor grid
  reading atoms ...
  14850 atoms
  reading velocities ...
  14850 velocities
  scanning bonds ...
  1 = max bonds/atom
  scanning angles ...
  1 = max angles/atom
  scanning dihedrals ...
  1 = max dihedrals/atom
  orthogonal box = (-62.5047 -62.5047 -62.5047) to (62.5047 62.5047 62.5047)
  1 by 1 by 1 MPI processor grid
  reading bonds ...
  14553 bonds
  reading angles ...
  14256 angles
  reading dihedrals ...
  13959 dihedrals
Finding 1-2 1-3 1-4 neighbors ...
  special bond factors lj:    0        0        0       
  special bond factors coul:  0        0        0       
     2 = max # of 1-2 neighbors
     2 = max # of 1-3 neighbors
     4 = max # of 1-4 neighbors
     6 = max # of special neighbors
  special bonds CPU = 0.003 seconds
  read_data CPU = 0.139 seconds

# -----------------------------------------------------
# 2. 力场参数设置（Martini 3参数）
# -----------------------------------------------------
# 定义非键相互作用（示例：Lennard-Jones势，截断距离可参考Martini 3常用取值）
pair_style 	    lj/cut/gpu 12.0
pair_coeff          * * 0.7337 5.1
# 定义键、角、二面角势（示例参数，实际参数请参考相关文献）
bond_style          harmonic
bond_coeff          1 13.243 4.48
angle_style         harmonic
angle_coeff         1 5.48 86.0
dihedral_style      harmonic
dihedral_coeff      1 0.3346  1  1
# -----------------------------------------------------
# 3. 邻域列表设置
# -----------------------------------------------------
neigh_modify    one 2000
neighbor        2 bin
neigh_modify    delay 0 every 100 check yes

# -----------------------------------------------------
# 4. 能量最小化与预平衡
# -----------------------------------------------------
minimize        1.0e-4 1.0e-6 1000 10000

CITE-CITE-CITE-CITE-CITE-CITE-CITE-CITE-CITE-CITE-CITE-CITE-CITE

Your simulation uses code contributions which should be cited:

- GPU package (short-range, long-range and three-body potentials): doi:10.1016/j.cpc.2010.12.021, doi:10.1016/j.cpc.2011.10.012, doi:10.1016/j.cpc.2013.08.002, doi:10.1016/j.commatsci.2014.10.068, doi:10.1016/j.cpc.2016.10.020, doi:10.3233/APC200086

@Article{Brown11,
 author = {W. M. Brown and P. Wang and S. J. Plimpton and A. N. Tharrington},
 title = {Implementing Molecular Dynamics on Hybrid High Performance Computers---Short Range Forces},
 journal = {Comput.\ Phys.\ Commun.},
 year =    2011,
 volume =  182,
 pages =   {898--911},
 doi =     {10.1016/j.cpc.2010.12.021}
}

@Article{Brown12,
 author = {W. M. Brown and A. Kohlmeyer and S. J. Plimpton and A. N. Tharrington},
 title = {Implementing Molecular Dynamics on Hybrid High Performance Computers - Particle-Particle Particle-Mesh},
 journal = {Comput.\ Phys.\ Commun.},
 year =    2012,
 volume =  183,
 doi =     {10.1016/j.cpc.2011.10.012},
 pages =   {449--459}
}

@Article{Brown13,
 author = {W. M. Brown and Y. Masako},
 title = {Implementing Molecular Dynamics on Hybrid High Performance Computers---Three-Body Potentials},
 journal = {Comput.\ Phys.\ Commun.},
 year =    2013,
 volume =  184,
 pages =   {2785--2793},
 doi =     {10.1016/j.cpc.2013.08.002},
}

@Article{Trung15,
 author = {T. D. Nguyen and S. J. Plimpton},
 title = {Accelerating Dissipative Particle Dynamics Simulations for Soft Matter Systems},
 journal = {Comput.\ Mater.\ Sci.},
 year =    2015,
 doi =     {10.1016/j.commatsci.2014.10.068},
 volume =  100,
 pages =   {173--180}
}

@Article{Trung17,
 author = {T. D. Nguyen},
 title = {{GPU}-Accelerated {T}ersoff Potentials for Massively Parallel
    Molecular Dynamics Simulations},
 journal = {Comput.\ Phys.\ Commun.},
 year =    2017,
 doi =     {10.1016/j.cpc.2016.10.020},
 volume =  212,
 pages =   {113--122}
}

@inproceedings{Nikolskiy19,
 author = {V. Nikolskiy and V. Stegailov},
 title = {{GPU} Acceleration of Four-Site Water Models in {LAMMPS}},
 booktitle = {Proceedings of the International Conference on Parallel
    Computing (ParCo 2019), Prague, Czech Republic},
 doi =     {10.3233/APC200086},
 year =    2019
}

- Type Label Framework: https://doi.org/10.1021/acs.jpcb.3c08419

@Article{Gissinger24,
 author = {Jacob R. Gissinger, Ilia Nikiforov, Yaser Afshar, Brendon Waters, Moon-ki Choi, Daniel S. Karls, Alexander Stukowski, Wonpil Im, Hendrik Heinz, Axel Kohlmeyer, and Ellad B. Tadmor},
 title = {Type Label Framework for Bonded Force Fields in LAMMPS},
 journal = {J. Phys. Chem. B},
 year =    2024,
 volume =  128,
 number =  13,
 pages =   {3282–-3297}
}

CITE-CITE-CITE-CITE-CITE-CITE-CITE-CITE-CITE-CITE-CITE-CITE-CITE

Switching to 'neigh_modify every 1 delay 0 check yes' setting during minimization
Generated 0 of 1 mixed pair_coeff terms from geometric mixing rule
WARNING: Inconsistent image flags (../domain.cpp:1051)
Per MPI rank memory allocation (min/avg/max) = 16.56 | 16.56 | 16.56 Mbytes
   Step          Temp          E_pair         E_mol          TotEng         Press     
         0   3006253.6     -49858.65       11890.157      1.3302498e+08  3113211.3    
        71   3006253.6     -55400.299      6148.8133      1.3301369e+08  3111858.7    
Loop time of 0.114865 on 1 procs for 71 steps with 14850 atoms

99.6% CPU use with 1 MPI tasks x no OpenMP threads

Minimization stats:
  Stopping criterion = energy tolerance
  Energy initial, next-to-last, final = 
     -37968.4925447619  -49247.3136661361  -49251.4861550839
  Force two-norm initial, final = 766.80946 26.750616
  Force max component initial, final = 23.685398 7.3496493
  Final line search alpha, max atom move = 0.012868897 0.094581877
  Iterations, force evaluations = 71 88

MPI task timing breakdown:
Section |  min time  |  avg time  |  max time  |%varavg| %total
---------------------------------------------------------------
Pair    | 0.01425    | 0.01425    | 0.01425    |   0.0 | 12.41
Bond    | 0.08135    | 0.08135    | 0.08135    |   0.0 | 70.82
Neigh   | 0.0024245  | 0.0024245  | 0.0024245  |   0.0 |  2.11
Comm    | 0.0033266  | 0.0033266  | 0.0033266  |   0.0 |  2.90
Output  | 0          | 0          | 0          |   0.0 |  0.00
Modify  | 3.657e-06  | 3.657e-06  | 3.657e-06  |   0.0 |  0.00
Other   |            | 0.01351    |            |       | 11.76

Nlocal:          14850 ave       14850 max       14850 min
Histogram: 1 0 0 0 0 0 0 0 0 0
Nghost:          12398 ave       12398 max       12398 min
Histogram: 1 0 0 0 0 0 0 0 0 0
Neighs:              0 ave           0 max           0 min
Histogram: 1 0 0 0 0 0 0 0 0 0

Total # of neighbors = 0
Ave neighs/atom = 0
Ave special neighs/atom = 5.76
Neighbor list builds = 3
Dangerous builds = 0

fix             1 all npt/gpu temp 300.0 300.0 100.0 iso 1.0 1.0 1000
timestep        0.25
thermo_style    custom step temp press density vol
thermo          10000
run             100000
Generated 0 of 1 mixed pair_coeff terms from geometric mixing rule
WARNING: Inconsistent image flags (../domain.cpp:1051)
Per MPI rank memory allocation (min/avg/max) = 14.72 | 14.72 | 14.72 Mbytes
   Step          Temp          Press         Density         Volume    
        71   3006253.6      3111858.7      0.90882444     1953565.7    
     10000   300.97546     -174.48507      0.97859306     1814286.5    
     20000   297.41146     -29.885791      1.0568262      1679981.3    
     30000   298.7697      -4.7406039      1.1062098      1604983.3    
     40000   298.54607     -27.542868      1.1389703      1558818.7    
     50000   300.55878      9.0291592      1.1611541      1529037.6    
     60000   301.51272     -19.103922      1.1793552      1505439.8    
     70000   300.40784     -6.2916668      1.1954511      1485170.1    
     80000   301.17788     -7.5839343      1.2108925      1466231.1    
     90000   299.66277     -5.2006167      1.2243632      1450099.3    
    100000   297.76958     -41.016221      1.2347878      1437856.9    
    100071   296.56988     -57.537645      1.2349253      1437696.9    
Loop time of 148.092 on 1 procs for 100000 steps with 14850 atoms

Performance: 14.586 ns/day, 1.645 hours/ns, 675.257 timesteps/s, 10.028 Matom-step/s
96.1% CPU use with 1 MPI tasks x no OpenMP threads

MPI task timing breakdown:
Section |  min time  |  avg time  |  max time  |%varavg| %total
---------------------------------------------------------------
Pair    | 13.202     | 13.202     | 13.202     |   0.0 |  8.91
Bond    | 114.08     | 114.08     | 114.08     |   0.0 | 77.03
Neigh   | 0.0050348  | 0.0050348  | 0.0050348  |   0.0 |  0.00
Comm    | 3.5379     | 3.5379     | 3.5379     |   0.0 |  2.39
Output  | 0.0013434  | 0.0013434  | 0.0013434  |   0.0 |  0.00
Modify  | 16.555     | 16.555     | 16.555     |   0.0 | 11.18
Other   |            | 0.7096     |            |       |  0.48

Nlocal:          14850 ave       14850 max       14850 min
Histogram: 1 0 0 0 0 0 0 0 0 0
Nghost:          13955 ave       13955 max       13955 min
Histogram: 1 0 0 0 0 0 0 0 0 0
Neighs:              0 ave           0 max           0 min
Histogram: 1 0 0 0 0 0 0 0 0 0

Total # of neighbors = 0
Ave neighs/atom = 0
Ave special neighs/atom = 5.76
Neighbor list builds = 204
Dangerous builds = 1
unfix           1

fix             2 all npt/gpu temp 300.0 50.0 100.0 iso 1.0 1.0 100
timestep        0.25
thermo_style    custom step temp press density vol
thermo          10000
dump            traj all custom 1000 dump.pdms.lammpstrj id type x y z
run             1000000
Generated 0 of 1 mixed pair_coeff terms from geometric mixing rule
WARNING: Inconsistent image flags (../domain.cpp:1051)
Per MPI rank memory allocation (min/avg/max) = 14.73 | 14.73 | 14.73 Mbytes
   Step          Temp          Press         Density         Volume    
    100071   296.56988     -57.537644      1.2349253      1437696.9    
    110000   301.27666      77.799753      1.2500741      1420274.4    
    120000   298.78158     -31.821542      1.2616149      1407282.2    
    130000   290.33353     -5.9057091      1.2725957      1395139.3    
    140000   291.6193      -13.938451      1.2799416      1387132.2    
    150000   283.13896     -62.570899      1.2930801      1373038.1    
    160000   284.92222      49.34781       1.3028428      1362749.4    
    170000   285.20642     -14.344586      1.3074653      1357931.4    
    180000   281.06527     -46.194157      1.3139043      1351276.7    
    190000   274.22628     -46.89121       1.3214474      1343563.3    
    200000   277.20944     -58.838085      1.3235965      1341381.8    
    210000   273.15283     -8.6613833      1.3310286      1333891.9    
    220000   272.74456      44.203999      1.3379704      1326971.2    
    230000   269.6092       21.989761      1.3435425      1321467.8    
    240000   265.40347     -136.6594       1.3452971      1319744.3    
    250000   264.92645     -51.724415      1.3513867      1313797.3    
    260000   257.38942     -10.919934      1.355272       1310030.9    
    270000   260.00734     -51.425068      1.3578267      1307566.2    
    280000   255.31258     -91.681259      1.3656197      1300104.5    
    290000   251.8477       47.225706      1.3710599      1294945.7    
    300000   246.83258     -21.031419      1.3762971      1290018.1    
    310000   247.94053      29.225601      1.3794114      1287105.6    
    320000   246.78418     -53.598615      1.3813453      1285303.7    
    330000   243.87224     -4.2966371      1.3860013      1280986      
    340000   241.96639      14.818343      1.3900379      1277266.1    
    350000   237.78993      39.670128      1.3943251      1273338.8    
    360000   237.6372       24.607289      1.3938638      1273760.2    
    370000   230.95695      15.952164      1.3957826      1272009.2    
    380000   227.88186     -43.367381      1.400369       1267843.2    
    390000   227.20032     -28.006031      1.4021217      1266258.3    
    400000   225.37665      89.964871      1.4088727      1260190.6    
    410000   223.01259     -72.493428      1.4067902      1262056.1    
    420000   221.13633      24.487635      1.4108328      1258439.9    
    430000   219.02474     -23.408511      1.4139889      1255630.9    
    440000   216.84314      63.323352      1.4189761      1251217.9    
    450000   214.25988      2.5943301      1.4192317      1250992.5    
    460000   213.17895     -86.376985      1.4205031      1249872.8    
    470000   206.77155     -19.439153      1.4240232      1246783.2    
    480000   204.52797      18.945527      1.4235821      1247169.5    
    490000   202.16836      70.113055      1.4273306      1243894.2    
    500000   200.02406      55.073692      1.4323948      1239496.4    
    510000   197.03402      42.680203      1.4319337      1239895.6    
    520000   194.98304      3.5622493      1.4329913      1238980.4    
    530000   192.0843      -39.523497      1.436604       1235864.7    
    540000   189.26919     -47.904076      1.4371215      1235419.7    
    550000   185.9847       52.749673      1.4402087      1232771.5    
    560000   185.98396     -19.570915      1.4394266      1233441.3    
    570000   183.13288     -34.035791      1.4429414      1230436.8    
    580000   179.87705      16.628572      1.4446853      1228951.5    
    590000   178.17167     -12.634827      1.4458439      1227966.7    
    600000   174.59793      27.896414      1.4463025      1227577.4    
    610000   172.82704     -30.292376      1.4482937      1225889.6    
    620000   171.48803     -27.841401      1.4500892      1224371.7    
    630000   167.69721      52.019047      1.4558001      1219568.6    
    640000   167.62741     -3.7240424      1.4543269      1220804      
    650000   161.57657     -48.170946      1.4542275      1220887.5    
    660000   158.80816     -18.513686      1.457995       1217732.7    
    670000   158.02703      12.970675      1.4594619      1216508.8    
    680000   154.91016      27.673715      1.4612705      1215003.1    
    690000   151.6968       22.523836      1.4609732      1215250.4    
    700000   149.75781      45.458222      1.4642209      1212554.9    
    710000   146.3784       77.512452      1.4647627      1212106.4    
    720000   145.54138      54.586183      1.4670274      1210235.2    
    730000   143.00411      11.232579      1.4668912      1210347.5    
    740000   138.36242      9.1083297      1.4666486      1210547.8    
    750000   135.66983     -15.637965      1.4669975      1210259.9    
    760000   135.3429      -30.221834      1.4688258      1208753.4    
    770000   131.93557     -27.98337       1.4704977      1207379.1    
    780000   129.8511       28.076514      1.4718905      1206236.6    
    790000   126.87706      12.262156      1.4730612      1205278      
    800000   125.12011     -75.917569      1.4722486      1205943.3    
    810000   122.33286      41.22134       1.4750045      1203690      
    820000   119.10957      9.8286466      1.4733373      1205052.1    
    830000   118.45831     -36.306175      1.4761963      1202718.2    
    840000   115.05392      29.014084      1.4786174      1200748.9    
    850000   112.35652     -43.830673      1.4781326      1201142.8    
    860000   110.94984      27.232874      1.4796148      1199939.5    
    870000   108.65273     -14.316907      1.4816124      1198321.7    
    880000   105.82573      54.561532      1.4817013      1198249.7    
    890000   103.11078     -21.707366      1.4828554      1197317.2    
    900000   100.62703     -8.6110623      1.4828834      1197294.5    
    910000   99.122215      40.775456      1.4857693      1194969      
    920000   95.358793     -51.385097      1.4858802      1194879.8    
    930000   92.059573     -10.813003      1.487619       1193483.1    
    940000   88.794523      33.3351        1.4886218      1192679.2    
    950000   87.125432      9.0634607      1.4887253      1192596.2    
    960000   84.47535      -8.1067212      1.4905206      1191159.8    
    970000   82.829069     -40.492031      1.4903946      1191260.5    
    980000   80.382043     -18.755429      1.4925572      1189534.4    
    990000   78.344162     -4.8334205      1.4918556      1190093.9    
   1000000   74.936061      27.901703      1.4930809      1189117.2    
   1010000   73.016879      26.778525      1.4950163      1187577.8    
   1020000   69.834496      28.313977      1.4963848      1186491.8    
   1030000   67.642042      42.563138      1.498008       1185206.1    
   1040000   65.159847      10.691393      1.4968818      1186097.8    
   1050000   63.050486      7.194938       1.4980333      1185186.1    
   1060000   59.479111     -11.142602      1.4987425      1184625.3    
   1070000   57.102512     -6.8174129      1.4997387      1183838.4    
   1080000   55.473061     -28.231693      1.4996134      1183937.2    
   1090000   52.655788     -3.9748591      1.5007801      1183016.9    
   1100000   49.849904      37.839126      1.5031318      1181166      
   1100071   49.73347      -37.711435      1.5019898      1182064.1    
Loop time of 1492.01 on 1 procs for 1000000 steps with 14850 atoms

Performance: 14.477 ns/day, 1.658 hours/ns, 670.236 timesteps/s, 9.953 Matom-step/s
96.1% CPU use with 1 MPI tasks x no OpenMP threads

MPI task timing breakdown:
Section |  min time  |  avg time  |  max time  |%varavg| %total
---------------------------------------------------------------
Pair    | 133.9      | 133.9      | 133.9      |   0.0 |  8.97
Bond    | 1140.7     | 1140.7     | 1140.7     |   0.0 | 76.45
Neigh   | 0.032238   | 0.032238   | 0.032238   |   0.0 |  0.00
Comm    | 37.462     | 37.462     | 37.462     |   0.0 |  2.51
Output  | 7.3303     | 7.3303     | 7.3303     |   0.0 |  0.49
Modify  | 165.25     | 165.25     | 165.25     |   0.0 | 11.08
Other   |            | 7.388      |            |       |  0.50

Nlocal:          14850 ave       14850 max       14850 min
Histogram: 1 0 0 0 0 0 0 0 0 0
Nghost:          15098 ave       15098 max       15098 min
Histogram: 1 0 0 0 0 0 0 0 0 0
Neighs:              0 ave           0 max           0 min
Histogram: 1 0 0 0 0 0 0 0 0 0

Total # of neighbors = 0
Ave neighs/atom = 0
Ave special neighs/atom = 5.76
Neighbor list builds = 1385
Dangerous builds = 0
unfix           2

# # -----------------------------------------------------
# # 5. 计算均方回转半径
# # -----------------------------------------------------
# # 使用compute gyration命令计算整个体系的回转半径
# fix             equil all nvt temp 300.0 300.0 100.0
# compute         rg all gyration
# fix             avg all ave/time 1000 500 1000000 c_rg file avg.txt
# # 输出热力学信息及回转半径数据，每隔1000步输出一次
# thermo_style    custom step temp pe ke etotal c_rg
# thermo          10000
# # 输出轨迹文件，便于后续可视化与分析
# dump            traj all custom 1000 dump.pdms.lammpstrj id type x y z
# # 运行模拟，记录回转半径数据（后续可统计分析均值与波动）
# run             1000000
# unfix           equil
# # -----------------------------------------------------
# # 6. 数据输出
# # -----------------------------------------------------


# # 写出最终体系数据文件
# write_data      pdms_out.data
Total wall time: 0:27:20
