LAMMPS (29 Aug 2024)
# LAMMPS输入文件示例：使用Martini 3粗粒化力场计算PDMS的均方回转半径
# -----------------------------------------------------
# 1. 初始化设置
# -----------------------------------------------------
units               real
dimension           3
boundary            p p p
atom_style          full

# 读取包含PDMS分子结构的data文件
read_data           bad_pdms_150_box.data
Reading data file ...
  orthogonal box = (-2.100004 -1.605996 -2.182997) to (241.31 241.814 241.267)
  2 by 2 by 4 MPI processor grid
  reading atoms ...
  85200 atoms
  scanning bonds ...
  1 = max bonds/atom
  scanning angles ...
  1 = max angles/atom
  scanning dihedrals ...
  1 = max dihedrals/atom
  orthogonal box = (-2.100004 -1.605996 -2.182997) to (241.31 241.814 241.267)
  2 by 2 by 4 MPI processor grid
  reading bonds ...
  84632 bonds
  reading angles ...
  84064 angles
  reading dihedrals ...
  83496 dihedrals
Finding 1-2 1-3 1-4 neighbors ...
  special bond factors lj:    0        0        0       
  special bond factors coul:  0        0        0       
     2 = max # of 1-2 neighbors
     2 = max # of 1-3 neighbors
     4 = max # of 1-4 neighbors
     6 = max # of special neighbors
  special bonds CPU = 0.006 seconds
  read_data CPU = 0.573 seconds

# -----------------------------------------------------
# 2. 力场参数设置（Martini 3参数）
# -----------------------------------------------------
# 定义非键相互作用（示例：Lennard-Jones势，截断距离可参考Martini 3常用取值）
pair_style lj/cut   12.0
pair_coeff          1 1 0.7337 5.1
special_bonds       lj 0.0 0.0 0.5
Finding 1-2 1-3 1-4 neighbors ...
  special bond factors lj:    0        0        0.5     
  special bond factors coul:  0        0        0       
     2 = max # of 1-2 neighbors
     2 = max # of 1-3 neighbors
     4 = max # of 1-4 neighbors
     6 = max # of special neighbors
  special bonds CPU = 0.004 seconds
# 定义键、角、二面角势（示例参数，实际参数请参考相关文献）
bond_style          harmonic
bond_coeff          1 13.243 4.48
angle_style         harmonic
angle_coeff         1 5.48 86.0
dihedral_style      harmonic
dihedral_coeff      1 0.3346  1  1
# -----------------------------------------------------
# 3. 邻域列表设置
# -----------------------------------------------------
neigh_modify    one 1000
neighbor        1 bin
neigh_modify    delay 0 every 1 check yes

# -----------------------------------------------------
# 4. 能量最小化与预平衡
# -----------------------------------------------------
minimize        1.0e-4 1.0e-6 1000 10000

CITE-CITE-CITE-CITE-CITE-CITE-CITE-CITE-CITE-CITE-CITE-CITE-CITE

Your simulation uses code contributions which should be cited:

- Type Label Framework: https://doi.org/10.1021/acs.jpcb.3c08419

@Article{Gissinger24,
 author = {Jacob R. Gissinger, Ilia Nikiforov, Yaser Afshar, Brendon Waters, Moon-ki Choi, Daniel S. Karls, Alexander Stukowski, Wonpil Im, Hendrik Heinz, Axel Kohlmeyer, and Ellad B. Tadmor},
 title = {Type Label Framework for Bonded Force Fields in LAMMPS},
 journal = {J. Phys. Chem. B},
 year =    2024,
 volume =  128,
 number =  13,
 pages =   {3282–-3297}
}

CITE-CITE-CITE-CITE-CITE-CITE-CITE-CITE-CITE-CITE-CITE-CITE-CITE

Generated 0 of 0 mixed pair_coeff terms from geometric mixing rule
Neighbor list info ...
  update: every = 1 steps, delay = 0 steps, check = yes
  max neighbors/atom: 1000, page size: 100000
  master list distance cutoff = 13
  ghost atom cutoff = 13
  binsize = 6.5, bins = 38 38 38
  1 neighbor lists, perpetual/occasional/extra = 1 0 0
  (1) pair lj/cut, perpetual
      attributes: half, newton on
      pair build: half/bin/newton
      stencil: half/bin/3d
      bin: standard
Per MPI rank memory allocation (min/avg/max) = 9.579 | 10.1 | 10.49 Mbytes
   Step          Temp          E_pair         E_mol          TotEng         Press     
         0   0              7.1330728e+15  292577.29      7.1330728e+15  1.3563017e+14
      1000   0             -356013.83      217036.17     -138977.66      1286.532     
Loop time of 7.59053 on 16 procs for 1000 steps with 85200 atoms

97.7% CPU use with 16 MPI tasks x no OpenMP threads

Minimization stats:
  Stopping criterion = max iterations
  Energy initial, next-to-last, final = 
    7.13307282713164e+15  -138825.510733377  -138977.664228731
  Force two-norm initial, final = 4.5441221e+17 165.74161
  Force max component initial, final = 2.4490236e+17 18.904931
  Final line search alpha, max atom move = 0.0052514387 0.099278085
  Iterations, force evaluations = 1000 1020

MPI task timing breakdown:
Section |  min time  |  avg time  |  max time  |%varavg| %total
---------------------------------------------------------------
Pair    | 1.6849     | 3.1293     | 4.5504     |  48.7 | 41.23
Bond    | 0.37565    | 0.59306    | 0.78956    |  16.9 |  7.81
Neigh   | 1.555      | 1.5595     | 1.5644     |   0.2 | 20.55
Comm    | 0.52646    | 2.0013     | 3.2864     |  58.9 | 26.37
Output  | 9.1093e-05 | 9.7143e-05 | 0.00018255 |   0.0 |  0.00
Modify  | 0          | 0          | 0          |   0.0 |  0.00
Other   |            | 0.3073     |            |       |  4.05

Nlocal:           5325 ave        7143 max        3789 min
Histogram: 4 1 1 2 0 0 3 2 2 1
Nghost:           4473 ave        5972 max        3047 min
Histogram: 2 5 1 0 0 0 0 2 4 2
Neighs:         203478 ave      294709 max      113903 min
Histogram: 3 0 2 3 0 0 3 1 3 1

Total # of neighbors = 3255655
Ave neighs/atom = 38.211913
Ave special neighs/atom = 5.92
Neighbor list builds = 136
Dangerous builds = 0
fix             1 all npt temp 900.0 900.0 100.0 iso 1.0 1.0 1000
timestep        1
thermo_style    custom step temp press density vol
thermo          10000
run             500000
Generated 0 of 0 mixed pair_coeff terms from geometric mixing rule
Per MPI rank memory allocation (min/avg/max) = 8.456 | 8.98 | 9.362 Mbytes
   Step          Temp          Press         Density         Volume    
      1000   0              1286.532       0.70618209     14424622     
     10000   898.09786     -1.2704083      0.5025762      20268389     
     20000   895.53         1.2056256      0.47974195     21233102     
     30000   902.32672      9.5169706      0.4634436      21979827     
     40000   899.91213     -9.2588153      0.45421121     22426593     
     50000   899.13255      11.093675      0.45795591     22243211     
     60000   894.84858     -17.171401      0.47686606     21361155     
     70000   899.29422      12.426512      0.49759906     20471120     
     80000   902.83936     -8.9985712      0.51443676     19801093     
     90000   897.69979     -0.98320364     0.53788342     18937951     
    100000   898.05694      6.9832202      0.55782732     18260866     
    110000   896.30771      0.50201798     0.56919058     17896308     
    120000   900.23666     -9.0981719      0.58029726     17553779     
    130000   900.86939     -6.9639978      0.59396309     17149904     
    140000   902.79696     -7.1768954      0.60314781     16888746     
    150000   899.90733     -2.2196376      0.60717644     16776688     
    160000   901.46535     -25.027091      0.61452788     16575993     
    170000   898.28413     -19.677328      0.61306789     16615468     
    180000   898.40335      3.4244489      0.61824857     16476237     
    190000   903.73883     -0.69143431     0.6174269      16498164     
    200000   903.1342       1.8912938      0.62205672     16375372     
    210000   897.21528      9.8764718      0.62664403     16255497     
    220000   896.76802      4.0807007      0.6281522      16216468     
    230000   900.76227      14.982109      0.62584864     16276156     
    240000   898.54092      8.3559858      0.62384489     16328434     
    250000   896.98747     -19.694733      0.62553915     16284208     
    260000   900.08431      1.6497108      0.63436827     16057565     
    270000   898.02679      20.045777      0.62993826     16170489     
    280000   900.9336       16.697244      0.62907507     16192678     
    290000   895.48865     -19.443669      0.6262192      16266525     
    300000   900.64478      4.2018214      0.63190749     16120097     
    310000   899.3984       3.3373714      0.62928688     16187228     
    320000   901.58666     -21.809313      0.62982953     16173281     
    330000   898.90424      8.5176669      0.63369151     16074714     
    340000   898.9955       0.86806979     0.63426267     16060239     
    350000   900.08503      9.5917092      0.63447867     16054771     
    360000   901.56204      0.91024701     0.63008905     16166619     
    370000   902.39165      11.605299      0.63099052     16143523     
    380000   900.37446      8.2564326      0.62921403     16189102     
    390000   896.37235     -7.926378       0.63400863     16066674     
    400000   897.63931      6.3144829      0.62939852     16184356     
    410000   899.14653      8.0184061      0.62650539     16259094     
    420000   903.63322      16.664627      0.63328907     16084929     
    430000   904.17223     -9.1549287      0.63018128     16164254     
    440000   899.5154      -16.470467      0.62865885     16203399     
    450000   900.07201      7.2534914      0.63323029     16086422     
    460000   903.27584      12.670883      0.63383735     16071016     
    470000   898.0741      -0.059530012    0.63501202     16041287     
    480000   904.48242     -10.089718      0.63310243     16089671     
    490000   900.84154     -15.521888      0.63502345     16040998     
    500000   902.50604      5.5056955      0.6322539      16111265     
    501000   897.38379     -5.4641245      0.63160289     16127871     
Loop time of 1426.05 on 16 procs for 500000 steps with 85200 atoms

Performance: 30.294 ns/day, 0.792 hours/ns, 350.620 timesteps/s, 29.873 Matom-step/s
98.7% CPU use with 16 MPI tasks x no OpenMP threads

MPI task timing breakdown:
Section |  min time  |  avg time  |  max time  |%varavg| %total
---------------------------------------------------------------
Pair    | 491.65     | 586.55     | 646.46     | 159.6 | 41.13
Bond    | 277.49     | 311.73     | 339.77     |  89.5 | 21.86
Neigh   | 122.25     | 122.37     | 122.46     |   0.5 |  8.58
Comm    | 210.67     | 277.31     | 383.06     | 283.5 | 19.45
Output  | 0.0033202  | 0.0034701  | 0.0048188  |   0.6 |  0.00
Modify  | 98.696     | 108.87     | 131.56     | 121.9 |  7.63
Other   |            | 19.22      |            |       |  1.35

Nlocal:           5325 ave        5447 max        5196 min
Histogram: 2 1 0 1 2 1 5 2 1 1
Nghost:        5587.75 ave        5675 max        5454 min
Histogram: 1 0 0 2 1 3 3 3 1 2
Neighs:         118688 ave      125772 max      113066 min
Histogram: 2 1 1 2 3 3 1 2 0 1

Total # of neighbors = 1899006
Ave neighs/atom = 22.288803
Ave special neighs/atom = 5.92
Neighbor list builds = 16854
Dangerous builds = 0
unfix           1

# variable        lambda equal ramp(0.8,1.0)
# fix             2 all adapt 1 pair lj/cut/soft lambda * * v_lambda

# fix             3 all npt temp 900.0 900.0 100.0 iso 1.0 1.0 1000
# timestep        1
# thermo_style    custom step temp press density vol
# thermo          10000
# run             50000
# unfix           3

# -----------------------------------------------------
# 5. 计算均方回转半径
# -----------------------------------------------------
# 使用compute gyration命令计算整个体系的回转半径
fix             equil all npt temp 900.0 900.0 100.0 iso 1.0 1.0 1000
group           pdms1 id <= 150
150 atoms in group pdms1
group           pdms2 id 151:300
150 atoms in group pdms2
group           pdms3 id 301:450
150 atoms in group pdms3
group           pdms4 id 451:600
150 atoms in group pdms4
group           pdms5 id 601:750
150 atoms in group pdms5
group           pdms6 id 751:900
150 atoms in group pdms6
group           pdms7 id 901:1050
150 atoms in group pdms7
group           pdms8 id 1051:1200
150 atoms in group pdms8
group           pdms9 id 1201:1350
150 atoms in group pdms9
group           pdms10 id 1351:1500
150 atoms in group pdms10
# variable        d_end equal "sqrt((x[1]-x[10])^2 + (y[1]-y[10])^2 + (z[1]-z[10])^2)"
compute         rg1 pdms1 gyration
compute         rg2 pdms2 gyration
compute         rg3 pdms3 gyration
compute         rg4 pdms4 gyration
compute         rg5 pdms5 gyration
compute         rg6 pdms6 gyration
compute         rg7 pdms7 gyration
compute         rg8 pdms8 gyration
compute         rg9 pdms9 gyration
compute         rg10 pdms10 gyration
# fix             avg pdms ave/time 1000 800 1000000 c_rg v_d_end file avg.txt
# 输出热力学信息及回转半径数据，每隔1000步输出一次
thermo_style    custom step temp pe ke etotal c_rg1 c_rg2 c_rg3 c_rg4 c_rg5 c_rg6 c_rg7 c_rg8 c_rg9 c_rg10 press density vol
# fix             avg pdms ave/time 1000 800 1000000 c_rg v_d_end file avg.txt
# 输出热力学信息及回转半径数据，每隔1000步输出一次
thermo          10000
# 输出轨迹文件，便于后续可视化与分析
dump            traj all custom 1000 dump.pdms.lammpstrj id type x y z
# 运行模拟，记录回转半径数据（后续可统计分析均值与波动）
run             1000000
Generated 0 of 0 mixed pair_coeff terms from geometric mixing rule
Per MPI rank memory allocation (min/avg/max) = 8.553 | 9.023 | 9.378 Mbytes
   Step          Temp          PotEng         KinEng         TotEng         c_rg1          c_rg2          c_rg3          c_rg4          c_rg5          c_rg6          c_rg7          c_rg8          c_rg9          c_rg10         Press         Density         Volume    
    501000   897.38379      1362.4016      227901.41      229263.81      23.989776      21.976277      29.831787      28.651933      25.225699      23.725293      21.432172      26.187383      25.021061      25.814766     -5.4641245      0.63160289     16127871     
    510000   897.29548      1468.7614      227878.99      229347.75      25.959009      21.555756      27.964901      27.673598      26.525262      23.197674      22.262356      26.494344      25.13279       25.713114     -26.958307      0.63300988     16092024     
    520000   897.44516      1889.4796      227917         229806.48      26.298482      22.102693      26.51869       29.383429      26.497891      23.726974      21.458236      26.100047      25.366347      25.002506     -21.128758      0.63342872     16081383     
    530000   896.67805      1840.9429      227722.18      229563.13      25.800942      21.799895      24.363734      29.370084      26.001275      23.822055      21.605019      26.942119      26.483028      24.793133      10.576918      0.63103156     16142473     
    540000   898.25159      1656.5449      228121.8       229778.35      24.898031      22.44455       23.361312      28.93599       26.72095       22.910187      20.928965      26.475995      27.160413      24.164215     -15.09          0.63284392     16096244     
    550000   901.76695      1841.3193      229014.57      230855.89      24.476945      23.231887      22.721037      29.565038      26.903711      22.767677      20.844291      25.369842      26.527438      25.411239     -1.0262156      0.63185119     16121533     
    560000   903.72638      3306.6572      229512.19      232818.85      25.74177       22.251447      22.222172      28.378519      24.718012      22.338893      22.205113      29.396522      27.067013      24.864594      0.2585532      0.62809138     16218038     
    570000   900.76904      1156.5115      228761.14      229917.65      25.135695      22.026951      23.809235      28.323016      25.450373      23.848825      22.502921      28.680941      27.673743      23.336451      12.081659      0.63384348     16070860     
    580000   896.54299      2579.9436      227687.88      230267.83      24.220888      21.204034      23.410647      26.038739      25.229695      24.319388      23.388482      29.074206      27.106048      23.785812     -8.0550061      0.63238191     16108003     
    590000   900.82093      310.99434      228774.32      229085.31      23.270492      20.534039      22.541501      25.593502      25.275614      24.385413      23.187853      29.649227      27.324908      23.589364      4.1684803      0.6354188      16031018     
    600000   901.35879      1583.847       228910.91      230494.76      22.649908      21.556429      22.102165      25.146249      25.752317      24.751151      23.955838      28.688477      28.740161      25.434768     -6.8926268      0.63393078     16068647     
    610000   896.64287      381.48272      227713.25      228094.73      22.463898      22.260933      23.207028      24.117566      24.448272      25.33013       23.890771      28.612495      26.873098      25.560262     -3.818545       0.63571523     16023542     
    620000   902.20118      2430.8823      229124.85      231555.73      23.509009      24.082202      24.448358      23.935973      24.318025      25.371605      22.94534       28.354732      27.26543       24.999284      16.317209      0.62881342     16199416     
    630000   896.47572      1878.4015      227670.8       229549.2       23.10986       23.358035      25.377952      24.239607      25.368706      22.341198      23.256977      29.454907      26.562535      25.076831      14.317845      0.6292792      16187425     
    640000   905.43483      152.73395      229946.07      230098.81      23.166038      21.985479      25.905724      23.777971      24.601936      22.957836      21.070384      32.204714      26.719828      25.172261      7.6858515      0.63202008     16117225     
    650000   901.14816      2241.996       228857.42      231099.42      23.390411      22.828972      25.917058      22.71357       23.285154      23.387818      21.637517      33.626119      28.028032      24.974625     -16.188988      0.62871742     16201889     
    660000   896.82715      189.72635      227760.05      227949.77      21.222586      21.335539      25.370501      22.2744        24.22426       24.642605      22.154195      31.761438      29.164286      24.759775      21.16139       0.63051221     16155769     
    670000   896.92496      457.97907      227784.89      228242.87      22.668735      20.53833       28.020761      22.099828      23.615421      23.458371      22.147033      30.787871      28.076838      24.69668       15.257213      0.63512097     16038535     
    680000   895.81588      1305.8239      227503.23      228809.05      21.301154      21.22687       29.134072      21.639596      23.353222      21.976173      21.750091      27.837807      26.4762        24.323182      6.9210222      0.63484437     16045523     
    690000   901.42082      1695.7937      228926.67      230622.46      20.301082      21.220673      29.529302      22.394767      24.399331      22.749544      22.965686      27.329321      26.398586      24.882157      10.831638      0.63056342     16154458     
    700000   904.78644      949.70076      229781.4       230731.11      20.445623      21.757669      29.157808      23.401275      23.696825      21.959155      24.535304      24.915785      24.629175      24.912646      15.535449      0.63164256     16126858     
    710000   901.4401       774.18354      228931.56      229705.75      20.872661      21.89335       27.56734       23.093787      23.358478      21.898794      24.759882      25.770272      26.043798      24.616992     -5.0516601      0.63225481     16111242     
    720000   903.68288      2141.3         229501.14      231642.44      20.052798      20.831619      27.236482      22.011051      23.442973      21.878942      24.737668      25.347496      26.626153      24.201664     -2.633379       0.63084487     16147250     
    730000   899.22752      378.57794      228369.65      228748.23      21.46069       20.454636      28.139742      22.714407      23.303079      21.783974      25.17085       26.69934       26.852651      24.578978     -18.985794      0.63443701     16055826     
    740000   901.29376      425.65724      228894.4       229320.05      21.190805      20.374296      27.714863      22.104485      24.074483      21.95949       25.471072      26.436036      26.523487      25.11895       6.9944598      0.63322165     16086642     
    750000   900.31343      2370.5914      228645.43      231016.02      20.127748      21.073262      25.807201      22.147943      24.14615       21.101754      26.743086      26.606736      25.328056      23.716364      10.871158      0.62882541     16199107     
    760000   902.20811      2060.9984      229126.61      231187.61      19.69082       22.655397      26.354844      24.124942      24.241599      21.0642        26.06887       27.550104      26.757721      24.365934     -10.881609      0.62917419     16190127     
    770000   895.8236       1557.6153      227505.19      229062.8       20.301619      21.941958      27.087769      24.530035      24.52925       22.456508      23.604272      25.867241      25.668277      24.777479     -31.643897      0.63026547     16162094     
    780000   904.95475     -120.52089      229824.15      229703.63      20.330367      22.666827      27.116728      24.414535      23.765785      23.160168      23.411496      27.675969      24.625195      24.535368      26.648766      0.63554928     16027726     
    790000   894.19337      650.98384      227091.17      227742.15      20.559105      21.430747      25.734721      24.863224      25.157431      22.49881       23.614806      25.841224      25.122112      23.253443     -21.31639       0.63524791     16035330     
    800000   900.68113      863.01149      228738.81      229601.83      19.24999       22.611532      25.43047       25.152723      24.829299      23.094402      23.367577      26.592129      26.910506      22.278133      19.763329      0.63412568     16063708     
    810000   899.73363      884.97428      228498.18      229383.16      17.738965      23.143883      27.04283       25.281768      26.005696      23.157441      21.664042      27.093346      26.222474      20.984937      15.13004       0.62828611     16213012     
    820000   900.93776      1009.647       228803.99      229813.64      18.21702       23.649977      26.82391       24.094879      26.706724      21.249725      22.759156      26.372732      24.876546      21.155713      2.9381042      0.63305824     16090794     
    830000   901.82614      142.93269      229029.6       229172.53      17.543836      24.135363      27.724069      26.369804      25.751651      23.369315      22.673247      25.898726      23.767789      21.774457     -8.756283       0.63477941     16047165     
    840000   902.69199      322.57544      229249.5       229572.07      18.333659      23.610919      27.131141      27.294987      25.659736      23.968752      23.446074      25.835497      23.372904      22.025305     -13.79331       0.63203986     16116721     
    850000   899.2568       1184.6007      228377.09      229561.69      17.733546      24.259842      25.556059      27.553796      25.637644      22.506233      23.597526      24.297249      22.454061      21.918306      31.574756      0.63178067     16123333     
    860000   903.07897      303.40479      229347.77      229651.18      16.538092      23.701317      25.92383       26.15008       26.003506      21.332996      23.757663      25.87632       21.329945      22.274471      10.845063      0.63233732     16109139     
    870000   897.41893      2459.7149      227910.34      230370.05      16.995055      25.599316      25.074134      25.394653      25.515461      21.561087      24.456717      25.073348      23.330062      22.163516     -10.155929      0.62712373     16243063     
    880000   900.09593      739.20167      228590.19      229329.4       18.747745      25.977035      26.642617      24.538789      25.528771      21.555744      26.169152      26.687398      24.441063      22.624272      4.1751474      0.63071765     16150507     
    890000   899.97776     -191.37018      228560.18      228368.81      20.920951      24.766254      26.479227      24.022679      26.693492      22.878171      24.388556      26.243285      23.136267      23.22081      -8.7234513      0.63425652     16060395     
    900000   902.31379      302.4829       229153.45      229455.93      20.631427      24.421792      27.61568       23.451025      27.621817      23.073724      25.078365      26.007174      22.654027      23.968449      52.072098      0.63203549     16116832     
    910000   898.30745      352.0411       228135.99      228488.03      21.568018      24.760017      28.001586      23.474428      27.803536      23.635779      26.261839      26.600113      24.282468      24.96118       0.53001703     0.63321451     16086823     
    920000   902.09006      85.635901      229096.63      229182.26      22.679683      26.424756      27.894495      24.765623      26.807988      24.899226      26.388636      24.8607        23.718938      24.977163     -10.078681      0.6360566      16014943     
    930000   898.16452      532.98512      228099.69      228632.67      22.798894      26.474446      28.126849      24.837098      26.196861      23.646218      27.250354      25.581095      24.392777      24.756296      27.9082        0.63285314     16096009     
    940000   898.03871      657.76158      228067.74      228725.5       21.795764      26.667863      27.321774      24.647416      27.525173      23.123934      27.961769      26.40072       22.340416      24.810134      3.0320683      0.63319772     16087250     
    950000   898.38127      871.98005      228154.74      229026.72      21.563394      28.908         27.130607      22.868508      29.633819      24.378274      28.564657      26.382675      21.032661      24.304511     -1.8797692      0.63368389     16074907     
    960000   896.58564      1308.7857      227698.71      229007.5       22.156766      28.691239      26.192186      24.621006      29.796166      26.704796      27.5092        27.181024      22.408144      24.692751      13.674964      0.62941751     16183868     
    970000   897.49789      1008.8917      227930.39      228939.28      21.46363       29.483911      23.860035      24.273496      30.086734      27.583171      26.718318      27.255333      21.416766      25.114678      13.45945       0.63162497     16127307     
    980000   900.83552     -852.19615      228778.02      227925.82      21.294456      29.965824      22.141736      24.335133      30.019725      27.24924       25.048828      26.612449      22.985438      24.231756      33.040825      0.63462747     16051007     
    990000   905.09188      446.45642      229858.98      230305.43      21.867197      28.820109      22.259485      26.559857      30.725659      25.437012      25.475111      27.089856      20.696379      24.69925       7.9676443      0.63341522     16081726     
   1000000   898.50944      418.3941       228187.29      228605.68      23.072429      26.049001      21.748417      27.181614      31.120409      23.783947      25.172314      27.423289      21.802411      24.398172      15.455011      0.63366367     16075420     
   1010000   903.67501     -714.48666      229499.14      228784.66      23.868639      24.82043       21.31321       26.414647      32.605094      26.265674      25.810635      28.594618      21.436783      24.116051     -1.1359829      0.63446813     16055038     
   1020000   897.69896      1290.352       227981.46      229271.81      22.902276      25.460977      21.817626      25.580762      32.549401      28.112429      26.100708      28.339755      21.788761      23.32518      -4.9509834      0.62973793     16175633     
   1030000   900.11022      837.10166      228593.82      229430.93      23.718582      25.893708      21.699489      25.275857      31.821098      28.246551      26.743843      29.697224      21.825456      23.888295      30.097787      0.63251237     16104681     
   1040000   903.78613      75.247273      229527.37      229602.61      24.961131      24.302385      21.228444      24.235975      32.323628      28.659006      26.465949      29.961228      21.52912       23.709715      17.081836      0.6324813      16105472     
   1050000   904.05121      995.49828      229594.69      230590.18      25.387015      24.95892       22.278979      24.965499      30.982388      28.577455      27.187831      29.605461      20.251179      23.048415      0.77662129     0.62874897     16201076     
   1060000   904.91137      470.32066      229813.13      230283.45      23.733552      24.408298      22.03493       25.86391       30.998989      28.583204      26.082918      30.107627      20.441192      23.436446     -6.5173157      0.63266875     16100700     
   1070000   903.07518     -1414.5498      229346.81      227932.26      23.459377      26.517747      24.338992      25.104483      32.923407      27.641447      25.531972      31.919172      20.590784      26.154451      9.901096       0.63646469     16004674     
   1080000   901.2056       1054.7476      228872.01      229926.76      23.051361      27.244         25.461319      24.005835      36.026564      26.774793      25.404758      31.101536      21.283101      25.031052      16.109032      0.63267593     16100518     
   1090000   901.07194      72.219758      228838.06      228910.28      21.972888      27.392517      26.766248      24.698214      38.066291      27.343958      24.986349      31.089155      20.515807      25.855526      12.813127      0.6329908      16092509     
   1100000   897.56768      64.227393      227948.12      228012.34      21.027224      25.841914      26.655448      22.648888      39.232965      26.347489      24.976355      30.388897      21.149357      25.084056      28.264971      0.63627307     16009494     
   1110000   900.99305      2408.6254      228818.03      231226.65      22.382427      25.743501      27.859842      23.085489      38.875313      25.984461      24.129788      30.244417      21.769788      26.18726       11.055601      0.62866116     16203339     
   1120000   905.24832      792.71847      229898.7       230691.42      22.923445      25.428149      27.833268      23.652595      39.774051      25.419817      23.366912      29.756282      22.578065      25.888603      6.0924367      0.63257023     16103208     
   1130000   898.31264      544.55793      228137.31      228681.87      21.050561      26.331822      26.968086      24.777002      40.09695       24.172582      23.603524      31.612234      22.160939      27.822555     -3.9495         0.63413914     16063367     
   1140000   894.95137      488.51626      227283.67      227772.19      21.22341       26.99425       27.702939      23.564003      38.971019      23.329067      23.980538      31.541173      21.784933      29.04493       16.156783      0.63313682     16088797     
   1150000   905.44887      1391.0551      229949.64      231340.69      21.632894      27.058912      27.09425       22.227141      39.375699      24.213345      23.087887      30.822862      21.056414      30.090432      13.605088      0.63058656     16153865     
   1160000   896.08686      688.53303      227572.04      228260.58      23.045586      26.945076      27.158071      22.722444      40.071274      23.132787      23.223858      29.234766      20.533006      29.42709      -3.3936699      0.63321211     16086884     
   1170000   903.46436      249.31895      229445.65      229694.97      22.446525      26.244812      28.602242      23.449289      40.355685      22.820358      24.062356      30.902194      20.351482      28.111897     -15.604121      0.63351545     16079182     
   1180000   897.9558       1176.8946      228046.68      229223.58      25.034577      23.546849      29.546512      23.081685      40.214311      23.51986       23.763508      32.117708      21.058606      29.588317      5.6159712      0.63256727     16103283     
   1190000   899.44888      1669.0367      228425.87      230094.9       25.47707       22.867568      29.982171      21.823933      39.561277      24.89564       23.912939      33.475824      21.8272        28.977428      8.1972146      0.63172104     16124855     
   1200000   895.73867      1281.2241      227483.62      228764.84      24.038652      23.107506      29.859764      22.943598      39.488524      26.111675      23.116223      32.357733      22.113244      29.175549     -37.025153      0.6320233      16117143     
   1210000   905.24934      544.2579       229898.96      230443.22      24.408832      24.889218      32.00099       24.863698      40.174918      26.251614      23.522516      31.479078      23.396353      29.767988      13.152133      0.63095069     16144542     
   1220000   898.68621     -78.665042      228232.18      228153.51      25.480818      27.198076      32.515104      26.22409       40.136622      26.475818      23.415989      31.397829      24.752283      29.960789      0.12042713     0.633148       16088513     
   1230000   900.17576      522.18446      228610.47      229132.65      23.938685      27.687123      32.190017      25.493217      41.277645      24.833558      21.920946      30.615729      23.848687      29.971318     -16.538186      0.63272041     16099386     
   1240000   899.94015      774.54866      228550.63      229325.18      23.969627      28.092654      31.827014      27.016583      41.042595      25.708819      22.690156      27.966333      24.289519      28.791139      0.93388293     0.63361895     16076555     
   1250000   904.37118     -809.39777      229675.95      228866.55      25.840695      28.224393      31.808173      26.632717      40.18068       25.433665      22.031271      27.400847      24.241311      29.045674     -3.3602156      0.63428154     16059761     
   1260000   901.35165      949.58857      228909.1       229858.69      24.994935      26.419786      31.035168      27.014888      40.759185      25.606392      22.983308      28.890596      24.881954      28.345997     -4.0242171      0.63089248     16146032     
   1270000   900.39919      481.68226      228667.21      229148.89      23.12277       27.168515      32.115994      28.35136       40.303349      25.844794      23.95915       30.337604      26.085587      27.237467     -14.270151      0.63201326     16117399     
   1280000   900.6004       1440.0231      228718.31      230158.33      23.010053      26.460763      32.068348      27.401171      41.500836      24.592217      24.68675       30.489755      26.295076      27.764212     -28.770734      0.62892156     16196630     
   1290000   898.65435     -117.15782      228224.09      228106.93      21.898917      27.204671      33.793079      27.08961       40.205243      24.213414      22.727202      30.45052       25.615917      29.524893      11.429777      0.63200886     16117511     
   1300000   903.14623     -342.03707      229364.86      229022.82      22.009508      28.120931      32.433574      26.833881      40.017098      24.040322      24.143079      32.04544       25.101447      30.30149      -1.2941509      0.63477102     16047377     
   1310000   896.0695       1362.9443      227567.63      228930.58      23.152135      29.578436      33.493211      23.47716       39.028095      21.955134      22.277987      31.576179      24.977983      30.12002      -7.7279715      0.62797539     16221034     
   1320000   897.86267      1086.4107      228023.03      229109.44      21.545769      29.537933      33.043099      23.04324       39.903592      22.010439      22.886527      31.964155      26.616824      28.757786     -3.1859608      0.62829299     16212834     
   1330000   899.27255      36.292257      228381.09      228417.38      20.014859      28.130414      33.759927      23.528725      39.069722      22.287425      25.350998      31.317532      26.777357      29.809807     -3.4673983      0.63342749     16081414     
   1340000   899.02792      801.82921      228318.96      229120.79      19.577835      27.208994      33.929857      23.398242      40.392787      21.431198      23.913766      31.575868      25.933137      30.027712      7.2434639      0.63230957     16109846     
   1350000   900.19904      1079.1127      228616.38      229695.49      19.724177      26.10975       34.294613      24.741689      40.640966      21.45878       24.33745       31.290748      25.869619      29.007695      22.223246      0.63161941     16127449     
   1360000   901.29677     -269.75306      228895.16      228625.41      19.149813      25.340496      32.391327      23.502533      40.159838      22.355297      24.623747      30.726179      26.464521      29.196229      23.62085       0.63437057     16057507     
   1370000   901.00911      222.52067      228822.11      229044.63      18.925773      25.61629       31.587102      24.555187      39.884972      22.188423      22.948798      29.479728      25.212727      28.959892      21.559109      0.63437788     16057322     
   1380000   898.96873      1030.2741      228303.93      229334.2       19.083971      27.74401       34.590215      24.540557      40.359173      21.028535      23.434217      29.543916      25.330023      29.424737     -15.530418      0.62917179     16190189     
   1390000   897.09041      3128.6877      227826.91      230955.59      20.008342      27.624534      33.676826      25.489201      40.18051       21.600746      22.977449      28.412388      25.540787      32.658661      11.553724      0.62811183     16217510     
   1400000   897.76075      28.376915      227997.15      228025.52      19.626856      28.958826      33.907681      25.009971      40.531467      21.179588      23.349347      29.559774      25.947526      32.3102       -1.1181279      0.63214592     16114017     
   1410000   897.44082     -476.69524      227915.9       227439.2       21.135516      28.501095      34.898655      24.692292      39.825712      20.637198      22.727623      30.180571      25.704636      32.322363      13.46433       0.63397547     16067514     
   1420000   902.89375      42.934014      229300.74      229343.67      20.21814       27.801868      35.539067      25.703154      39.340163      20.593098      22.74696       28.685939      24.868921      31.390129      23.985176      0.63283071     16096580     
   1430000   900.74635      1067.7097      228755.38      229823.09      18.411169      27.227425      35.887701      26.780704      38.443086      19.875036      21.992829      27.577575      24.793681      31.427712     -5.9302419      0.63010428     16166229     
   1440000   898.37167      941.70602      228152.3       229094         20.330868      27.417147      34.867062      26.717406      37.759985      20.232857      22.794173      29.062752      24.411707      31.872486      7.1053773      0.62976977     16174816     
   1450000   903.08543     -432.34313      229349.41      228917.07      20.801705      27.296292      35.069453      25.999172      37.597282      19.905891      24.071567      28.848252      25.281797      31.88045       24.657335      0.63451742     16053791     
   1460000   899.25029     -119.89351      228375.44      228255.54      20.393434      27.937591      35.84752       26.288376      39.227765      20.498974      25.50569       29.009464      25.442248      31.608302     -2.2960653      0.63450139     16054197     
   1470000   900.40609      426.40518      228668.96      229095.37      20.685989      29.366675      35.694328      26.432304      37.622606      20.536818      23.889447      29.487557      25.407576      32.420289      4.8539913      0.63453076     16053453     
   1480000   898.92508     -265.83697      228292.84      228027.01      19.370934      29.398691      36.164499      27.523129      36.845211      21.190864      21.798981      29.773527      24.96623       31.754613     -2.2508417      0.63437155     16057482     
   1490000   902.33126      1243.2209      229157.88      230401.1       19.205006      30.012056      38.351389      26.850316      36.22784       21.667678      22.258035      28.329903      26.113806      31.506982      3.5171542      0.63102448     16142654     
   1500000   900.05692      837.27672      228580.29      229417.56      18.965793      30.314241      38.795952      26.60825       37.950815      22.232705      22.865665      27.102319      24.662048      31.365879      8.7018958      0.6330748      16090373     
   1501000   898.48575      1925.5897      228181.27      230106.86      18.860828      30.112244      39.057403      26.586891      37.735558      22.285951      22.851839      26.960534      24.531569      31.24064      -23.625383      0.63004251     16167814     
Loop time of 2736.75 on 16 procs for 1000000 steps with 85200 atoms

Performance: 31.570 ns/day, 0.760 hours/ns, 365.397 timesteps/s, 31.132 Matom-step/s
98.9% CPU use with 16 MPI tasks x no OpenMP threads

MPI task timing breakdown:
Section |  min time  |  avg time  |  max time  |%varavg| %total
---------------------------------------------------------------
Pair    | 1160.9     | 1193.6     | 1229.8     |  61.2 | 43.61
Bond    | 611.86     | 627.8      | 652.6      |  48.3 | 22.94
Neigh   | 230.78     | 230.93     | 231.11     |   0.6 |  8.44
Comm    | 387.21     | 443.26     | 497.15     | 157.6 | 16.20
Output  | 5.963      | 7.6389     | 9.3052     |  37.2 |  0.28
Modify  | 192.11     | 198.81     | 206.92     |  34.7 |  7.26
Other   |            | 34.76      |            |       |  1.27

Nlocal:           5325 ave        5477 max        5201 min
Histogram: 3 0 2 1 3 3 2 0 1 1
Nghost:         5569.5 ave        5634 max        5478 min
Histogram: 1 0 3 1 1 3 0 2 1 4
Neighs:         118321 ave      123870 max      111988 min
Histogram: 2 1 0 1 2 3 2 3 0 2

Total # of neighbors = 1893139
Ave neighs/atom = 22.219941
Ave special neighs/atom = 5.92
Neighbor list builds = 33345
Dangerous builds = 0
unfix           equil
# -----------------------------------------------------
# 6. 数据输出
# -----------------------------------------------------


# # 写出最终体系数据文件
# write_data      pdms_out.data
Total wall time: 1:09:31
