LAMMPS (29 Aug 2024)
# LAMMPS输入文件示例：使用Martini 3粗粒化力场计算PDMS的均方回转半径
# -----------------------------------------------------
# 1. 初始化设置
# -----------------------------------------------------
units               real
dimension           3
boundary            p p p
atom_style          full

# 读取包含PDMS分子结构的data文件
read_data           bad_pdms_150_box.data
Reading data file ...
  orthogonal box = (-2.100004 -1.605996 -2.182997) to (241.31 241.814 241.267)
  2 by 2 by 4 MPI processor grid
  reading atoms ...
  85200 atoms
  scanning bonds ...
  1 = max bonds/atom
  scanning angles ...
  1 = max angles/atom
  scanning dihedrals ...
  1 = max dihedrals/atom
  orthogonal box = (-2.100004 -1.605996 -2.182997) to (241.31 241.814 241.267)
  2 by 2 by 4 MPI processor grid
  reading bonds ...
  84632 bonds
  reading angles ...
  84064 angles
  reading dihedrals ...
  83496 dihedrals
Finding 1-2 1-3 1-4 neighbors ...
  special bond factors lj:    0        0        0       
  special bond factors coul:  0        0        0       
     2 = max # of 1-2 neighbors
     2 = max # of 1-3 neighbors
     4 = max # of 1-4 neighbors
     6 = max # of special neighbors
  special bonds CPU = 0.006 seconds
  read_data CPU = 0.437 seconds

# -----------------------------------------------------
# 2. 力场参数设置（Martini 3参数）
# -----------------------------------------------------
# 定义非键相互作用（示例：Lennard-Jones势，截断距离可参考Martini 3常用取值）
pair_style lj/cut   12.0
pair_coeff          1 1 0.7337 5.1
special_bonds       lj 0.0 0.0 0.5
Finding 1-2 1-3 1-4 neighbors ...
  special bond factors lj:    0        0        0.5     
  special bond factors coul:  0        0        0       
     2 = max # of 1-2 neighbors
     2 = max # of 1-3 neighbors
     4 = max # of 1-4 neighbors
     6 = max # of special neighbors
  special bonds CPU = 0.004 seconds
# 定义键、角、二面角势（示例参数，实际参数请参考相关文献）
bond_style          harmonic
bond_coeff          1 13.243 4.48
angle_style         harmonic
angle_coeff         1 5.48 86.0
dihedral_style      harmonic
dihedral_coeff      1 0.3346  1  1
# -----------------------------------------------------
# 3. 邻域列表设置
# -----------------------------------------------------
neigh_modify    one 1000
neighbor        1 bin
neigh_modify    delay 0 every 1 check yes

# -----------------------------------------------------
# 4. 能量最小化与预平衡
# -----------------------------------------------------
minimize        1.0e-4 1.0e-6 1000 10000

CITE-CITE-CITE-CITE-CITE-CITE-CITE-CITE-CITE-CITE-CITE-CITE-CITE

Your simulation uses code contributions which should be cited:

- Type Label Framework: https://doi.org/10.1021/acs.jpcb.3c08419

@Article{Gissinger24,
 author = {Jacob R. Gissinger, Ilia Nikiforov, Yaser Afshar, Brendon Waters, Moon-ki Choi, Daniel S. Karls, Alexander Stukowski, Wonpil Im, Hendrik Heinz, Axel Kohlmeyer, and Ellad B. Tadmor},
 title = {Type Label Framework for Bonded Force Fields in LAMMPS},
 journal = {J. Phys. Chem. B},
 year =    2024,
 volume =  128,
 number =  13,
 pages =   {3282–-3297}
}

CITE-CITE-CITE-CITE-CITE-CITE-CITE-CITE-CITE-CITE-CITE-CITE-CITE

Generated 0 of 0 mixed pair_coeff terms from geometric mixing rule
Neighbor list info ...
  update: every = 1 steps, delay = 0 steps, check = yes
  max neighbors/atom: 1000, page size: 100000
  master list distance cutoff = 13
  ghost atom cutoff = 13
  binsize = 6.5, bins = 38 38 38
  1 neighbor lists, perpetual/occasional/extra = 1 0 0
  (1) pair lj/cut, perpetual
      attributes: half, newton on
      pair build: half/bin/newton
      stencil: half/bin/3d
      bin: standard
Per MPI rank memory allocation (min/avg/max) = 9.579 | 10.1 | 10.49 Mbytes
   Step          Temp          E_pair         E_mol          TotEng         Press     
         0   0              7.1330728e+15  292577.29      7.1330728e+15  1.3563017e+14
      1000   0             -356013.83      217036.17     -138977.66      1286.532     
Loop time of 7.43359 on 16 procs for 1000 steps with 85200 atoms

97.6% CPU use with 16 MPI tasks x no OpenMP threads

Minimization stats:
  Stopping criterion = max iterations
  Energy initial, next-to-last, final = 
    7.13307282713164e+15  -138825.510733377  -138977.664228731
  Force two-norm initial, final = 4.5441221e+17 165.74161
  Force max component initial, final = 2.4490236e+17 18.904931
  Final line search alpha, max atom move = 0.0052514387 0.099278085
  Iterations, force evaluations = 1000 1020

MPI task timing breakdown:
Section |  min time  |  avg time  |  max time  |%varavg| %total
---------------------------------------------------------------
Pair    | 1.744      | 2.9252     | 4.3081     |  50.1 | 39.35
Bond    | 0.37375    | 0.55928    | 0.76066    |  17.2 |  7.52
Neigh   | 1.5198     | 1.5241     | 1.5279     |   0.2 | 20.50
Comm    | 0.68069    | 2.0893     | 3.2332     |  56.7 | 28.11
Output  | 9.5441e-05 | 0.0001017  | 0.00019003 |   0.0 |  0.00
Modify  | 0          | 0          | 0          |   0.0 |  0.00
Other   |            | 0.3357     |            |       |  4.52

Nlocal:           5325 ave        7143 max        3789 min
Histogram: 4 1 1 2 0 0 3 2 2 1
Nghost:           4473 ave        5972 max        3047 min
Histogram: 2 5 1 0 0 0 0 2 4 2
Neighs:         203478 ave      294709 max      113903 min
Histogram: 3 0 2 3 0 0 3 1 3 1

Total # of neighbors = 3255655
Ave neighs/atom = 38.211913
Ave special neighs/atom = 5.92
Neighbor list builds = 136
Dangerous builds = 0
fix             1 all npt temp 600.0 600.0 100.0 iso 1.0 1.0 1000
timestep        1
thermo_style    custom step temp press density vol
thermo          10000
run             500000
Generated 0 of 0 mixed pair_coeff terms from geometric mixing rule
Per MPI rank memory allocation (min/avg/max) = 8.456 | 8.98 | 9.362 Mbytes
   Step          Temp          Press         Density         Volume    
      1000   0              1286.532       0.70618209     14424622     
     10000   598.3904      -45.20197       0.58945258     17281135     
     20000   601.02521     -12.067085      0.70061488     14539243     
     30000   602.50597      3.7977978      0.76042181     13395736     
     40000   601.97141     -1.5766847      0.78585787     12962153     
     50000   598.48837      8.9429243      0.79668706     12785961     
     60000   597.35023      13.547009      0.80272937     12689719     
     70000   599.77543      5.5082359      0.80550785     12645947     
     80000   601.64468     -17.983558      0.80349274     12677663     
     90000   600.71131      29.829558      0.80496746     12654437     
    100000   598.97315      23.640088      0.80544592     12646920     
    110000   598.87224     -4.2108108      0.80346747     12678061     
    120000   601.88775      13.380313      0.80556936     12644982     
    130000   598.71465      24.481451      0.80593746     12639206     
    140000   601.33383     -7.0778848      0.80707003     12621470     
    150000   597.55493     -11.568548      0.80796722     12607454     
    160000   598.36376      19.707791      0.80631444     12633297     
    170000   600.1195       1.942099       0.80651603     12630139     
    180000   598.65583      27.534154      0.80643981     12631333     
    190000   597.93824     -18.894214      0.80402103     12669333     
    200000   599.6294       16.62629       0.80788198     12608785     
    210000   600.72841      0.80113016     0.80675862     12626342     
    220000   600.89399      29.626282      0.80626563     12634062     
    230000   599.23617     -14.690175      0.80574083     12642291     
    240000   599.93828      11.22142       0.80701557     12622322     
    250000   600.73764     -2.1795142      0.80777273     12610490     
    260000   601.12732     -13.135048      0.80609964     12636664     
    270000   601.32101     -34.820803      0.80367179     12674838     
    280000   599.57466      32.784874      0.80647185     12630831     
    290000   601.74152     -13.054305      0.80560875     12644364     
    300000   600.99116      20.619771      0.80684134     12625047     
    310000   599.11519      1.8958787      0.80495309     12654663     
    320000   599.56092     -1.7161009      0.80691024     12623969     
    330000   601.50404      19.343848      0.80687275     12624556     
    340000   595.96864     -8.2198084      0.80762554     12612788     
    350000   600.34453     -11.51523       0.80629685     12633573     
    360000   601.93784     -25.239733      0.80617465     12635488     
    370000   598.58103      20.445932      0.80552989     12645601     
    380000   600.90007     -15.417494      0.80570318     12642882     
    390000   600.9601       22.852063      0.80613883     12636049     
    400000   599.50992      14.428147      0.80448782     12661982     
    410000   597.24005     -10.529789      0.80616482     12635642     
    420000   603.42899     -2.4641027      0.80675288     12626431     
    430000   596.94291     -21.422156      0.80760867     12613052     
    440000   599.71954      6.4873817      0.80525012     12649995     
    450000   595.53026      38.582216      0.80603825     12637626     
    460000   603.71085      23.945582      0.80539289     12647752     
    470000   596.54828     -20.823669      0.80420626     12666415     
    480000   599.11679      13.002251      0.80407584     12668469     
    490000   599.31986      14.439306      0.80794552     12607793     
    500000   598.92556     -3.8971549      0.80673336     12626737     
    501000   598.86895     -11.483465      0.80564551     12643787     
Loop time of 1517.53 on 16 procs for 500000 steps with 85200 atoms

Performance: 28.467 ns/day, 0.843 hours/ns, 329.484 timesteps/s, 28.072 Matom-step/s
99.0% CPU use with 16 MPI tasks x no OpenMP threads

MPI task timing breakdown:
Section |  min time  |  avg time  |  max time  |%varavg| %total
---------------------------------------------------------------
Pair    | 713.5      | 736.73     | 761.7      |  50.0 | 48.55
Bond    | 298.24     | 309.31     | 323.23     |  37.6 | 20.38
Neigh   | 105.78     | 105.84     | 105.91     |   0.4 |  6.97
Comm    | 210.53     | 250.24     | 278.67     | 125.6 | 16.49
Output  | 0.0029474  | 0.0030655  | 0.0044749  |   0.7 |  0.00
Modify  | 95.803     | 97.721     | 100.17     |  14.4 |  6.44
Other   |            | 17.68      |            |       |  1.16

Nlocal:           5325 ave        5386 max        5246 min
Histogram: 2 1 1 0 2 2 2 1 2 3
Nghost:        6205.19 ave        6259 max        6107 min
Histogram: 1 0 0 0 1 3 5 2 3 1
Neighs:         152093 ave      155288 max      147662 min
Histogram: 2 1 1 0 2 1 1 3 3 2

Total # of neighbors = 2433483
Ave neighs/atom = 28.562007
Ave special neighs/atom = 5.92
Neighbor list builds = 13775
Dangerous builds = 0
unfix           1

# variable        lambda equal ramp(0.8,1.0)
# fix             2 all adapt 1 pair lj/cut/soft lambda * * v_lambda

# fix             3 all npt temp 600.0 600.0 100.0 iso 1.0 1.0 1000
# timestep        1
# thermo_style    custom step temp press density vol
# thermo          10000
# run             50000
# unfix           3

# -----------------------------------------------------
# 5. 计算均方回转半径
# -----------------------------------------------------
# 使用compute gyration命令计算整个体系的回转半径
fix             equil all npt temp 600.0 600.0 100.0 iso 1.0 1.0 1000
group           pdms1 id <= 150
150 atoms in group pdms1
group           pdms2 id 151:300
150 atoms in group pdms2
group           pdms3 id 301:450
150 atoms in group pdms3
group           pdms4 id 451:600
150 atoms in group pdms4
group           pdms5 id 601:750
150 atoms in group pdms5
group           pdms6 id 751:900
150 atoms in group pdms6
group           pdms7 id 901:1050
150 atoms in group pdms7
group           pdms8 id 1051:1200
150 atoms in group pdms8
group           pdms9 id 1201:1350
150 atoms in group pdms9
group           pdms10 id 1351:1500
150 atoms in group pdms10
# variable        d_end equal "sqrt((x[1]-x[10])^2 + (y[1]-y[10])^2 + (z[1]-z[10])^2)"
compute         rg1 pdms1 gyration
compute         rg2 pdms2 gyration
compute         rg3 pdms3 gyration
compute         rg4 pdms4 gyration
compute         rg5 pdms5 gyration
compute         rg6 pdms6 gyration
compute         rg7 pdms7 gyration
compute         rg8 pdms8 gyration
compute         rg9 pdms9 gyration
compute         rg10 pdms10 gyration
# fix             avg pdms ave/time 1000 800 1000000 c_rg v_d_end file avg.txt
# 输出热力学信息及回转半径数据，每隔1000步输出一次
thermo_style    custom step temp pe ke etotal c_rg1 c_rg2 c_rg3 c_rg4 c_rg5 c_rg6 c_rg7 c_rg8 c_rg9 c_rg10 press density vol
# fix             avg pdms ave/time 1000 800 1000000 c_rg v_d_end file avg.txt
# 输出热力学信息及回转半径数据，每隔1000步输出一次
thermo          10000
# 输出轨迹文件，便于后续可视化与分析
dump            traj all custom 1000 dump.pdms.lammpstrj id type x y z
# 运行模拟，记录回转半径数据（后续可统计分析均值与波动）
run             1000000
Generated 0 of 0 mixed pair_coeff terms from geometric mixing rule
Per MPI rank memory allocation (min/avg/max) = 8.514 | 9.01 | 9.368 Mbytes
   Step          Temp          PotEng         KinEng         TotEng         c_rg1          c_rg2          c_rg3          c_rg4          c_rg5          c_rg6          c_rg7          c_rg8          c_rg9          c_rg10         Press         Density         Volume    
    501000   598.86895     -106400.01      152089.98      45689.967      22.111938      23.266039      29.791976      23.751313      23.486644      25.462551      19.344073      19.295718      21.201335      23.488047     -11.483465      0.80564551     12643787     
    510000   600.78736     -106579.84      152577.18      45997.342      21.135081      23.67624       30.494381      24.274165      23.053038      23.337103      18.993058      18.998044      21.607114      23.265005      6.258059       0.80602345     12637858     
    520000   599.9652      -105916.11      152368.38      46452.278      21.477714      24.295636      30.52237       23.813837      22.79862       24.527184      19.052146      19.501738      21.815814      23.508639     -25.282543      0.80305189     12684622     
    530000   600.90106     -105209.03      152606.06      47397.021      21.618057      24.00464       30.241004      23.637726      22.859061      23.875305      18.455621      19.305047      21.211616      23.644945     -12.625348      0.80508354     12652612     
    540000   599.71345     -107480.02      152304.45      44824.429      21.548802      24.65725       30.441307      22.263466      22.959127      24.358538      18.850807      19.313753      20.44424       23.936129      4.5194859      0.80741487     12616079     
    550000   597.74142     -107545.12      151803.63      44258.503      21.311521      25.091429      29.885802      23.104024      22.974101      24.751844      18.87482       19.137468      20.273794      22.812759      29.244819      0.80927312     12587110     
    560000   597.75513     -106283.71      151807.11      45523.399      22.101489      24.565336      31.03054       24.038255      23.615415      24.759338      19.551024      18.722595      20.265228      23.308938     -1.9183662      0.80530447     12649141     
    570000   601.23524     -106770.87      152690.93      45920.051      22.761431      24.46227       30.420971      24.507669      23.043954      25.082268      19.866591      18.700121      21.173198      23.484212      22.028795      0.80596095     12638838     
    580000   600.20784     -106991.76      152430         45438.249      22.758675      24.305167      29.694909      23.584368      23.266579      24.88401       19.685545      18.964666      21.217523      23.940915      2.2589023      0.80714617     12620279     
    590000   599.62858     -105959.84      152282.89      46323.06       22.22792       23.888732      30.363529      23.402402      22.671634      25.955612      20.557285      19.400345      20.939259      23.469319      6.9237101      0.80392875     12670787     
    600000   602.7682      -106981.55      153080.24      46098.684      22.089815      23.71664       30.429738      22.681447      22.200601      25.533918      20.570118      19.697282      21.472313      24.807794      36.421509      0.80742593     12615906     
    610000   599.26628     -105788.09      152190.88      46402.793      21.87922       24.041792      29.693269      23.524361      22.797191      26.158651      20.512156      19.196109      20.858642      24.226238     -16.910277      0.80440603     12663269     
    620000   597.59281     -106937.72      151765.89      44828.164      21.836843      24.148782      30.295473      22.984947      22.584395      25.855266      21.278295      18.355628      20.740167      24.361438     -3.3313918      0.8071554      12620135     
    630000   598.87758     -107496.3       152092.17      44595.868      21.440747      24.95479       31.106266      23.430287      21.102744      26.935202      20.635834      18.583947      20.526829      23.808766     -3.8123144      0.80713205     12620500     
    640000   598.65506     -107186.95      152035.66      44848.705      22.392584      24.373079      31.008176      23.50511       21.745942      26.527619      20.398573      17.818051      21.041401      22.726543      6.1368865      0.80750715     12614637     
    650000   600.1433      -106394.63      152413.62      46018.987      21.591927      23.928543      31.025137      23.809368      21.287692      26.908084      20.15257       17.503948      21.425925      23.681893      2.9274177      0.80485052     12656275     
    660000   599.14077     -106824.64      152159.01      45334.373      22.479561      24.85458       31.176534      24.23782       21.052321      26.987198      20.38133       17.680104      20.947178      24.149811     -16.490381      0.80535025     12648422     
    670000   600.24309     -107143.45      152438.96      45295.507      21.511744      25.552107      30.840064      23.710365      20.847446      26.257021      19.788032      17.66486       20.73887       23.899321      1.3430147      0.80777603     12610438     
    680000   598.91192     -107241.12      152100.89      44859.767      21.359107      25.343812      30.831873      23.378258      20.969752      25.988112      19.757134      17.612987      21.404775      22.456578     -15.610223      0.80752452     12614366     
    690000   595.8273      -105735.14      151317.51      45582.373      21.149985      24.866229      31.625563      23.323348      21.434905      26.342531      19.884596      17.354646      21.970258      22.70696      -1.9610445      0.80450247     12661751     
    700000   598.76405     -106112.55      152063.34      45950.791      21.259093      25.449998      32.365344      22.551911      21.835395      25.317739      19.435267      17.640849      22.110648      22.638024      4.6248274      0.80398845     12669846     
    710000   599.98454     -107347.45      152373.29      45025.84       22.222227      25.364138      31.694441      22.026924      21.499233      26.254698      18.862157      17.598241      23.261103      22.647929      4.7370829      0.8070524      12621745     
    720000   600.62956     -106510.53      152537.11      46026.578      22.604322      25.548625      31.596514      20.579323      21.661442      26.57392       19.442274      18.527933      23.661807      22.934604      27.983906      0.80641428     12631733     
    730000   596.20907     -106580.65      151414.47      44833.821      22.644597      24.95152       31.294865      20.373685      21.434986      25.817975      19.864901      18.389664      24.246017      23.453074     -11.997221      0.80660638     12628725     
    740000   601.5927      -107616.3       152781.71      45165.408      23.197658      24.667616      31.364163      20.598766      21.339291      25.745862      20.029649      18.594787      24.731779      22.960113      37.400464      0.80696969     12623039     
    750000   599.5891      -106396.64      152272.87      45876.228      23.072577      23.860664      31.320934      20.846585      21.472238      25.920925      19.683685      19.364553      24.697776      22.793179      2.2696264      0.80560284     12644456     
    760000   602.53922     -105828.92      153022.09      47193.167      23.003939      24.788135      30.994161      20.801447      21.068751      26.581789      20.404219      19.290202      24.79734       23.378827      11.319193      0.8052261      12650372     
    770000   598.54353     -105758.14      152007.33      46249.197      22.34558       25.129327      30.654223      20.829093      21.361493      25.964662      20.640405      18.299422      24.900836      23.074283     -30.757104      0.80372243     12674040     
    780000   598.59877     -105894.53      152021.36      46126.836      22.279187      25.754097      31.186157      19.792239      20.571368      25.7665        20.615732      18.401259      25.799783      24.309409      17.447581      0.8052454      12650069     
    790000   598.90296     -106662.62      152098.62      45435.999      21.873891      25.911967      31.212581      20.904241      20.828653      25.753354      21.206505      19.240271      25.690555      23.374784      5.1499858      0.80496187     12654525     
    800000   601.38888     -106224.44      152729.94      46505.506      21.802601      25.105825      32.197509      21.164017      20.728562      25.742545      21.553881      19.399306      26.806328      23.286771     -6.4518748      0.80569785     12642965     
    810000   596.17912     -107084.68      151406.86      44322.177      22.121445      25.172469      30.962224      21.189411      19.73658       25.269901      21.801981      19.124451      26.06327       22.528929      9.1642675      0.80755808     12613842     
    820000   596.33967     -107173.02      151447.64      44274.613      22.757936      25.175705      32.652557      20.094631      19.220077      25.189291      21.532894      19.262843      26.093961      22.964763     -10.21746       0.80693756     12623542     
    830000   601.64662     -106863.12      152795.4       45932.279      22.526032      24.887826      32.073141      20.232515      18.901352      25.459009      21.081169      19.711763      26.049842      23.648098     -4.4275378      0.80728508     12618108     
    840000   599.75883     -107150.09      152315.97      45165.879      23.055882      25.197559      32.426445      20.205737      19.371611      24.506695      21.388573      19.071109      26.141186      22.675001      28.317481      0.80922255     12587897     
    850000   601.45749     -107253.98      152747.37      45493.392      22.601772      25.522053      32.091364      20.103526      18.548196      25.379789      21.427431      18.930637      26.989689      22.45527      -7.2911092      0.8059622      12638818     
    860000   596.75033     -106352.1       151551.93      45199.834      22.721094      25.125022      31.776439      19.854983      18.896613      26.471204      21.907812      19.070434      27.385345      21.021742      15.541434      0.80611841     12636369     
    870000   598.41902     -106502.39      151975.71      45473.325      22.21069       25.033541      30.829679      19.723347      19.214363      27.214516      21.092517      19.155046      26.687057      21.880515     -18.29814       0.80443242     12662854     
    880000   603.09089     -106536.42      153162.19      46625.775      21.250507      25.555076      31.145472      20.202452      19.138974      26.693109      20.495591      18.794484      26.183207      22.420477     -6.7959551      0.80652441     12630008     
    890000   600.01181     -105564.8       152380.22      46815.418      20.536718      25.068062      31.228158      20.588516      18.530493      27.116829      21.26222       17.624142      24.914648      22.555308      2.4688512      0.80401943     12669358     
    900000   600.24022     -106371.65      152438.23      46066.576      20.214722      24.266617      30.760004      21.026886      19.093613      26.318447      20.727049      18.19275       23.761091      21.340335     -17.454333      0.80643039     12631481     
    910000   600.34462     -106140.01      152464.74      46324.735      20.424812      24.607942      30.766527      21.54791       19.121597      26.415857      20.738097      17.756613      22.762319      21.871362      19.338439      0.80545575     12646765     
    920000   598.65043     -107036.14      152034.48      44998.341      21.116192      24.278882      30.560597      21.467729      19.873807      27.074831      19.749443      18.268107      23.566623      21.114538      34.47648       0.80747774     12615097     
    930000   597.39796     -106559.04      151716.4       45157.361      20.965862      25.739734      30.34242       22.637276      19.601815      25.330191      20.028774      18.273818      23.832937      21.725228      7.8584258      0.8052458      12650063     
    940000   598.45127     -106254.95      151983.9       45728.948      20.957702      25.250009      30.863332      22.633465      20.182731      25.207778      20.56123       17.968401      23.845791      21.001823      20.256179      0.80767071     12612083     
    950000   599.83547     -107883.07      152335.44      44452.365      21.899438      24.34208       30.671904      23.354917      19.694626      25.203413      20.147952      17.830602      23.538756      20.611272     -1.8810928      0.80727522     12618262     
    960000   599.15648     -106902.79      152163         45260.212      21.122981      23.840515      29.974055      23.448365      19.291134      24.223128      19.636866      18.461923      24.116198      21.071707      12.546402      0.80821929     12603522     
    970000   602.58702     -106740.8       153034.23      46293.426      20.549371      23.829173      30.988618      23.674057      19.02564       24.602304      19.774317      18.58663       23.737959      20.893464      49.119545      0.80807299     12605804     
    980000   598.8593      -107004.64      152087.53      45082.887      20.682749      25.175057      31.166298      23.49452       20.089956      24.370972      19.284917      18.215291      22.365572      21.035317      7.7282364      0.80715698     12620110     
    990000   602.0061      -107377.64      152886.69      45509.058      20.58064       24.73431       31.040842      24.322894      19.774492      24.489108      19.468524      19.069661      22.814103      20.414679      22.880347      0.80833945     12601649     
   1000000   601.62285     -106615.68      152789.36      46173.682      20.677375      24.284002      31.073036      25.073306      19.487163      24.466536      20.716091      18.961501      22.120758      21.572057     -15.397458      0.80585913     12640435     
   1010000   599.34509     -107692.03      152210.9       44518.87       20.541441      23.941928      31.12089       24.648353      19.451441      23.994755      20.376076      18.959297      22.585456      21.102815      23.308757      0.81003838     12575219     
   1020000   599.95887     -107566.65      152366.78      44800.123      19.998205      24.128741      29.682374      25.329479      19.599668      24.121041      20.599656      19.447501      21.643869      21.590855      17.959976      0.80750335     12614697     
   1030000   599.24079     -105643.98      152184.41      46540.43       21.151693      24.292087      31.173402      24.793508      19.801951      23.817485      21.001512      19.726596      22.508314      20.871666      10.429802      0.80426488     12665491     
   1040000   598.70347     -106720.07      152047.95      45327.884      20.95741       24.63743       31.837311      24.193651      19.609525      24.812989      20.629558      20.473176      23.51144       20.19659      -19.822115      0.80555444     12645216     
   1050000   601.05906     -106475.37      152646.18      46170.812      21.792715      24.497581      31.391741      23.629188      19.524836      24.176064      20.156         20.146854      23.96828       20.800432     -5.5254336      0.80591137     12639616     
   1060000   599.32762     -106258.6       152206.46      45947.863      21.84324       24.091291      31.400555      22.985131      19.909313      24.569931      19.472783      20.185712      24.128844      21.028842      1.6055302      0.8073437      12617191     
   1070000   598.63572     -106943.05      152030.75      45087.697      22.509079      24.537211      32.472963      22.267981      20.889717      23.650941      18.997153      19.713064      23.955455      21.079842      16.749643      0.80543734     12647054     
   1080000   601.93087     -106125.53      152867.59      46742.058      22.675203      24.285723      32.021807      21.417425      20.410685      24.650678      18.956841      20.154774      24.04852       21.041385     -18.001372      0.80579643     12641419     
   1090000   601.42067     -106398.41      152738.02      46339.606      21.82714       23.075201      31.516035      21.077311      20.719551      24.349775      18.821006      20.515744      25.193039      21.11267       11.884709      0.80466537     12659188     
   1100000   602.03963     -106386.6       152895.21      46508.606      21.3772        24.391803      31.234692      21.719032      20.381605      23.936462      19.739946      19.693048      24.360191      20.920925      12.160461      0.80611206     12636469     
   1110000   600.65726     -106818.96      152544.14      45725.177      21.078903      25.503199      30.645173      20.769635      21.511311      24.783133      19.027626      19.835985      23.461378      20.326277     -7.7826826      0.80477929     12657396     
   1120000   601.03635     -105808.47      152640.41      46831.94       22.167098      26.38218       31.139994      20.291137      21.090598      24.128393      18.432602      19.047801      24.506308      21.452396     -8.9282717      0.80605151     12637418     
   1130000   599.99072     -105658.59      152374.86      46716.276      22.936172      26.235192      31.150149      19.578513      20.769965      24.130525      18.641723      19.766691      25.020866      21.649729     -6.4732139      0.80472372     12658270     
   1140000   600.49441     -105998.33      152502.78      46504.449      23.404581      26.188662      31.191127      19.612919      20.279472      24.522215      18.893092      19.585438      23.814005      21.626227     -7.4789638      0.80574265     12642262     
   1150000   601.9936      -106124.85      152883.52      46758.672      23.412553      25.883592      30.171814      21.340928      20.615112      24.33871       19.234209      20.548504      24.339693      22.229317      5.4843569      0.80535127     12648406     
   1160000   600.85465     -105905.96      152594.27      46688.311      23.82121       24.577274      29.993189      20.624901      20.188922      24.018103      18.960133      20.77048       24.855647      22.556704     -2.7309553      0.80551921     12645769     
   1170000   597.63537     -107000.42      151776.69      44776.27       23.447529      24.727912      30.212989      21.062053      20.466557      24.0131        19.861286      20.865681      25.078481      22.29099      -3.7707908      0.80528953     12649376     
   1180000   598.60279     -105794.87      152022.38      46227.507      22.576532      24.201697      29.616765      20.760266      20.831241      24.359339      19.132439      20.23718       24.812302      22.08712       0.48687413     0.80568839     12643114     
   1190000   599.67432     -106947.72      152294.51      45346.785      22.339046      23.698301      29.502117      20.741951      21.11969       24.039635      19.321948      20.998185      24.14399       22.527364      4.0207126      0.80631858     12633232     
   1200000   599.05097     -106623.91      152136.2       45512.292      22.171808      24.764692      28.819916      19.944915      20.934195      23.233691      19.475939      20.814713      23.213675      22.168835     -1.7027213      0.80681163     12625512     
   1210000   601.34148     -106619.39      152717.91      46098.517      23.624426      24.556921      27.995909      19.853891      19.219753      23.584453      18.969759      21.24916       22.545033      21.417145     -26.581284      0.80622181     12634749     
   1220000   600.32047     -107708.65      152458.61      44749.957      22.580727      24.610755      27.174961      19.721987      19.438681      24.183327      19.749398      21.560569      22.429966      21.984598      24.824348      0.80712198     12620657     
   1230000   599.03028     -106128.78      152130.95      46002.172      22.78114       25.429407      27.562753      20.55415       19.18984       23.822857      19.598644      21.552181      22.252615      22.850403      8.0151293      0.80472259     12658288     
   1240000   598.4399      -106957.73      151981.01      45023.288      23.396096      25.540576      27.338774      20.21111       19.983781      25.018613      19.867857      21.853834      22.905111      22.43595       3.4719214      0.80718701     12619641     
   1250000   598.39328     -106686.69      151969.17      45282.487      23.049883      25.088627      28.184143      19.859343      20.549522      24.005889      19.801649      22.320749      23.270856      22.148751      1.3547459      0.80691976     12623820     
   1260000   597.75103     -105976.79      151806.07      45829.278      23.508747      24.76285       27.971085      19.696684      20.081685      24.238159      19.553815      23.473789      22.672491      21.353709     -13.611786      0.80412468     12667700     
   1270000   601.25786     -107488.17      152696.67      45208.503      23.536171      25.921891      27.985005      19.59926       20.2555        24.049224      19.763151      23.09525       22.656023      22.696035     -8.0880639      0.80549697     12646118     
   1280000   600.98189     -106353.32      152626.58      46273.266      23.4514        26.167139      27.926942      20.010797      20.574885      23.510414      19.94579       22.286011      22.465914      22.790367      21.890614      0.80777844     12610401     
   1290000   599.82592     -106362.93      152333.01      45970.079      24.119915      25.983707      27.524378      20.104687      21.282919      22.959502      19.921471      21.709994      22.479649      21.868431      1.0848396      0.80558388     12644754     
   1300000   599.0652      -106025.27      152139.82      46114.544      25.059449      25.897416      26.37414       19.964535      21.337594      23.072873      18.769555      21.037404      22.361695      21.646234      2.2191559      0.80406527     12668636     
   1310000   602.56611     -106593.21      153028.92      46435.705      24.962921      24.673857      27.461114      19.965445      21.160823      22.812378      19.562879      21.076587      23.640279      22.044384     -6.5148675      0.80600674     12638120     
   1320000   601.31487     -106324.74      152711.15      46386.408      24.984278      24.536667      27.530301      19.980525      21.00438       23.139253      19.258471      20.870105      23.735354      22.630742      31.083717      0.80587998     12640108     
   1330000   598.14947     -106804.11      151907.26      45103.151      24.199032      24.009556      26.517128      20.968569      21.319676      23.081378      19.559693      20.418413      24.174899      22.387751      18.114604      0.806537       12629811     
   1340000   596.87909     -106366.04      151584.63      45218.591      23.195699      24.006846      27.452212      21.227043      21.359512      23.714679      18.914802      20.190081      23.145392      22.056978      4.6063868      0.80510493     12652276     
   1350000   599.64728     -106811.49      152287.64      45476.15       22.470582      25.244113      27.33494       21.50775       20.798374      22.515975      19.208589      19.557664      22.906802      21.283056      24.428543      0.80754348     12614070     
   1360000   600.5742      -106662.21      152523.05      45860.83       23.457115      25.716812      26.201593      22.311972      20.877668      22.531291      19.079282      19.772912      23.296575      20.647379      11.429367      0.80772976     12611161     
   1370000   599.25542     -107382.36      152188.13      44805.765      23.508967      26.034238      26.959973      21.334495      20.330325      22.327609      18.985364      20.23393       23.198785      21.305778      5.7563687      0.80638868     12632134     
   1380000   596.84016     -106215.04      151574.74      45359.699      24.396155      25.867688      26.901065      20.630021      20.23611       22.524113      19.021461      19.8715        24.092015      21.914136     -4.1180189      0.80464958     12659436     
   1390000   599.29803     -106031.16      152198.95      46167.786      23.434871      24.905492      27.369666      21.779154      20.59492       22.516218      19.804798      19.661784      24.357531      22.741277     -21.4875        0.8060419      12637569     
   1400000   600.06988     -106144.32      152394.97      46250.644      22.083585      25.798882      27.927932      22.345631      20.032081      21.627344      20.003294      20.030473      25.058474      21.971913     -24.850629      0.8040217      12669322     
   1410000   603.04817     -106669.56      153151.34      46481.785      23.518998      24.878908      27.824036      22.336906      20.299351      20.679427      19.860603      20.128854      24.691487      22.652688      1.1564197      0.80803739     12606360     
   1420000   599.46418     -106877.76      152241.14      45363.379      23.575687      25.865352      28.320894      22.106752      19.895218      21.617793      19.843481      19.616415      24.901765      21.932411      23.267639      0.80761653     12612929     
   1430000   599.32642     -106555.64      152206.16      45650.518      24.280866      25.013188      28.137047      20.980111      19.891093      21.241215      20.014297      19.493791      24.767342      21.915251      25.016324      0.80639255     12632073     
   1440000   600.75172     -106596.93      152568.13      45971.195      23.961347      24.586883      28.099524      21.089754      19.659064      22.004512      19.983254      18.674545      25.717712      22.03033       6.7391745      0.80722939     12618978     
   1450000   597.62939     -106805.21      151775.18      44969.969      23.532368      24.245551      28.764166      22.136142      19.995121      22.719099      20.287241      18.790483      25.037034      21.890662     -6.5038907      0.80405553     12668789     
   1460000   599.94831     -106936.88      152364.09      45427.213      23.614269      24.270584      28.824776      22.238271      20.479751      22.93019       19.309801      19.372137      25.02425       21.22324      -11.946065      0.80584684     12640628     
   1470000   599.36987     -105778.86      152217.19      46438.328      23.250953      23.707264      27.790301      21.996756      20.861099      23.386608      19.369227      19.347331      24.927532      22.027595      4.2585743      0.80508364     12652611     
   1480000   602.77207     -107096.88      153081.22      45984.343      23.29593       23.568364      28.108505      22.610521      21.139615      22.965584      19.956392      18.675081      24.410192      21.822575      17.981396      0.80728273     12618144     
   1490000   600.16213     -106763.29      152418.4       45655.101      22.26625       25.245134      28.118444      22.457643      20.929912      23.073207      19.193338      18.653295      24.894107      20.751467      8.3481122      0.80471857     12658351     
   1500000   598.95758     -105780.62      152112.48      46331.868      22.5531        24.488614      28.095296      22.037145      21.644245      23.050873      18.987958      18.2667        24.944116      21.879517     -32.320343      0.80435289     12664106     
   1501000   601.31498     -106197.37      152711.18      46513.808      22.223012      24.325469      28.356204      21.87547       21.410029      22.877135      19.177815      18.286207      24.859797      21.743369     -5.7106015      0.80703833     12621965     
Loop time of 3038.42 on 16 procs for 1000000 steps with 85200 atoms

Performance: 28.436 ns/day, 0.844 hours/ns, 329.118 timesteps/s, 28.041 Matom-step/s
99.0% CPU use with 16 MPI tasks x no OpenMP threads

MPI task timing breakdown:
Section |  min time  |  avg time  |  max time  |%varavg| %total
---------------------------------------------------------------
Pair    | 1450.4     | 1485.8     | 1536.9     |  50.0 | 48.90
Bond    | 604.84     | 620.94     | 642.21     |  43.9 | 20.44
Neigh   | 209.24     | 209.36     | 209.48     |   0.4 |  6.89
Comm    | 414        | 484.71     | 536.27     | 129.5 | 15.95
Output  | 5.876      | 7.3175     | 8.7459     |  32.6 |  0.24
Modify  | 190.54     | 194.99     | 202.18     |  25.4 |  6.42
Other   |            | 35.31      |            |       |  1.16

Nlocal:           5325 ave        5362 max        5285 min
Histogram: 2 2 1 0 1 0 6 2 1 1
Nghost:        6200.19 ave        6259 max        6156 min
Histogram: 3 0 3 0 5 1 1 2 0 1
Neighs:         152349 ave      154293 max      149744 min
Histogram: 1 0 2 2 2 1 3 1 1 3

Total # of neighbors = 2437581
Ave neighs/atom = 28.610106
Ave special neighs/atom = 5.92
Neighbor list builds = 27289
Dangerous builds = 0
unfix           equil
# -----------------------------------------------------
# 6. 数据输出
# -----------------------------------------------------


# # 写出最终体系数据文件
# write_data      pdms_out.data
Total wall time: 1:16:04
