units               real
dimension           3
boundary            p p p
atom_style          full

# 读取包含PDMS分子结构的data文件
read_data           bad_pdms_50_box_nvt.data
Reading data file ...
  orthogonal box = (-2.699997 -2.594002 -2.75) to (181.7 181.956 181.75)
  2 by 4 by 2 MPI processor grid
  reading atoms ...
  12350 atoms
  scanning bonds ...
  1 = max bonds/atom
  scanning angles ...
  1 = max angles/atom
  scanning dihedrals ...
  1 = max dihedrals/atom
  orthogonal box = (-2.699997 -2.594002 -2.75) to (181.7 181.956 181.75)
  2 by 4 by 2 MPI processor grid
  reading bonds ...
  12103 bonds
  reading angles ...
  11856 angles
  reading dihedrals ...
  11609 dihedrals
Finding 1-2 1-3 1-4 neighbors ...
  special bond factors lj:    0        0        0       
  special bond factors coul:  0        0        0       
     2 = max # of 1-2 neighbors
     2 = max # of 1-3 neighbors
     4 = max # of 1-4 neighbors
     6 = max # of special neighbors
  special bonds CPU = 0.002 seconds
  read_data CPU = 0.085 seconds
mass                1 72
# -----------------------------------------------------
# 2. 力场参数设置（Martini 3参数）
# -----------------------------------------------------
# 定义非键相互作用（示例：Lennard-Jones势，截断距离可参考Martini 3常用取值）
pair_style lj/cut   12.0
special_bonds       lj 0.0 0.0 0.5
Finding 1-2 1-3 1-4 neighbors ...
  special bond factors lj:    0        0        0.5     
  special bond factors coul:  0        0        0       
     2 = max # of 1-2 neighbors
     2 = max # of 1-3 neighbors
     4 = max # of 1-4 neighbors
     6 = max # of special neighbors
  special bonds CPU = 0.000 seconds
pair_coeff          1 1 0.7337 5.1
# 定义键、角、二面角势（示例参数，实际参数请参考相关文献）
bond_style          harmonic
bond_coeff          1 13.243 4.48
angle_style         harmonic
angle_coeff         1 5.48 86.0
dihedral_style      harmonic
dihedral_coeff      1 0.3346  1  1
# -----------------------------------------------------
# 3. 邻域列表设置
# -----------------------------------------------------
neigh_modify        one 1000
neighbor            1 bin
neigh_modify        delay 0 every 1 check yes

# -----------------------------------------------------
# 4. 能量最小化与预平衡
# -----------------------------------------------------
minimize            1.0e-4 1.0e-6 10000 100000

CITE-CITE-CITE-CITE-CITE-CITE-CITE-CITE-CITE-CITE-CITE-CITE-CITE

Your simulation uses code contributions which should be cited:

- Type Label Framework: https://doi.org/10.1021/acs.jpcb.3c08419

@Article{Gissinger24,
 author = {Jacob R. Gissinger, Ilia Nikiforov, Yaser Afshar, Brendon Waters, Moon-ki Choi, Daniel S. Karls, Alexander Stukowski, Wonpil Im, Hendrik Heinz, Axel Kohlmeyer, and Ellad B. Tadmor},
 title = {Type Label Framework for Bonded Force Fields in LAMMPS},
 journal = {J. Phys. Chem. B},
 year =    2024,
 volume =  128,
 number =  13,
 pages =   {3282–-3297}
}

CITE-CITE-CITE-CITE-CITE-CITE-CITE-CITE-CITE-CITE-CITE-CITE-CITE

Generated 0 of 0 mixed pair_coeff terms from geometric mixing rule
Neighbor list info ...
  update: every = 1 steps, delay = 0 steps, check = yes
  max neighbors/atom: 1000, page size: 100000
  master list distance cutoff = 13
  ghost atom cutoff = 13
  binsize = 6.5, bins = 29 29 29
  1 neighbor lists, perpetual/occasional/extra = 1 0 0
  (1) pair lj/cut, perpetual
      attributes: half, newton on
      pair build: half/bin/newton
      stencil: half/bin/3d
      bin: standard
Per MPI rank memory allocation (min/avg/max) = 8.28 | 8.366 | 8.79 Mbytes
   Step          Temp          E_pair         E_mol          TotEng         Press     
         0   0              12362163       8080.9318      12370244       547701.99    
       864   0             -33201.439      4728.3822     -28473.057     -88.004302    
Loop time of 0.456724 on 16 procs for 864 steps with 12350 atoms

96.2% CPU use with 16 MPI tasks x no OpenMP threads

Minimization stats:
  Stopping criterion = energy tolerance
  Energy initial, next-to-last, final = 
      12370244.3955073   -28470.390358934  -28473.0572160329
  Force two-norm initial, final = 2189056.9 11.10734
  Force max component initial, final = 115970.56 3.7283548
  Final line search alpha, max atom move = 0.030740086 0.11460995
  Iterations, force evaluations = 864 886

MPI task timing breakdown:
Section |  min time  |  avg time  |  max time  |%varavg| %total
---------------------------------------------------------------
Pair    | 0.027354   | 0.10083    | 0.21271    |  17.9 | 22.08
Bond    | 0.012936   | 0.041822   | 0.071795   |   8.9 |  9.16
Neigh   | 0.10881    | 0.11037    | 0.11229    |   0.4 | 24.16
Comm    | 0.031839   | 0.15266    | 0.26916    |  18.2 | 33.42
Output  | 0          | 0          | 0          |   0.0 |  0.00
Modify  | 0          | 0          | 0          |   0.0 |  0.00
Other   |            | 0.05105    |            |       | 11.18

Nlocal:        771.875 ave        1385 max         252 min
Histogram: 2 2 2 1 2 1 3 1 1 1
Nghost:        1045.06 ave        1694 max         531 min
Histogram: 2 5 1 0 0 1 1 3 2 1
Neighs:        15575.7 ave       32627 max        4696 min
Histogram: 4 2 2 1 0 2 2 2 0 1

Total # of neighbors = 249211
Ave neighs/atom = 20.179028
Ave special neighs/atom = 5.76
Neighbor list builds = 114
Dangerous builds = 0
velocity            all create 300 4928459
region              slab block 75 105 75 105 75 105 units box
group               slabs dynamic all region slab every 100
dynamic group slabs defined
variable            nslab equal count(slabs)
compute             pressperatom all stress/atom NULL
compute             Ppairperatom all stress/atom NULL pair
compute             Pbondperatom all stress/atom NULL bond
compute             Pangleperatom all stress/atom NULL angle
compute             Pdihedralperatom all stress/atom NULL dihedral
compute             peperatom all pe/atom
compute             Epairperatom all pe/atom pair
compute             Ebondperatom all pe/atom bond
compute             Eangleperatom all pe/atom angle
compute             Edihedralperatom all pe/atom dihedral
variable            pxxperatom atom c_pressperatom[1]
variable            pyyperatom atom c_pressperatom[2]
variable            pzzperatom atom c_pressperatom[3]
variable            Pxxpairperatom atom c_Ppairperatom[1]
variable            Pyypairperatom atom c_Ppairperatom[2]
variable            Pzzpairperatom atom c_Ppairperatom[3]
variable            Pxxbondperatom atom c_Pbondperatom[1]
variable            Pyybondperatom atom c_Pbondperatom[2]
variable            Pzzbondperatom atom c_Pbondperatom[3]
variable            Pxxangleperatom atom c_Pangleperatom[1]
variable            Pyyangleperatom atom c_Pangleperatom[2]
variable            Pzzangleperatom atom c_Pangleperatom[3]
variable            Pxxdihedralperatom atom c_Pdihedralperatom[1]
variable            Pyydihedralperatom atom c_Pdihedralperatom[2]
variable            Pzzdihedralperatom atom c_Pdihedralperatom[3]
variable            NA equal 6.02214076e23
variable            dens equal "12350 * 72 / v_NA / (vol / 1e24)"  # 计算整体密度，单位g/cm3
variable            slabdens equal "v_nslab * 72 / v_NA / (30 * 30 * 30 / 1e24)"  # 计算slab密度，单位g/cm3
# npt系综下驰豫
dump                min all custom 10000 dump.pdms_min.lammpstrj id type x y z vx vy vz v_pxxperatom v_pyyperatom v_pzzperatom v_Pxxpairperatom v_Pyypairperatom v_Pzzpairperatom v_Pxxbondperatom v_Pyybondperatom v_Pzzbondperatom v_Pxxangleperatom v_Pyyangleperatom v_Pzzangleperatom v_Pxxdihedralperatom v_Pyydihedralperatom v_Pzzdihedralperatom c_peperatom c_Epairperatom c_Ebondperatom c_Eangleperatom c_Edihedralperatom
fix                 1 all npt temp 300 600 50 iso 0 0 500 drag 2
thermo_style        custom step temp v_dens density v_slabdens v_nslab press etotal pxx pyy pzz lx ly lz
thermo              10000
run                 500000
Generated 0 of 0 mixed pair_coeff terms from geometric mixing rule
Per MPI rank memory allocation (min/avg/max) = 10.66 | 10.77 | 11.17 Mbytes
   Step          Temp          v_dens        Density       v_slabdens      v_nslab         Press          TotEng          Pxx            Pyy            Pzz             Lx             Ly             Lz      
       864   300            0.23516746     0.23516744     0.75720581     171           -7.6056313     -17430.05      -8.9861015     -3.5045957     -10.326197      184.39999      184.55         184.5        
     10000   305.73253      0.34930114     0.34930111     0.93432998     211           -2.3691481     -13038.798     -0.29747105     11.648747     -18.458721      161.61685      161.74833      161.7045     
     20000   312.67086      0.38300193     0.38300189     0.94761429     214            2.3389998     -15594.348     -5.5846231      7.4956923      5.1059302      156.73031      156.85781      156.81531    
     30000   317.04152      0.38702016     0.38702013     0.92990188     210           -8.4076398     -16128.111     -2.7769787     -22.047714     -0.39822653     156.186        156.31306      156.27071    
     40000   324.20734      0.3871663      0.38716627     0.90776136     205           -3.1884024     -16059.479      4.3334204      9.168549      -23.067176      156.16635      156.29339      156.25104    
     50000   328.77948      0.38468178     0.38468175     0.92547377     209           -3.8425674     -15588.29       5.2727825     -21.258411      4.4579266      156.50184      156.62915      156.58671    
     60000   333.90685      0.38360257     0.38360254     0.87233652     197            2.9501623     -15418.238     -21.607021      23.011548      7.4459599      156.64846      156.7759       156.73342    
     70000   341.29746      0.38065656     0.38065653     0.92990188     210            3.0956797     -14799.748      10.734009     -2.9241056      1.4771354      157.05154      157.1793       157.13672    
     80000   345.98393      0.37906592     0.37906589     0.92104567     208           -1.778493      -14395.505      17.960985      7.0910414     -30.387505      157.27091      157.39885      157.3562     
     90000   351.39497      0.37841229     0.37841225     0.92547377     209           -2.3377755     -13770.417      0.7614051     -10.346366      2.571634       157.36141      157.48942      157.44675    
    100000   360.57633      0.38015819     0.38015816     0.96532671     218           -4.0959319     -12992.413     -37.645187     -0.23948995     25.596881      157.12014      157.24796      157.20535    
    110000   367.18336      0.38407392     0.38407388     0.91218946     206           -1.346806      -12700.612     -15.820278      25.464414     -13.684554      156.58436      156.71174      156.66928    
    120000   371.76423      0.38874112     0.38874108     0.99632344     225           -2.0144113     -12004.922      0.28137191    -16.167718      9.8431125      155.95518      156.08205      156.03976    
    130000   376.75288      0.39571075     0.39571072     0.92547377     209           -0.29509438    -11405.177      21.922407     -19.980699     -2.8269909      155.03415      155.16027      155.11823    
    140000   381.75994      0.40482739     0.40482736     0.91218946     206            4.8001491     -10882.81       2.3159719      17.701835     -5.6173591      153.86152      153.98668      153.94496    
    150000   389.19451      0.41786048     0.41786044     0.89004894     201           -4.5093418     -10254.289     -12.651301      3.8399672     -4.716691       152.24494      152.36879      152.32751    
    160000   396.80382      0.43001778     0.43001774     0.86790842     196            1.5373921     -9931.6859      2.9471555     -31.721726      33.386747      150.79647      150.91914      150.87825    
    170000   401.53178      0.44617286     0.44617282     0.89447704     202            2.0250866     -9238.7333      3.5438896      16.227293     -13.695923      148.95403      149.0752       149.03481    
    180000   406.59431      0.47008988     0.47008983     0.9520424      215            7.1130159     -8738.2436      29.378947      8.7011082     -16.741008      146.3838       146.50288      146.46319    
    190000   413.71163      0.51339311     0.51339307     0.88119273     199            0.038476221   -8447.76        19.007446     -7.0009038     -11.891114      142.14665      142.26229      142.22374    
    200000   419.76002      0.57157995     0.5715799      0.92990188     210           -1.1298209     -8330.1554      11.902741      1.437144      -16.729348      137.14953      137.2611       137.22391    
    210000   427.49085      0.6344253      0.63442524     0.87676463     198            4.1267249     -8333.1446      12.898816      17.517521     -18.036162      132.46256      132.57032      132.5344     
    220000   429.217        0.68811522     0.68811516     0.92104567     208           -2.7312491     -8088.9321     -33.272074     -3.5333208      28.611647      128.92375      129.02863      128.99367    
    230000   434.75525      0.73587762     0.73587756     0.89890515     203            12.509484     -7971.3012     -4.2314796      13.740545      28.019386      126.07185      126.1744       126.14022    
    240000   445.83202      0.76400267     0.76400261     0.88119273     199            6.2457861     -7632.4778     -1.874147       4.9466676      15.664838      124.50545      124.60673      124.57297    
    250000   449.26067      0.77802244     0.77802238     0.850196       192           -16.755833     -7323.7074     -43.21661      -11.675826      4.624937       123.75306      123.85373      123.82017    
    260000   455.81161      0.79978209     0.79978202     0.92547377     209            2.0821292     -7242.8658     -32.905025      18.024241      21.127171      122.62041      122.72016      122.68691    
    270000   462.05842      0.81470177     0.8147017      0.88562084     200           -5.8384301     -6821.2933      37.072247     -45.86409      -8.723447       121.86727      121.96641      121.93336    
    280000   469.82137      0.82373759     0.82373752     0.88119273     199            5.3013081     -6288.0784     -25.076482      26.440567      14.539839      121.42003      121.51881      121.48588    
    290000   473.53471      0.82584795     0.82584787     0.88562084     200           -21.741786     -5566.5964     -19.427975     -2.874635      -42.922749      121.31652      121.41521      121.38231    
    300000   480.16022      0.83158781     0.83158774     0.84133979     190            10.272845     -5421.8402      55.9732       -102.75102      77.596351      121.03676      121.13522      121.1024     
    310000   485.4411       0.8341873      0.83418723     0.84133979     190           -9.0010651     -4768.6504     -5.0992504      44.287407     -66.191352      120.9109       121.00926      120.97647    
    320000   492.56962      0.8422646      0.84226453     0.86348031     195            7.9480486     -4613.1917     -9.5994684      5.2991973      28.144417      120.52315      120.62119      120.58851    
    330000   495.21338      0.83874685     0.83874677     0.85462411     193           -2.9729395     -3815.0533     -27.259604     -21.179832      39.520618      120.69141      120.78959      120.75686    
    340000   505.16102      0.83237225     0.83237218     0.89890515     203           -22.018675     -2920.7973      14.778251     -26.014943     -54.819333      120.99872      121.09715      121.06434    
    350000   508.31673      0.83872041     0.83872033     0.82805548     187            6.3090736     -2774.743       12.617556      54.145258     -47.835593      120.69267      120.79086      120.75813    
    360000   516.67534      0.84096963     0.84096956     0.82362738     186            15.165949     -2263.9416      8.1292265      42.654186     -5.2855655      120.58498      120.68307      120.65037    
    370000   521.72653      0.84018754     0.84018747     0.85905221     194           -3.1516543     -1645.6861     -66.344437      40.113033      16.776441      120.62238      120.72051      120.6878     
    380000   527.10992      0.83713529     0.83713522     0.86790842     196            4.0895224     -1088.2017     -5.2625882      33.646594     -16.115438      120.7688       120.86705      120.8343     
    390000   532.58355      0.8312259      0.83122583     0.81919927     185            5.3567914     -663.53698     -58.383621      45.397075      29.05692       121.05432      121.1528       121.11997    
    400000   535.73165      0.82719367     0.8271936      0.81919927     185            21.727694      124.45021      20.305164      33.110779      11.767139      121.2507       121.34933      121.31645    
    410000   544.43306      0.82444319     0.82444312     0.8457679      191            0.81758622     604.99075     -0.62137216    -3.5959771      6.670108       121.38538      121.48413      121.45122    
    420000   552.01668      0.82171692     0.82171685     0.87233652     197            10.518193      1289.2362      20.056263      20.215428     -8.7171117      121.51948      121.61834      121.58538    
    430000   560.1681       0.82097737     0.8209773      0.82362738     186           -15.75806       1862.2024     -25.34648      -49.675956      27.748255      121.55596      121.65484      121.62188    
    440000   564.32955      0.81785176     0.81785169     0.8457679      191           -3.3533625      2386.7954      51.578326      12.400715     -74.039129      121.71061      121.80962      121.77662    
    450000   572.14893      0.81333912     0.81333904     0.78377444     177            2.2965496      2835.32        29.304006     -48.758754      26.344398      121.93529      122.03449      122.00142    
    460000   579.71472      0.81633935     0.81633928     0.82805548     187           -9.7824759      3337.1525      27.350507     -43.45766      -13.240275      121.78573      121.8848       121.85178    
    470000   581.56855      0.81461179     0.81461172     0.79705875     180            2.2056345      3532.2367      96.602222     -44.64705      -45.338269      121.87176      121.9709       121.93785    
    480000   585.36504      0.80819778     0.80819771     0.76163392     172           -8.1426425      4376.7019     -5.6853393     -13.555091     -5.1874973      122.19331      122.29271      122.25958    
    490000   591.44978      0.79942107     0.799421       0.79263065     179            13.131833      5111.2956      60.107009      13.559953     -34.271462      122.63886      122.73863      122.70537    
    500000   602.88319      0.79971259     0.79971252     0.77934634     176            3.793945       5683.3546      5.7449605     -59.129129      64.766003      122.62396      122.72371      122.69046    
    500864   602.4361       0.79775283     0.79775276     0.79705875     180            12.857903      5738.4126     -22.727506      17.616159      43.685054      122.72429      122.82412      122.79085    
Loop time of 230.731 on 16 procs for 500000 steps with 12350 atoms

Performance: 187.231 ns/day, 0.128 hours/ns, 2167.023 timesteps/s, 26.763 Matom-step/s
97.2% CPU use with 16 MPI tasks x no OpenMP threads

MPI task timing breakdown:
Section |  min time  |  avg time  |  max time  |%varavg| %total
---------------------------------------------------------------
Pair    | 46.408     | 75.044     | 96.636     | 193.8 | 32.52
Bond    | 21.212     | 33.747     | 41.741     | 113.8 | 14.63
Neigh   | 13.194     | 13.233     | 13.276     |   0.7 |  5.74
Comm    | 52.107     | 78.321     | 116.32     | 229.9 | 33.94
Output  | 0.35042    | 0.43331    | 0.52394    |   8.2 |  0.19
Modify  | 21.159     | 24.202     | 28.098     |  60.5 | 10.49
Other   |            | 5.75       |            |       |  2.49

Nlocal:        771.875 ave         801 max         736 min
Histogram: 1 0 0 1 5 4 0 2 2 1
Nghost:        2121.25 ave        2163 max        2081 min
Histogram: 2 1 2 1 1 2 3 1 2 1
Neighs:        21863.3 ave       23200 max       20392 min
Histogram: 1 0 2 1 4 4 0 1 1 2

Total # of neighbors = 349813
Ave neighs/atom = 28.324939
Ave special neighs/atom = 5.76
Neighbor list builds = 11097
Dangerous builds = 0
unfix               1

fix                 1 all nve/limit 0.05
fix                 2 all langevin 600.0 600.0 50.0 904297
thermo_style        custom step temp v_dens density v_slabdens v_nslab press etotal pxx pyy pzz lx ly lz
thermo              10000
run                 1000000
Generated 0 of 0 mixed pair_coeff terms from geometric mixing rule
Per MPI rank memory allocation (min/avg/max) = 18.47 | 18.62 | 18.95 Mbytes
   Step          Temp          v_dens        Density       v_slabdens      v_nslab         Press          TotEng          Pxx            Pyy            Pzz             Lx             Ly             Lz      
    500864   602.4361       0.79775283     0.79775276     0.79705875     180            12.857903      5738.4126     -22.727506      17.616159      43.685054      122.72429      122.82412      122.79085    
    510000   592.90712      0.79775283     0.79775276     0.82362738     186            3.9840319      5368.6728      28.12147      -59.526209      43.356835      122.72429      122.82412      122.79085    
    520000   599.42618      0.79775283     0.79775276     0.78377444     177            17.540057      5769.8326      63.024956     -75.092558      64.687773      122.72429      122.82412      122.79085    
    530000   600.90269      0.79775283     0.79775276     0.78820254     178           -23.326173      5898.1753     -32.108671     -13.400455     -24.469394      122.72429      122.82412      122.79085    
    540000   597.99615      0.79775283     0.79775276     0.78377444     177            70.128976      5615.3299      96.59419       56.150406      57.642331      122.72429      122.82412      122.79085    
    550000   597.59825      0.79775283     0.79775276     0.77049013     174           -37.031906      5633.0627     -54.927033     -41.132331     -15.036355      122.72429      122.82412      122.79085    
    560000   601.06483      0.79775283     0.79775276     0.79263065     179           -12.651053      5771.3557      48.071685     -38.109798     -47.915045      122.72429      122.82412      122.79085    
    570000   605.23628      0.79775283     0.79775276     0.77491823     175           -1.0705423      6016.3609      45.099163     -81.320149      33.009359      122.72429      122.82412      122.79085    
    580000   607.82083      0.79775283     0.79775276     0.77934634     176           -12.013358      6024.5467      11.690203     -17.536516     -30.193761      122.72429      122.82412      122.79085    
    590000   600.36798      0.79775283     0.79775276     0.81919927     185           -53.618551      5744.0339     -16.995934     -61.309898     -82.549821      122.72429      122.82412      122.79085    
    600000   599.46939      0.79775283     0.79775276     0.81477117     184           -12.652197      5589.1833     -5.7479164     -2.283943      -29.924733      122.72429      122.82412      122.79085    
    610000   604.85278      0.79775283     0.79775276     0.81477117     184            2.7799478      6126.143      -25.130294      5.1252137      28.344924      122.72429      122.82412      122.79085    
    620000   603.00198      0.79775283     0.79775276     0.80148686     181            1.0487666      5880.2513      53.310799     -39.395983     -10.768516      122.72429      122.82412      122.79085    
    630000   606.68155      0.79775283     0.79775276     0.80148686     181            29.064619      5927.47        9.5398312      52.963247      24.69078       122.72429      122.82412      122.79085    
    640000   597.3622       0.79775283     0.79775276     0.78820254     178           -40.08349       5587.1753     -66.532222     -67.225427      13.507179      122.72429      122.82412      122.79085    
    650000   599.04512      0.79775283     0.79775276     0.78377444     177           -5.115214       5501.2767      74.897953      38.781132     -129.02473      122.72429      122.82412      122.79085    
    660000   604.9944       0.79775283     0.79775276     0.77934634     176            34.540614      5969.5275      44.067499      76.076945     -16.522601      122.72429      122.82412      122.79085    
    670000   604.20675      0.79775283     0.79775276     0.78820254     178            19.384572      6187.157       114.46449      18.394386     -74.705164      122.72429      122.82412      122.79085    
    680000   599.1901       0.79775283     0.79775276     0.78377444     177            4.7522625      5642.0776      9.4653292      7.6669638     -2.8755056      122.72429      122.82412      122.79085    
    690000   598.26218      0.79775283     0.79775276     0.77934634     176           -40.384665      5399.695      -12.730758     -74.679412     -33.743825      122.72429      122.82412      122.79085    
    700000   600.75976      0.79775283     0.79775276     0.77934634     176           -32.100044      5602.2829      17.328979     -35.317763     -78.311348      122.72429      122.82412      122.79085    
    710000   597.30077      0.79775283     0.79775276     0.82805548     187           -55.970958      5655.7414      9.7231262     -18.915181     -158.72082      122.72429      122.82412      122.79085    
    720000   599.40748      0.79775283     0.79775276     0.76606202     173           -22.336602      5837.9926     -52.176009     -1.3918322     -13.441965      122.72429      122.82412      122.79085    
    730000   604.31618      0.79775283     0.79775276     0.81919927     185           -61.922002      5828.3368     -112.91528     -92.937309      20.086587      122.72429      122.82412      122.79085    
    740000   602.2006       0.79775283     0.79775276     0.77934634     176           -46.213117      5818.3798     -58.543434     -72.299823     -7.7960927      122.72429      122.82412      122.79085    
    750000   592.31168      0.79775283     0.79775276     0.82362738     186            58.247673      5362.8119      98.21299       81.242751     -4.7127207      122.72429      122.82412      122.79085    
    760000   601.32017      0.79775283     0.79775276     0.77491823     175           -26.355886      5656.5469     -84.487492      2.933269       2.4865638      122.72429      122.82412      122.79085    
    770000   600.9357       0.79775283     0.79775276     0.75277771     170            68.363317      5713.8582      32.507102      108.6148       63.968053      122.72429      122.82412      122.79085    
    780000   597.81288      0.79775283     0.79775276     0.77934634     176            3.9949938      5504.7408      46.717686     -5.8514006     -28.881304      122.72429      122.82412      122.79085    
    790000   602.95742      0.79775283     0.79775276     0.77049013     174            50.942395      5811.5989      43.910973      55.621438      53.294773      122.72429      122.82412      122.79085    
    800000   599.58793      0.79775283     0.79775276     0.77491823     175            3.8105839      5730.6553     -79.183755      68.028068      22.587438      122.72429      122.82412      122.79085    
    810000   604.83985      0.79775283     0.79775276     0.7394934      167            4.622227       5706.6991     -90.693403      93.168907      11.391177      122.72429      122.82412      122.79085    
    820000   599.72037      0.79775283     0.79775276     0.75277771     170           -47.492302      5837.6653     -18.760125     -121.70114     -2.015639       122.72429      122.82412      122.79085    
    830000   603.51         0.79775283     0.79775276     0.79705875     180           -78.487654      5797.6742     -106.31099     -74.689199     -54.462773      122.72429      122.82412      122.79085    
    840000   594.16156      0.79775283     0.79775276     0.79263065     179           -28.878335      5681.2021     -63.879926     -7.7146745     -15.040403      122.72429      122.82412      122.79085    
    850000   594.31629      0.79775283     0.79775276     0.81919927     185           -55.466487      5538.3441     -89.920328     -4.4916779     -71.987454      122.72429      122.82412      122.79085    
    860000   604.8402       0.79775283     0.79775276     0.80148686     181            15.325417      6152.7525      53.100638     -44.853423      37.729036      122.72429      122.82412      122.79085    
    870000   600.16411      0.79775283     0.79775276     0.77934634     176           -6.0470285      5822.336      -27.094852     -7.1571384      16.110905      122.72429      122.82412      122.79085    
    880000   600.46378      0.79775283     0.79775276     0.77934634     176            27.436505      5800.5024      38.456351     -12.573523      56.426686      122.72429      122.82412      122.79085    
    890000   601.66762      0.79775283     0.79775276     0.80148686     181            19.497819      5739.8506      24.317518      3.3380856      30.837853      122.72429      122.82412      122.79085    
    900000   599.19658      0.79775283     0.79775276     0.75720581     171            3.2342674      5966.3468      9.1238727     -13.534508      14.113437      122.72429      122.82412      122.79085    
    910000   602.09345      0.79775283     0.79775276     0.77049013     174            33.139889      5830.7156      8.8626513      91.569304     -1.012289       122.72429      122.82412      122.79085    
    920000   596.15541      0.79775283     0.79775276     0.77491823     175            2.3574109      5788.16       -126.28565      98.708081      34.649807      122.72429      122.82412      122.79085    
    930000   599.92196      0.79775283     0.79775276     0.82362738     186            11.236076      5898.9546      18.997486     -9.471261       24.182002      122.72429      122.82412      122.79085    
    940000   600.95736      0.79775283     0.79775276     0.80591496     182            27.026919      5679.3907     -8.9947259      78.91196       11.163523      122.72429      122.82412      122.79085    
    950000   597.15957      0.79775283     0.79775276     0.80591496     182            8.745548       5773.7221     -20.169858      17.627145      28.779357      122.72429      122.82412      122.79085    
    960000   599.22942      0.79775283     0.79775276     0.81034306     183            35.13899       5845.1428      8.1065136      10.982199      86.328258      122.72429      122.82412      122.79085    
    970000   603.3001       0.79775283     0.79775276     0.80148686     181           -8.9696817      5763.8091     -29.140176      25.401014     -23.169883      122.72429      122.82412      122.79085    
    980000   595.7385       0.79775283     0.79775276     0.81477117     184            7.0563538      5443.1185     -38.009643      29.676943      29.501762      122.72429      122.82412      122.79085    
    990000   599.31011      0.79775283     0.79775276     0.81919927     185           -60.534427      5304.0604     -54.304615     -88.372211     -38.926455      122.72429      122.82412      122.79085    
   1000000   599.48899      0.79775283     0.79775276     0.80591496     182           -26.665416      5746.4029     -52.707835     -10.914515     -16.373898      122.72429      122.82412      122.79085    
   1010000   600.88001      0.79775283     0.79775276     0.78377444     177            0.052530765    5711.5538      32.656513     -31.727425     -0.77149618     122.72429      122.82412      122.79085    
   1020000   598.10316      0.79775283     0.79775276     0.82362738     186            7.2991087      5614.2212     -34.631819      2.3496126      54.179532      122.72429      122.82412      122.79085    
   1030000   592.35381      0.79775283     0.79775276     0.80591496     182           -3.9370041      5440.8521      10.190803     -35.206484      13.204669      122.72429      122.82412      122.79085    
   1040000   596.77886      0.79775283     0.79775276     0.81477117     184           -5.2699318      5485.8063     -83.110596      46.510272      20.790528      122.72429      122.82412      122.79085    
   1050000   598.80476      0.79775283     0.79775276     0.83248359     188            25.527135      5750.4756     -18.19983       16.895398      77.885837      122.72429      122.82412      122.79085    
   1060000   597.66948      0.79775283     0.79775276     0.81477117     184           -23.992722      5750.9122     -118.26432     -45.011023      91.297175      122.72429      122.82412      122.79085    
   1070000   598.80299      0.79775283     0.79775276     0.80591496     182            4.2575568      5793.8404      34.98065       20.727646     -42.935625      122.72429      122.82412      122.79085    
   1080000   601.5983       0.79775283     0.79775276     0.83248359     188           -5.8399735      5436.5198     -12.056369     -34.775455      29.311904      122.72429      122.82412      122.79085    
   1090000   597.89888      0.79775283     0.79775276     0.81919927     185           -10.047583      5527.2684      16.53897       20.183612     -66.86533       122.72429      122.82412      122.79085    
   1100000   599.46207      0.79775283     0.79775276     0.84133979     190            7.2905117      5547.3556      33.045546     -18.403252      7.2292408      122.72429      122.82412      122.79085    
   1110000   605.79392      0.79775283     0.79775276     0.81477117     184           -3.2633391      5987.3086      27.215561     -16.070374     -20.935204      122.72429      122.82412      122.79085    
   1120000   603.59132      0.79775283     0.79775276     0.81477117     184           -21.09464       5685.9963     -29.338067     -35.704165      1.7583129      122.72429      122.82412      122.79085    
   1130000   603.96492      0.79775283     0.79775276     0.79263065     179           -30.272038      5786.817      -66.539861      10.877652     -35.153906      122.72429      122.82412      122.79085    
   1140000   600.40852      0.79775283     0.79775276     0.81034306     183           -2.8910293      5793.1594      14.942651     -51.976492      28.360754      122.72429      122.82412      122.79085    
   1150000   604.04227      0.79775283     0.79775276     0.80148686     181            17.692851      5970.8749      46.718461     -2.5308509      8.8909419      122.72429      122.82412      122.79085    
   1160000   591.48716      0.79775283     0.79775276     0.85905221     194           -25.36476       5455.4968      28.351179     -50.137364     -54.308096      122.72429      122.82412      122.79085    
   1170000   602.74897      0.79775283     0.79775276     0.84133979     190            9.8920373      5702.799       49.57181       38.342139     -58.237837      122.72429      122.82412      122.79085    
   1180000   605.61055      0.79775283     0.79775276     0.86348031     195            12.295061      6163.1963      46.400731      59.149907     -68.665455      122.72429      122.82412      122.79085    
   1190000   602.38115      0.79775283     0.79775276     0.850196       192           -31.322242      6005.1971     -22.381233     -42.970357     -28.615136      122.72429      122.82412      122.79085    
   1200000   605.12185      0.79775283     0.79775276     0.8457679      191           -16.17019       5988.0584     -51.391166      25.612065     -22.731469      122.72429      122.82412      122.79085    
   1210000   595.03909      0.79775283     0.79775276     0.82805548     187            24.644334      5601.6601      12.958015      12.19566       48.779326      122.72429      122.82412      122.79085    
   1220000   597.35969      0.79775283     0.79775276     0.81477117     184            3.7992925      5361.6867     -34.175181      39.291637      6.2814222      122.72429      122.82412      122.79085    
   1230000   596.33972      0.79775283     0.79775276     0.81034306     183           -66.298223      5304.5279     -10.318777     -80.388877     -108.18701      122.72429      122.82412      122.79085    
   1240000   594.38975      0.79775283     0.79775276     0.81034306     183           -18.929347      5588.8772     -72.234629      26.794804     -11.348216      122.72429      122.82412      122.79085    
   1250000   598.55605      0.79775283     0.79775276     0.83691169     189           -12.851053      5472.6745     -18.87942      -0.44567887    -19.228062      122.72429      122.82412      122.79085    
   1260000   598.589        0.79775283     0.79775276     0.81477117     184           -49.048298      5596.2163     -11.58994       0.3869125     -135.94187      122.72429      122.82412      122.79085    
   1270000   596.37867      0.79775283     0.79775276     0.79263065     179           -4.460938       5472.55       -10.036803      53.87617      -57.222181      122.72429      122.82412      122.79085    
   1280000   604.99352      0.79775283     0.79775276     0.81919927     185            34.749358      5774.3527     -25.214423      68.820185      60.642312      122.72429      122.82412      122.79085    
   1290000   604.98968      0.79775283     0.79775276     0.84133979     190            5.8197453      5928.976      -63.436712      3.1276183      77.768329      122.72429      122.82412      122.79085    
   1300000   599.09397      0.79775283     0.79775276     0.77491823     175            6.6788976      5741.2576      55.043056     -28.283272     -6.7230909      122.72429      122.82412      122.79085    
   1310000   592.416        0.79775283     0.79775276     0.77934634     176            14.680536      5542.8626      4.7039163      1.2492106      38.088481      122.72429      122.82412      122.79085    
   1320000   604.26888      0.79775283     0.79775276     0.82362738     186           -30.044665      6013.0642     -19.225567     -71.16077       0.2523411      122.72429      122.82412      122.79085    
   1330000   599.73501      0.79775283     0.79775276     0.81477117     184            61.669339      5753.2013      105.15933      60.506539      19.342151      122.72429      122.82412      122.79085    
   1340000   601.23229      0.79775283     0.79775276     0.81034306     183           -55.306134      5860.2271     -64.692166     -62.801401     -38.424835      122.72429      122.82412      122.79085    
   1350000   605.61064      0.79775283     0.79775276     0.79705875     180            4.1324666      5743.8468     -41.332128      30.113939      23.615588      122.72429      122.82412      122.79085    
   1360000   607.25089      0.79775283     0.79775276     0.77491823     175            16.552519      5804.5752      96.537281     -6.0722188     -40.807504      122.72429      122.82412      122.79085    
   1370000   598.09066      0.79775283     0.79775276     0.79705875     180            41.147109      5574.5987      84.683987      48.295445     -9.5381068      122.72429      122.82412      122.79085    
   1380000   601.74522      0.79775283     0.79775276     0.81034306     183           -20.443474      5838.8679     -2.9763759     -52.329808     -6.0242371      122.72429      122.82412      122.79085    
   1390000   602.13072      0.79775283     0.79775276     0.82362738     186           -20.966666      5662.6847     -56.317263      13.934296     -20.517032      122.72429      122.82412      122.79085    
   1400000   601.87096      0.79775283     0.79775276     0.81919927     185            48.587418      5872.2175      117.7471      -20.116689      48.131843      122.72429      122.82412      122.79085    
   1410000   596.04546      0.79775283     0.79775276     0.79263065     179           -9.7285731      5770.1114     -1.9157438     -23.040541     -4.2294347      122.72429      122.82412      122.79085    
   1420000   605.91847      0.79775283     0.79775276     0.850196       192           -39.981341      5851.0268     -84.145466     -26.833721     -8.9648364      122.72429      122.82412      122.79085    
   1430000   601.39756      0.79775283     0.79775276     0.82362738     186            23.952535      5780.4444      35.139537     -31.273229      67.991296      122.72429      122.82412      122.79085    
   1440000   608.64121      0.79775283     0.79775276     0.83248359     188            21.272291      5815.795       33.177289     -19.064805      49.70439       122.72429      122.82412      122.79085    
   1450000   602.44397      0.79775283     0.79775276     0.81919927     185            28.961324      5736.2958      59.736346     -31.816643      58.964268      122.72429      122.82412      122.79085    
   1460000   592.94661      0.79775283     0.79775276     0.76163392     172            27.454725      5393.6673     -32.72951       59.680088      55.413598      122.72429      122.82412      122.79085    
   1470000   591.78662      0.79775283     0.79775276     0.77491823     175            42.612009      5275.3039      45.90601       19.54893       62.381088      122.72429      122.82412      122.79085    
   1480000   605.5785       0.79775283     0.79775276     0.77934634     176           -2.7477388      6122.5837     -2.052444      -6.2193688      0.028596409    122.72429      122.82412      122.79085    
   1490000   602.87438      0.79775283     0.79775276     0.76606202     173            42.277888      5767.0726      61.124845      25.924247      39.784573      122.72429      122.82412      122.79085    
   1500000   602.4674       0.79775283     0.79775276     0.80591496     182            56.112234      5749.7149      62.661309      104.009        1.6663936      122.72429      122.82412      122.79085    
   1500864   601.80468      0.79775283     0.79775276     0.81919927     185            16.268684      5674.3673      47.902063     -16.206043      17.110033      122.72429      122.82412      122.79085    
Loop time of 395.878 on 16 procs for 1000000 steps with 12350 atoms

Performance: 218.249 ns/day, 0.110 hours/ns, 2526.033 timesteps/s, 31.197 Matom-step/s
98.0% CPU use with 16 MPI tasks x no OpenMP threads

MPI task timing breakdown:
Section |  min time  |  avg time  |  max time  |%varavg| %total
---------------------------------------------------------------
Pair    | 142.06     | 148.3      | 152.65     |  27.1 | 37.46
Bond    | 53.934     | 55.363     | 56.824     |  11.6 | 13.98
Neigh   | 22.721     | 22.749     | 22.771     |   0.3 |  5.75
Comm    | 107.65     | 112        | 120.2      |  36.9 | 28.29
Output  | 0.64643    | 0.81529    | 0.99446    |  11.9 |  0.21
Modify  | 32.493     | 32.97      | 33.438     |   5.6 |  8.33
Other   |            | 23.67      |            |       |  5.98

Nlocal:        771.875 ave         793 max         746 min
Histogram: 2 1 2 0 1 0 4 2 2 2
Nghost:        2128.94 ave        2156 max        2094 min
Histogram: 1 1 0 3 2 1 2 3 1 2
Neighs:        21832.9 ave       22688 max       20560 min
Histogram: 1 1 3 0 1 0 1 4 2 3

Total # of neighbors = 349326
Ave neighs/atom = 28.285506
Ave special neighs/atom = 5.76
Neighbor list builds = 21120
Dangerous builds = 0
unfix               1
unfix               2

fix                 2 all npt temp 600 300 50 iso 0 0 500 drag 2
thermo_style        custom step temp v_dens density v_slabdens v_nslab press etotal pxx pyy pzz lx ly lz
thermo              10000
run                 500000
Generated 0 of 0 mixed pair_coeff terms from geometric mixing rule
Per MPI rank memory allocation (min/avg/max) = 18.47 | 18.62 | 18.95 Mbytes
   Step          Temp          v_dens        Density       v_slabdens      v_nslab         Press          TotEng          Pxx            Pyy            Pzz             Lx             Ly             Lz      
   1500864   601.80468      0.79775283     0.79775276     0.81919927     185            16.268684      5674.3673      47.902063     -16.206043      17.110033      122.72429      122.82412      122.79085    
   1510000   596.82461      0.7994851      0.79948503     0.82362738     186            14.668784      5295.8282     -72.748793      115.08159      1.6735579      122.63559      122.73535      122.7021     
   1520000   592.34468      0.8014382      0.80143813     0.81477117     184            11.935198      4781.5998      24.184197      41.766927     -30.14553       122.53589      122.63557      122.60234    
   1530000   579.8694       0.80654332     0.80654325     0.78377444     177           -8.8649557      4033.334       28.915833     -62.873139      7.3624389      122.2768       122.37628      122.34312    
   1540000   576.0562       0.81074595     0.81074588     0.79263065     179           -6.2175587      3552.2324      15.929206     -5.0607799     -29.521102      122.06516      122.16446      122.13136    
   1550000   571.54981      0.81014669     0.81014662     0.75277771     170            3.104612       3285.6577     -43.127996     -8.56724        61.009072      122.09525      122.19457      122.16146    
   1560000   566.19786      0.81939659     0.81939652     0.86790842     196            11.600689      2461.6969     -28.032019      23.549227      39.284858      121.63408      121.73302      121.70004    
   1570000   557.97851      0.82026711     0.82026704     0.81477117     184           -7.7291135      1897.6373      98.443966     -42.717347     -78.91396       121.59103      121.68995      121.65697    
   1580000   551.53421      0.82279861     0.82279853     0.83248359     188            0.025932472    1220.0879      29.06963       24.09718      -53.089012      121.4662       121.56502      121.53208    
   1590000   548.0645       0.82454669     0.82454662     0.81919927     185            6.0668705      649.94707      25.113573     -34.953889      28.040927      121.38031      121.47905      121.44613    
   1600000   540.79345      0.83080324     0.83080316     0.78377444     177            4.5403287      288.16669     -9.914237       28.322873     -4.7876499      121.07484      121.17334      121.14051    
   1610000   537.49781      0.83242911     0.83242904     0.85462411     193           -7.6659324     -206.32133     -28.306176     -7.5860533      12.894432      120.99597      121.0944       121.06159    
   1620000   526.87502      0.83638337     0.83638329     0.82805548     187            9.98624       -995.74467     -21.453162     -13.307524      64.719406      120.80498      120.90326      120.8705     
   1630000   523.08588      0.83828575     0.83828567     0.84133979     190           -13.900731     -1436.7823     -12.025447     -15.68004      -13.996707      120.71353      120.81173      120.779      
   1640000   517.82738      0.83955145     0.83955138     0.78377444     177            15.501865     -1720.4791     -11.063448      5.632685       51.936358      120.65284      120.75099      120.71827    
   1650000   513.00757      0.8432872      0.84328712     0.88562084     200            33.133239     -2581.7156     -6.9536407      41.670275      64.683083      120.47441      120.57242      120.53975    
   1660000   503.48483      0.84511837     0.8451183      0.88119273     199           -1.7969916     -3015.5113      16.937658      18.29471      -40.623343      120.38733      120.48527      120.45262    
   1670000   496.6212       0.84999358     0.8499935      0.86348031     195           -24.976342     -3738.2449      43.686503     -60.178364     -58.437166      120.15673      120.25448      120.22189    
   1680000   494.70059      0.85536676     0.85536668     0.89890515     203            6.6221643     -4374.9532      41.285943     -24.575507      3.1560577      119.9046       120.00214      119.96963    
   1690000   488.13045      0.85534055     0.85534047     0.89447704     202            9.2502671     -4733.6515     -48.103223      10.545311      65.308714      119.90583      120.00337      119.97086    
   1700000   481.85855      0.85901161     0.85901153     0.89004894     201            31.691442     -5434.8029      82.440858     -32.941868      45.575337      119.73477      119.83218      119.79971    
   1710000   473.62059      0.8588495      0.85884942     0.79705875     180           -11.370046     -5740.1347     -35.762595      13.391595     -11.739137      119.74231      119.83972      119.80725    
   1720000   471.28114      0.86337781     0.86337773     0.8457679      191            15.052446     -6485.2895     -54.399805      67.424895      32.132248      119.5326       119.62983      119.59742    
   1730000   468.31542      0.86778242     0.86778234     0.86348031     195            7.2804478     -6957.0797      49.061428      6.3493444     -33.569429      119.33001      119.42709      119.39473    
   1740000   457.65753      0.86956417     0.86956409     0.79705875     180           -14.714294     -7578.0311      31.361862     -25.934718     -49.570027      119.24846      119.34546      119.31313    
   1750000   447.51191      0.87639379     0.87639371     0.87676463     198            5.6688127     -8487.7853      23.81356      -33.903275      27.096153      118.93789      119.03464      119.00239    
   1760000   446.53458      0.87805747     0.87805739     0.86348031     195            12.002412     -8765.0117     -17.7592        38.072645      15.69379       118.86272      118.95941      118.92718    
   1770000   436.89528      0.87793995     0.87793987     0.93432998     211           -17.703707     -9342.3609     -34.488311     -53.658122      35.035312      118.86802      118.96472      118.93249    
   1780000   430.11332      0.88035943     0.88035936     0.85905221     194            12.561798     -9991.32       -7.9694505      32.777705      12.877139      118.75903      118.85564      118.82344    
   1790000   428.62234      0.88704322     0.88704315     0.90776136     205            16.124955     -10614.29       76.968158     -35.597705      7.0044132      118.46         118.55636      118.52424    
   1800000   417.02425      0.88738082     0.88738075     0.90333325     204           -2.6660991     -11292.973     -37.759931     -4.391381       34.153014      118.44497      118.54133      118.50921    
   1810000   414.92073      0.8912143      0.89121422     0.93875809     212            0.94971907    -11771.28      -45.933543     -3.5341225      52.316823      118.2749       118.37112      118.33905    
   1820000   408.73603      0.89489212     0.89489204     0.89447704     202            0.72651728    -12434.67       37.147016      8.0653494     -43.032814      118.11265      118.20873      118.17671    
   1830000   404.86253      0.89774117     0.89774109     0.92104567     208            2.4181034     -12786.095     -21.604777      89.601816     -60.742729      117.98757      118.08355      118.05156    
   1840000   396.01418      0.90115171     0.90115163     0.9520424      215           -9.3464889     -13561.082      8.5095339      35.010113     -71.559114      117.83854      117.9344       117.90244    
   1850000   390.10806      0.90305888     0.9030588      0.89890515     203            1.6013674     -14199.308      18.236426      3.3810657     -16.81339       117.75552      117.85132      117.81939    
   1860000   385.22961      0.90690395     0.90690387     0.86790842     196           -3.8180436     -14670.499     -13.06866      -5.9403576      7.5548869      117.58887      117.68453      117.65264    
   1870000   377.2883       0.90792799     0.90792791     0.91661757     207           -3.7699886     -15268.799      35.834693     -8.6315427     -38.513116      117.54464      117.64027      117.60839    
   1880000   374.09479      0.9086734      0.90867332     0.90333325     204           -11.051009     -15846.372      17.852383      13.741461     -64.74687       117.51249      117.60809      117.57622    
   1890000   366.10356      0.91770667     0.91770659     0.90333325     204            3.4119024     -16749.069     -4.3796083      64.276509     -49.661193      117.12565      117.22093      117.18917    
   1900000   358.14361      0.91848375     0.91848367     0.94318619     213           -8.0077768     -17233.814     -12.910501      0.72889198    -11.841721      117.09261      117.18786      117.15611    
   1910000   353.1601       0.92420658     0.9242065      0.92990188     210           -4.0191835     -17805.551      37.862811     -14.882611     -35.03775       116.85042      116.94548      116.9138     
   1920000   348.76938      0.92526438     0.9252643      0.91661757     207            7.764277      -18343.439     -4.2451884      27.070296      0.467724       116.80588      116.9009       116.86922    
   1930000   342.716        0.92704471     0.92704463     0.94318619     213           -22.431484     -19024.894     -36.482161      10.175826     -40.988117      116.73106      116.82602      116.79436    
   1940000   337.53631      0.93043886     0.93043878     0.93875809     212            10.47845      -19749.49       59.080557     -20.570787     -7.0744195      116.58894      116.68379      116.65217    
   1950000   329.92465      0.93103357     0.93103349     0.89447704     202           -16.273256     -20334.593     -34.192733     -19.120328      4.4932939      116.56411      116.65894      116.62733    
   1960000   325.73466      0.93799994     0.93799986     0.9564705      216            10.706667     -20896.457      27.484316      9.8429686     -5.2072833      116.27483      116.36942      116.33789    
   1970000   317.34305      0.93786958     0.9378695      0.93432998     211           -4.8127018     -21513.662      6.4268171     -31.86025       10.995327      116.28022      116.37481      116.34328    
   1980000   311.19446      0.9428568      0.94285671     0.92990188     210            7.8947234     -22175.649     -16.315475     -1.9351157      41.934761      116.07483      116.16926      116.13778    
   1990000   307.78879      0.9431275      0.94312742     0.96532671     218           -2.3517519     -22621.519     -60.019254      71.083703     -18.119704      116.06373      116.15814      116.12667    
   2000000   301.7632       0.94710357     0.94710349     0.96089861     217           -10.967522     -23251.54      -17.105885      15.513694     -31.310376      115.90108      115.99537      115.96394    
   2000864   301.66374      0.94943699     0.94943691     0.96975482     219           -0.074695559   -23394.866     -23.836946      11.692359      11.9205        115.80605      115.90026      115.86886    
Loop time of 223.247 on 16 procs for 500000 steps with 12350 atoms

Performance: 193.508 ns/day, 0.124 hours/ns, 2239.677 timesteps/s, 27.660 Matom-step/s
97.8% CPU use with 16 MPI tasks x no OpenMP threads

MPI task timing breakdown:
Section |  min time  |  avg time  |  max time  |%varavg| %total
---------------------------------------------------------------
Pair    | 82.876     | 84.226     | 85.515     |   7.9 | 37.73
Bond    | 34.47      | 35.015     | 35.639     |   5.6 | 15.68
Neigh   | 12.234     | 12.253     | 12.269     |   0.3 |  5.49
Comm    | 60.329     | 62.084     | 64.078     |  13.7 | 27.81
Output  | 0.3239     | 0.40706    | 0.49414    |   8.3 |  0.18
Modify  | 22.998     | 23.415     | 23.875     |   5.4 | 10.49
Other   |            | 5.847      |            |       |  2.62

Nlocal:        771.875 ave         795 max         755 min
Histogram: 2 1 3 3 1 2 1 0 2 1
Nghost:        2298.56 ave        2323 max        2282 min
Histogram: 2 2 2 3 3 0 2 0 1 1
Neighs:        26048.8 ave       27474 max       25171 min
Histogram: 1 3 2 4 1 3 1 0 0 1

Total # of neighbors = 416781
Ave neighs/atom = 33.747449
Ave special neighs/atom = 5.76
Neighbor list builds = 10926
Dangerous builds = 0
unfix               2

fix                 3 all npt temp 300 300 50 iso 0 0 500 drag 2
thermo_style        custom step temp v_dens density v_slabdens v_nslab press etotal pxx pyy pzz lx ly lz
thermo              10000
run                 5000000
Generated 0 of 0 mixed pair_coeff terms from geometric mixing rule
Per MPI rank memory allocation (min/avg/max) = 18.47 | 18.63 | 18.95 Mbytes
   Step          Temp          v_dens        Density       v_slabdens      v_nslab         Press          TotEng          Pxx            Pyy            Pzz             Lx             Ly             Lz      
   2000864   301.66374      0.94943699     0.94943691     0.96975482     219           -0.074695559   -23394.866     -23.836946      11.692359      11.9205        115.80605      115.90026      115.86886    
   2010000   298.11877      0.9453846      0.94538452     0.90776136     205            3.38894       -23399.891      32.354908     -9.5451024     -12.642986      115.97128      116.06563      116.03418    
   2020000   299.33378      0.94851428     0.9485142      0.94761429     214           -0.69608279    -23515.643      9.3484509     -9.0351011     -2.4015982      115.84359      115.93783      115.90642    
   2030000   298.80816      0.94716549     0.9471654      0.96532671     218           -3.4247434     -23507.429     -22.69529      -23.492199      35.913259      115.89856      115.99284      115.96141    
   2040000   299.43816      0.94734495     0.94734486     1.0007515      226            9.7569862     -23404.118     -30.879962      35.946756      24.204165      115.89124      115.98551      115.95409    
   2050000   297.69672      0.94934123     0.94934115     0.94318619     213            6.7639317     -23549.117     -6.7261883      18.484314      8.5336691      115.80995      115.90416      115.87275    
   2060000   300.40967      0.9477702      0.94777012     0.96532671     218            5.7455322     -23461.946      15.948879      17.313701     -16.025984      115.8739       115.96816      115.93674    
   2070000   300.613        0.9461041      0.94610402     0.97861102     221           -9.9661497     -23432.866      47.491124     -8.2773738     -69.1122        115.94188      116.0362       116.00476    
   2080000   299.08845      0.94723694     0.94723685     0.92547377     209           -3.4973173     -23705.832      45.385127      24.815514     -80.692593      115.89564      115.98992      115.95849    
   2090000   297.84087      0.94893657     0.94893649     0.93432998     211            5.6055417     -23546.871     -28.524271      21.593799      23.747097      115.82641      115.92063      115.88922    
   2100000   300.74906      0.94873553     0.94873544     0.91218946     206           -0.7724762     -23701.696     -13.424185     -19.01228       30.119036      115.83459      115.92882      115.89741    
   2110000   301.98971      0.94985261     0.94985253     0.98303913     222           -13.000009     -23552.346      16.568708     -66.626809      11.058074      115.78916      115.88335      115.85196    
   2120000   299.67191      0.94691934     0.94691925     0.96532671     218           -0.24875734    -23508.892      33.487873      15.437877     -49.672022      115.9086       116.00289      115.97146    
   2130000   299.78328      0.95011014     0.95011005     0.98303913     222            1.5452245     -23627.655      22.091754      58.373562     -75.829643      115.7787       115.87288      115.84149    
   2140000   300.19914      0.95206575     0.95206566     0.99189534     224            4.5939115     -23777.956     -18.353187      14.621915      17.513006      115.69937      115.79349      115.76212    
   2150000   300.86456      0.94881228     0.94881219     0.96532671     218           -3.2400885     -23563.639      1.590385      -10.865008     -0.4456428      115.83146      115.92569      115.89428    
   2160000   301.32133      0.94933157     0.94933149     0.9564705      216            5.8441631     -23448.354     -6.6005008      44.925059     -20.792069      115.81034      115.90455      115.87315    
   2170000   301.52047      0.9470356      0.94703551     0.94318619     213           -8.6980539     -23504.102      1.798476      -37.999156      10.106518      115.90385      115.99814      115.96671    
   2180000   300.27465      0.94817594     0.94817586     0.9564705      216           -9.3503338     -23420.59      -12.471731     -61.607816      46.028546      115.85737      115.95162      115.9202     
   2190000   297.84887      0.94452263     0.94452255     0.94318619     213            0.076911232   -23438.552      9.6123809     -15.332668      5.9510206      116.00655      116.10092      116.06947    
   2200000   299.0614       0.94639696     0.94639688     0.96089861     217            4.3343904     -23524.677      4.8635531     -27.173105      35.312723      115.92992      116.02423      115.99279    
   2210000   298.79557      0.94478885     0.94478877     0.96089861     217           -7.0429065     -23441.909     -28.145983      41.722187     -34.704924      115.99566      116.09002      116.05856    
   2220000   300.13554      0.94872943     0.94872935     0.96089861     217           -3.7032679     -23626.528     -31.883026     -1.6599988      22.433221      115.83484      115.92907      115.89766    
   2230000   298.16489      0.94909393     0.94909385     0.99632344     225            0.70648177    -23613.025      6.3685317     -11.155987      6.9069003      115.82         115.91422      115.88282    
   2240000   298.86789      0.94992912     0.94992904     0.9564705      216            1.4656157     -23546.246     -87.829841      31.881627      60.345061      115.78605      115.88024      115.84885    
   2250000   299.33168      0.95044393     0.95044385     0.96532671     218            0.84345054    -23541.346      19.192075     -19.434902      2.7731782      115.76514      115.85932      115.82793    
   2260000   298.95124      0.95040215     0.95040207     0.96532671     218            2.1724027     -23595.721      0.13235312    -2.8912699      9.2761248      115.76684      115.86101      115.82962    
   2270000   299.38115      0.95208601     0.95208592     0.96089861     217            4.3081116     -23712.015     -6.0094397      15.49548       3.4382942      115.69855      115.79267      115.7613     
   2280000   299.18475      0.95141944     0.95141936     0.93875809     212            6.7165388     -23553.039      9.8339448      23.984374     -13.668703      115.72556      115.81971      115.78832    
   2290000   297.56256      0.94930665     0.94930657     0.9520424      215            9.8755145     -23525.945      60.565361      13.948805     -44.887623      115.81135      115.90557      115.87416    
   2300000   299.61302      0.950042       0.95004192     0.93875809     212            16.874823     -23458.156     -26.49478       30.886268      46.23298       115.78147      115.87565      115.84426    
   2310000   300.40178      0.94915916     0.94915908     0.96532671     218            2.6377068     -23577.161      60.767051     -46.045868     -6.8080625      115.81735      115.91157      115.88016    
   2320000   298.81657      0.94787311     0.94787303     0.99632344     225            1.1668264     -23443.099     -29.277483      27.931598      4.8463652      115.86971      115.96397      115.93255    
   2330000   300.32637      0.94899197     0.94899189     0.96975482     219            6.2802844     -23439.907      1.6005163      17.886555     -0.64621779     115.82415      115.91838      115.88697    
   2340000   300.87225      0.94735786     0.94735778     0.92104567     208            1.7045935     -23512.135      31.32679       20.493478     -46.706487      115.89071      115.98499      115.95356    
   2350000   299.57178      0.94923618     0.94923609     0.94318619     213           -1.2621753     -23660.56       1.4299648      3.972242      -9.1887327      115.81422      115.90843      115.87703    
   2360000   300.42873      0.94979108     0.94979099     0.97418292     220           -1.8212733     -23523.71      -39.635299     -10.259464      44.430943      115.79166      115.88586      115.85446    
   2370000   300.29832      0.94717209     0.947172       0.94761429     214           -2.6086446     -23510.996      16.553026     -34.808675      10.429715      115.89829      115.99257      115.96114    
   2380000   298.1771       0.94526714     0.94526706     0.94761429     214           -12.330686     -23503.822      41.806643     -34.269313     -44.529389      115.97609      116.07043      116.03899    
   2390000   302.00659      0.94821652     0.94821644     0.92104567     208            6.5347738     -23698.28       4.0186632      8.1148724      7.4707858      115.85572      115.94997      115.91855    
   2400000   297.94857      0.94717576     0.94717568     0.97861102     221            0.056032785   -23473.287     -37.363498      47.712046     -10.180449      115.89814      115.99242      115.96099    
   2410000   297.88382      0.94786048     0.94786039     0.92547377     209           -2.4960548     -23560.106     -17.337473      5.7965885      4.0527202      115.87022      115.96448      115.93306    
   2420000   300.95816      0.94950363     0.94950355     0.93432998     211            10.656034     -23502.157      1.3853392      39.143707     -8.560944       115.80334      115.89755      115.86615    
   2430000   299.01283      0.94763552     0.94763543     0.91218946     206           -4.1422981     -23555.805     -22.904701      5.1586649      5.3191422      115.87939      115.97366      115.94223    
   2440000   300.71676      0.9507043      0.95070422     0.9520424      215            12.550517     -23631.854     -28.052821      45.653582      20.050791      115.75457      115.84874      115.81735    
   2450000   300.33361      0.94965178     0.94965169     0.94761429     214           -6.5972797     -23677.836     -40.520786      6.2923488      14.436599      115.79732      115.89152      115.86012    
   2460000   299.0168       0.94879498     0.9487949      0.96089861     217            1.2540038     -23614.11      -47.298246      64.135316     -13.075059      115.83217      115.9264       115.89499    
   2470000   299.05354      0.95015718     0.9501571      0.96089861     217            2.8809646     -23632.442     -1.1045714     -6.1096342      15.8571        115.77679      115.87097      115.83958    
   2480000   299.55389      0.94887251     0.94887242     0.97861102     221            7.8319439     -23648.355     -76.326194      42.127554      57.694472      115.82901      115.92324      115.89183    
   2490000   299.95485      0.94966893     0.94966884     0.94761429     214           -1.4898761     -23603.77      -3.5616907      20.81908      -21.727018      115.79662      115.89082      115.85942    
   2500000   299.33296      0.94767361     0.94767353     0.9564705      216           -9.3285748     -23473.76       31.236501     -35.622716     -23.599509      115.87784      115.9721       115.94068    
   2510000   300.54792      0.94631862     0.94631854     0.96975482     219           -2.2150558     -23584.86       1.0293135     -25.250169      17.575688      115.93312      116.02743      115.99599    
   2520000   298.89377      0.94768041     0.94768033     0.9564705      216           -3.0068116     -23522.82       16.922559     -23.185714     -2.7572805      115.87756      115.97183      115.9404     
   2530000   299.84363      0.94739952     0.94739944     0.94318619     213            12.960601     -23427.947      76.656779     -49.859806      12.084831      115.88901      115.98329      115.95186    
   2540000   299.63211      0.94934075     0.94934066     0.96532671     218            2.3983051     -23648.71      -29.441543      37.424642     -0.78818404     115.80997      115.90418      115.87277    
   2550000   299.19391      0.94999556     0.94999547     0.93432998     211            0.97606158    -23647.887      18.71775       31.687713     -47.477279      115.78335      115.87754      115.84615    
   2560000   300.72373      0.94701326     0.94701317     0.94761429     214           -0.1802495     -23511.051     -0.27283146     29.008689     -29.276606      115.90476      115.99905      115.96762    
   2570000   301.19461      0.94883731     0.94883723     0.97861102     221            5.9377694     -23534.112      9.9019714     -24.243967      32.155304      115.83045      115.92467      115.89326    
   2580000   300.74182      0.95117175     0.95117167     0.9520424      215            6.8665963     -23628.14      -7.9633861     -18.810157      47.373332      115.73561      115.82976      115.79837    
   2590000   300.74246      0.94752164     0.94752156     0.91661757     207           -0.094508698   -23419.828      14.053866      48.966253     -63.303645      115.88403      115.9783       115.94688    
   2600000   298.02616      0.94862834     0.94862826     0.92990188     210            2.2759655     -23536.559      23.466975     -51.204609      34.56553       115.83895      115.93318      115.90177    
   2610000   301.15177      0.94892195     0.94892186     0.96089861     217            2.4281975     -23583.415      27.350389     -10.400757     -9.6650398      115.827        115.92123      115.88982    
   2620000   300.27607      0.95019647     0.95019638     0.9564705      216           -0.17382904    -23618.939      24.110995     -79.434162      54.80168       115.77519      115.86937      115.83798    
   2630000   298.19877      0.94733315     0.94733307     0.92104567     208           -5.705754      -23566.18      -2.7399602     -14.114585     -0.26271729     115.89172      115.98599      115.95457    
   2640000   301.56643      0.94899929     0.94899921     0.97861102     221            1.4028097     -23767.369     -1.48331        5.1812146      0.51052437     115.82385      115.91808      115.88667    
   2650000   300.78626      0.95135838     0.9513583      0.96532671     218           -0.04088548    -23745.82       50.303059     -27.030814     -23.394901      115.72804      115.82218      115.7908     
   2660000   302.57507      0.94757129     0.94757121     0.94761429     214           -8.2708489     -23665.853     -20.962336      16.330095     -20.180305      115.88201      115.97628      115.94485    
   2670000   301.04051      0.94816257     0.94816249     0.92547377     209            5.0190241     -23585.802     -35.785088     -16.934034      67.776195      115.85791      115.95216      115.92075    
   2680000   301.6642       0.94515985     0.94515977     0.96089861     217           -8.9858242     -23262.052     -34.6387        40.154261     -32.473033      115.98048      116.07483      116.04338    
   2690000   301.68829      0.9503928      0.95039271     0.94318619     213            0.44399235    -23754.649     -25.334489      18.153011      8.5134549      115.76722      115.86139      115.83       
   2700000   299.29153      0.94795967     0.94795958     0.94318619     213           -5.5606434     -23652.338      13.004787     -34.355815      4.6690979      115.86618      115.96044      115.92902    
   2710000   300.17283      0.94595732     0.94595724     0.93432998     211            2.1278328     -23419.168     -15.102508      74.506153     -53.020147      115.94788      116.0422       116.01076    
   2720000   300.1343       0.94934352     0.94934344     0.96089861     217           -0.033086654   -23540.481     -22.744173      38.347578     -15.702665      115.80985      115.90406      115.87266    
   2730000   300.61276      0.94848474     0.94848465     0.9564705      216            1.6624094     -23451.517      14.02108      -22.356707      13.322855      115.8448       115.93904      115.90762    
   2740000   300.40921      0.95100774     0.95100765     0.9520424      215            1.7372221     -23780.052     -31.085223      43.791568     -7.4946788      115.74226      115.83642      115.80503    
   2750000   300.82954      0.94960131     0.94960123     0.91661757     207           -5.3921669     -23674.64      -32.502041      12.256645      4.0688961      115.79937      115.89358      115.86217    
   2760000   298.11249      0.94912399     0.94912391     0.96089861     217            0.83403437    -23553.57      -33.531367      50.207799     -14.174329      115.81878      115.913        115.88159    
   2770000   300.60972      0.95023496     0.95023487     0.96975482     219            2.8384231     -23686.958     -60.756348      66.441041      2.8305766      115.77363      115.86781      115.83642    
   2780000   300.96705      0.94697297     0.94697289     0.93875809     212            1.2405134     -23553.005     -1.8889977     -33.090601      38.701138      115.90641      116.0007       115.96927    
   2790000   301.05131      0.94900341     0.94900333     0.9564705      216           -6.8884585     -23558.106      12.221251     -39.277978      6.391352       115.82369      115.91791      115.8865     
   2800000   300.5802       0.94639484     0.94639476     0.96532671     218           -2.1622545     -23428.809     -4.772299       17.915426     -19.629891      115.93001      116.02431      115.99288    
   2810000   299.43932      0.95035514     0.95035506     0.96089861     217           -0.77944471    -23674.588     -17.286349     -9.6630094      24.611025      115.76875      115.86292      115.83153    
   2820000   299.72474      0.94842957     0.94842949     0.9564705      216            2.0312857     -23635.239      27.872199      22.696827     -44.475168      115.84704      115.94128      115.90987    
   2830000   300.88708      0.94862482     0.94862473     0.9520424      215           -5.8295568     -23502.147     -2.915149       9.855058      -24.428579      115.83909      115.93333      115.90192    
   2840000   298.0169       0.94874736     0.94874727     0.96089861     217           -0.33680905    -23592.531      15.737154     -46.24775       29.500168      115.83411      115.92834      115.89693    
   2850000   299.75289      0.94819282     0.94819273     0.93875809     212            1.7303629     -23483.178     -11.614472      36.548445     -19.742884      115.85668      115.95093      115.91952    
   2860000   298.93084      0.94944585     0.94944577     0.92104567     208            2.2826838     -23570.124      15.697794      40.509835     -49.359577      115.80569      115.8999       115.8685     
   2870000   302.1925       0.94955635     0.94955627     0.93875809     212           -6.6526147     -23528.765     -4.7339942     -63.963366      48.739517      115.8012       115.8954       115.864      
   2880000   300.43988      0.94919249     0.9491924      0.89890515     203            1.0992423     -23568.107     -27.331119     -36.23634       66.865186      115.816        115.91021      115.87881    
   2890000   298.92769      0.95023075     0.95023066     0.96532671     218            5.4300461     -23732.556      4.6621528      17.2813       -5.6533147      115.7738       115.86798      115.83659    
   2900000   299.85878      0.94892617     0.94892609     0.97418292     220           -0.87565499    -23579.105     -37.835716      21.584055      13.624696      115.82683      115.92105      115.88965    
   2910000   299.10107      0.948186       0.94818592     0.96089861     217            8.7415816     -23595.426     -14.617824      13.129483      27.713086      115.85696      115.95121      115.91979    
   2920000   300.04546      0.94776545     0.94776536     0.92990188     210           -12.467579     -23553.246      9.7676127     -45.406958     -1.7633905      115.87409      115.96836      115.93694    
   2930000   298.49224      0.94779116     0.94779107     0.9520424      215           -3.09624       -23606.225      28.554267     -3.0612766     -34.781711      115.87305      115.96731      115.93589    
   2940000   299.93923      0.94845846     0.94845837     0.91661757     207            8.9355176     -23591.417     -17.545794      1.5127271      42.839619      115.84587      115.94011      115.90869    
   2950000   297.5586       0.94773707     0.94773698     0.91218946     206            1.2738056     -23633.639     -13.144427      13.320367      3.645477       115.87525      115.96952      115.93809    
   2960000   301.40377      0.94958237     0.94958228     0.97418292     220            2.9063376     -23602.003      53.54301       8.2632729     -53.08727       115.80014      115.89435      115.86295    
   2970000   300.27952      0.94749695     0.94749686     0.9520424      215            0.63624272    -23575.756     -10.053925     -2.5064903      14.469143      115.88504      115.97931      115.94789    
   2980000   299.82324      0.94972293     0.94972284     0.93432998     211            6.4768119     -23552.658      30.643829      20.703844     -31.917237      115.79443      115.88863      115.85723    
   2990000   302.48701      0.94572159     0.94572151     0.91661757     207           -15.905844     -23430.862     -42.64626      -22.854914      17.783642      115.95751      116.05184      116.0204     
   3000000   299.72657      0.94748504     0.94748496     0.92104567     208           -0.63365938    -23474.177     -5.5703662      26.875879     -23.206491      115.88552      115.9798       115.94837    
   3010000   298.97275      0.94861852     0.94861844     0.96532671     218            7.0928325     -23618.927      16.061449     -37.757641      42.974689      115.83935      115.93358      115.90217    
   3020000   300.46124      0.94909121     0.94909113     0.93875809     212           -5.9583589     -23672.504      0.29436218     8.1020411     -26.27148       115.82012      115.91433      115.88293    
   3030000   300.40205      0.94741644     0.94741636     0.92990188     210            6.5986986     -23556.357     -6.489585      -6.5010125      32.786693      115.88832      115.9826       115.95117    
   3040000   300.21452      0.94946276     0.94946268     0.93432998     211           -4.0739209     -23683.764     -16.159495      21.861795     -17.924063      115.80501      115.89921      115.86781    
   3050000   298.78281      0.95019695     0.95019686     0.9564705      216           -4.2095638     -23654.109      3.2122863      23.837771     -39.678749      115.77517      115.86935      115.83796    
   3060000   300.36118      0.94951558     0.9495155      0.93432998     211            1.4118554     -23741.428     -18.97757      -17.020446      40.233582      115.80286      115.89706      115.86566    
   3070000   299.62129      0.94781994     0.94781985     0.9564705      216           -8.6142594     -23542.963     -44.294384      47.536333     -29.084727      115.87187      115.96614      115.93471    
   3080000   301.842        0.94927048     0.9492704      0.93432998     211            0.96378488    -23651.244     -82.463629      24.535844      60.819139      115.81282      115.90704      115.87563    
   3090000   298.60593      0.95016731     0.95016722     0.98303913     222            4.7798424     -23654.686      12.805887     -34.193659      35.7273        115.77638      115.87056      115.83916    
   3100000   299.09521      0.95004052     0.95004044     0.99189534     224            1.814043      -23600.544      17.078223      27.970352     -39.606446      115.78153      115.87571      115.84432    
   3110000   299.70241      0.95009        0.95008992     0.99189534     224            5.2684065     -23675.801      59.030962     -27.343685     -15.882058      115.77952      115.8737       115.84231    
   3120000   300.47314      0.94865482     0.94865474     0.96532671     218            16.757526     -23765.34       35.531166     -36.241921      50.983333      115.83787      115.93211      115.90069    
   3130000   300.17476      0.94986216     0.94986208     0.94318619     213           -2.9975927     -23675.009     -16.369007      32.560795     -25.184566      115.78877      115.88297      115.85157    
   3140000   300.9257       0.94787343     0.94787335     0.91218946     206            6.3148582     -23477.08       20.530804      0.85698466    -2.4432143      115.86969      115.96395      115.93253    
   3150000   297.82992      0.95069298     0.9506929      0.92547377     209            6.3105302     -23738.815      14.345472      25.637027     -21.050909      115.75503      115.8492       115.81781    
   3160000   300.07971      0.95067419     0.9506741      0.94318619     213            0.29891762    -23609.513      48.001416     -2.1968743     -44.907789      115.7558       115.84996      115.81857    
   3170000   297.32339      0.95004727     0.95004719     0.94761429     214            3.4202595     -23583.438     -57.246784      42.662007      24.845555      115.78125      115.87544      115.84404    
   3180000   298.79048      0.94757375     0.94757367     0.93875809     212           -6.1638447     -23686.447     -50.116116      91.207965     -59.583383      115.88191      115.97618      115.94475    
   3190000   301.86942      0.94766389     0.9476638      0.9564705      216            3.1429341     -23675.849     -17.432695     -8.93347        35.794967      115.87823      115.9725       115.94108    
   3200000   300.13875      0.94983855     0.94983846     0.9564705      216            6.5530813     -23652.673      55.863815     -34.416719     -1.787852       115.78973      115.88393      115.85253    
   3210000   300.32783      0.94741765     0.94741756     0.92990188     210           -2.0500203     -23457.702      7.2182813     -26.946213      13.57787       115.88827      115.98255      115.95112    
   3220000   299.05719      0.94804506     0.94804498     0.91661757     207            7.5644996     -23503.225     -14.62433      -7.3594774      44.677306      115.8627       115.95696      115.92554    
   3230000   298.6273       0.94925677     0.94925668     0.9564705      216            4.7450676     -23661.21      -39.704616      54.191506     -0.25168756     115.81338      115.9076       115.87619    
   3240000   298.71479      0.94877673     0.94877664     0.92990188     210            17.491756     -23519.954      13.604879      57.989336     -19.118945      115.83291      115.92714      115.89573    
   3250000   301.69784      0.94834171     0.94834163     0.94761429     214           -7.0281029     -23586.976     -39.666352      53.864213     -35.28217       115.85062      115.94486      115.91345    
   3260000   300.61543      0.94586012     0.94586003     0.9520424      215           -1.2133575     -23367.206      39.538442      13.196082     -56.374597      115.95185      116.04617      116.01473    
   3270000   301.03021      0.9482036      0.94820351     0.93875809     212           -3.0206246     -23542.568      24.380749      1.3858086     -34.828432      115.85624      115.95049      115.91908    
   3280000   299.24931      0.94696576     0.94696568     0.96975482     219           -7.8188801     -23524.154      10.705281     -61.842026      27.680104      115.9067       116.00099      115.96956    
   3290000   302.17689      0.94860167     0.94860159     0.97418292     220            10.589797     -23447.186     -21.320973      19.081969      34.008393      115.84004      115.93427      115.90286    
   3300000   300.51244      0.94808367     0.94808358     0.97418292     220            4.7749883     -23488.17       11.823631     -36.619571      39.120906      115.86113      115.95538      115.92396    
   3310000   300.8245       0.95170898     0.9517089      0.98303913     222            10.633062     -23625.335      32.345574      7.1441961     -7.5905829      115.71383      115.80796      115.77658    
   3320000   300.61833      0.94920782     0.94920774     0.92990188     210            1.6113824     -23574.369      28.714389     -19.080608     -4.7996341      115.81537      115.90959      115.87818    
   3330000   301.08842      0.95668333     0.95668325     0.92990188     210            1.7915042     -23829.745     -3.9306065      17.816015     -8.5108959      115.51292      115.60689      115.57557    
   3340000   301.29738      0.94969712     0.94969704     0.91218946     206           -5.0255235     -23634.561      35.325873     -5.0408808     -45.361562      115.79548      115.88968      115.85828    
   3350000   300.52938      0.94580758     0.94580749     0.98303913     222           -0.86990332    -23522.837     -59.070219      16.112436      40.348073      115.95399      116.04832      116.01688    
   3360000   299.61209      0.94691095     0.94691087     0.97418292     220           -1.4968211     -23581.35       81.570727     -52.968492     -33.092698      115.90894      116.00323      115.9718     
   3370000   298.40026      0.94899752     0.94899743     0.94318619     213            2.2558547     -23582.94       24.332628     -5.9731423     -11.591922      115.82393      115.91815      115.88674    
   3380000   299.91397      0.95053082     0.95053073     0.96089861     217            13.244016     -23620.441      34.833183     -1.9945728      6.8934389      115.76161      115.85579      115.8244     
   3390000   300.76149      0.95114707     0.95114698     0.93875809     212            11.460883     -23624.548     -52.002307      32.302507      54.082448      115.73661      115.83076      115.79938    
   3400000   300.46435      0.95014193     0.95014185     0.94761429     214            2.5752881     -23544.686     -36.431378      38.165337      5.9919051      115.77741      115.87159      115.8402     
   3410000   300.53706      0.95021074     0.95021066     0.97861102     221           -1.7586745     -23795.845      0.15148524    -22.721312      17.293803      115.77461      115.86879      115.8374     
   3420000   298.8251       0.94885754     0.94885746     0.93875809     212            0.95744766    -23640.81      -12.168158     -46.902921      61.943421      115.82962      115.92385      115.89244    
   3430000   301.59157      0.95103083     0.95103075     0.9520424      215           -0.90541578    -23672.378     -33.847186      43.700375     -12.569437      115.74132      115.83548      115.80409    
   3440000   300.65425      0.94997585     0.94997577     0.92104567     208            12.420991     -23634.404      6.6871902      90.637848     -60.062066      115.78415      115.87834      115.84695    
   3450000   299.48788      0.94611134     0.94611126     0.96532671     218           -12.445025     -23545.342     -34.558912      9.9197164     -12.695881      115.94158      116.0359       116.00446    
   3460000   301.55356      0.94752575     0.94752566     0.9520424      215           -7.021528      -23674.238     -20.47197       23.786909     -24.379524      115.88386      115.97814      115.94671    
   3470000   300.30239      0.94765066     0.94765057     0.93432998     211            4.2705609     -23685.933      4.2543457     -15.77923       24.336566      115.87877      115.97304      115.94162    
   3480000   297.66607      0.9493109      0.94931082     0.94761429     214           -5.2982917     -23696.369     -26.52527       30.343666     -19.713272      115.81118      115.90539      115.87399    
   3490000   299.71451      0.9464447      0.94644462     0.9564705      216           -5.3841139     -23632.421      20.991467      21.914371     -59.05818       115.92797      116.02228      115.99084    
   3500000   299.28941      0.94972874     0.94972865     0.93875809     212            9.3648134     -23787.75       8.7202165      28.891647     -9.5174234      115.79419      115.88839      115.85699    
   3510000   298.70121      0.94824084     0.94824075     0.94761429     214            1.1670502     -23711.05       32.387779      10.670563     -39.557192      115.85473      115.94897      115.91756    
   3520000   301.47779      0.94865343     0.94865334     0.94318619     213            6.1196469     -23629.007      8.9580626      3.3817391      6.0191391      115.83793      115.93216      115.90075    
   3530000   299.02812      0.94929286     0.94929277     0.97861102     221            0.97034953    -23588.554      41.665111      22.784899     -61.538961      115.81191      115.90613      115.87472    
   3540000   303.0173       0.95060774     0.95060765     0.98746723     223           -0.99291259    -23651.888     -4.5017312     -19.906915      21.429908      115.75849      115.85266      115.82127    
   3550000   300.21654      0.94729942     0.94729933     0.92547377     209            12.394418     -23386.164      45.001969     -6.8301762     -0.98854045     115.89309      115.98737      115.95595    
   3560000   298.70506      0.94854879     0.9485487      0.96089861     217            19.238042     -23379.64       7.0838246      52.811517     -2.1812153      115.84219      115.93643      115.90501    
   3570000   301.15629      0.9490141      0.94901402     0.97861102     221            7.3367277     -23452.401      33.93332      -28.359512      16.436375      115.82325      115.91747      115.88607    
   3580000   298.57158      0.95119806     0.95119798     0.98746723     223            8.1366699     -23674.157      32.685331     -13.83782       5.5624994      115.73454      115.82869      115.79731    
   3590000   300.70083      0.9497352      0.94973511     0.96089861     217            3.1423759     -23545.129      16.13348      -5.4696078     -1.2367444      115.79393      115.88813      115.85673    
   3600000   297.77512      0.94809393     0.94809384     0.97418292     220            3.3404117     -23586.459     -17.449623      35.405859     -7.9350012      115.86071      115.95496      115.92355    
   3610000   297.53008      0.94670147     0.94670138     0.93432998     211            1.244786      -23600.781      31.997865     -19.311169     -8.9523381      115.91749      116.01179      115.98035    
   3620000   297.84564      0.94627087     0.94627078     0.94761429     214           -7.7113797     -23548.077     -37.420615     -15.282301      29.568777      115.93507      116.02938      115.99794    
   3630000   300.67977      0.94819379     0.9481937      0.92990188     210           -7.3426124     -23580.452      15.98935      -69.510985      31.493798      115.85664      115.95089      115.91948    
   3640000   300.73547      0.94938339     0.9493833      0.97861102     221           -10.243316     -23513.631     -33.682711     -3.174821       6.1275848      115.80823      115.90244      115.87104    
   3650000   300.43091      0.94881353     0.94881344     0.9520424      215            8.6301082     -23600.98       16.224909      28.372584     -18.707168      115.83141      115.92564      115.89423    
   3660000   298.42054      0.94954913     0.94954905     0.9564705      216           -1.7330185     -23601.64      -40.016811     -11.564072      46.381828      115.80149      115.8957       115.8643     
   3670000   299.70939      0.94896239     0.94896231     0.9520424      215           -0.2490228     -23685.924     -80.835078      29.750892      50.337118      115.82536      115.91958      115.88817    
   3680000   297.82043      0.94780666     0.94780658     0.96975482     219            2.9312866     -23552.686      18.950268     -40.901901      30.745493      115.87241      115.96668      115.93526    
   3690000   298.98299      0.94568867     0.94568858     0.96975482     219            2.6848552     -23474.166     -11.616509     -30.628607      50.299682      115.95885      116.05319      116.02174    
   3700000   299.42621      0.9452442      0.94524411     0.97861102     221           -4.1321847     -23467.921     -5.8900532     -55.052845      48.546344      115.97703      116.07137      116.03992    
   3710000   299.86828      0.94652693     0.94652685     0.97861102     221            1.3999171     -23353.576      14.819751      19.892189     -30.512189      115.92461      116.01892      115.98748    
   3720000   301.43636      0.94892688     0.94892679     0.96975482     219           -4.3891655     -23527.385      21.636781     -30.325567     -4.478711       115.8268       115.92103      115.88962    
   3730000   301.0016       0.94713892     0.94713884     0.96532671     218            0.57155745    -23581.062      35.09684      -25.616612     -7.7655558      115.89964      115.99392      115.96249    
   3740000   297.40629      0.94629308     0.94629299     0.96089861     217            2.291739      -23482.446     -36.988632      22.232061      21.631789      115.93416      116.02847      115.99704    
   3750000   299.12776      0.94851629     0.94851621     0.9564705      216            6.5209976     -23638.234     -18.478603      27.941194      10.100402      115.84351      115.93775      115.90634    
   3760000   300.52742      0.94930439     0.94930431     0.9564705      216            4.2573179     -23498.163     -7.1548747      11.439949      8.4868794      115.81144      115.90566      115.87425    
   3770000   299.66197      0.94666513     0.94666505     0.92547377     209           -2.6789172     -23504.095     -34.647966     -8.8622295      35.473444      115.91897      116.01327      115.98184    
   3780000   302.15587      0.94871461     0.94871452     0.96532671     218           -5.9339892     -23671.571     -76.558153      2.1801562      56.576029      115.83544      115.92967      115.89826    
   3790000   300.30121      0.94915277     0.94915268     0.94761429     214            2.7697806     -23689.316     -30.859388     -26.256957      65.425687      115.81761      115.91183      115.88042    
   3800000   300.86862      0.94685523     0.94685514     0.93432998     211           -0.76773874    -23608.498     -27.726166      25.963129     -0.54017892     115.91121      116.00551      115.97408    
   3810000   299.6864       0.94604661     0.94604653     0.92990188     210           -3.2756129     -23578.178     -23.703951      33.605292     -19.728179      115.94423      116.03855      116.00711    
   3820000   299.82529      0.94906417     0.94906409     0.94761429     214            3.2744522     -23624.486     -79.098237      32.759365      56.162228      115.82122      115.91544      115.88403    
   3830000   299.87937      0.94888394     0.94888385     0.94761429     214           -0.91450665    -23602.888     -33.613998      7.0442821      23.826196      115.82855      115.92277      115.89137    
   3840000   298.95581      0.94895175     0.94895167     0.94318619     213            8.1577487     -23691.483      34.767659     -23.719667      13.425254      115.82579      115.92001      115.8886     
   3850000   300.39307      0.94984716     0.94984708     0.94318619     213            0.79727795    -23696.847     -39.034141     -23.148309      64.574285      115.78938      115.88358      115.85218    
   3860000   301.67908      0.94665513     0.94665505     0.97861102     221           -0.79868141    -23502.41       4.8388284     -18.551595      11.316722      115.91938      116.01368      115.98225    
   3870000   298.5154       0.94814287     0.94814279     0.93875809     212            5.4288069     -23734.669      7.3269871     -26.827185      35.786619      115.85872      115.95297      115.92155    
   3880000   299.47263      0.9488462      0.94884612     0.92104567     208            6.9671458     -23613.048      28.894568     -19.106958      11.113827      115.83008      115.92431      115.8929     
   3890000   298.42579      0.94729262     0.94729253     0.92104567     208           -0.90496487    -23673.749      17.840924      14.205003     -34.760822      115.89337      115.98765      115.95622    
   3900000   300.66483      0.94890832     0.94890823     0.94761429     214           -4.0408899     -23664.338      10.875644      14.875458     -37.873772      115.82756      115.92178      115.89037    
   3910000   297.22251      0.94897717     0.94897709     0.89447704     202            3.3463347     -23643.423     -26.559364     -13.01289       49.611258      115.82475      115.91898      115.88757    
   3920000   299.43496      0.94732095     0.94732087     0.9520424      215           -3.5925157     -23615.482     -32.524278     -11.821272      33.568003      115.89221      115.98649      115.95507    
   3930000   299.10223      0.94888177     0.94888168     0.94318619     213            0.23683396    -23648.704      44.000537     -31.483076     -11.806959      115.82864      115.92286      115.89145    
   3940000   298.84316      0.94759486     0.94759478     0.9520424      215           -3.9980374     -23673.381      7.3028661     -75.740174      56.443196      115.88105      115.97532      115.94389    
   3950000   300.09138      0.95034786     0.95034778     0.94761429     214           -2.4195492     -23676.337      33.865252     -13.724342     -27.399558      115.76904      115.86322      115.83183    
   3960000   296.80623      0.95087774     0.95087766     0.92990188     210            9.0446672     -23787.954      8.6545541      24.3194       -5.8399528      115.74753      115.8417       115.81031    
   3970000   297.97679      0.9483596      0.94835951     0.94318619     213            4.0995491     -23733.29       14.076079     -5.0080083      3.2305767      115.84989      115.94413      115.91272    
   3980000   298.59435      0.95024651     0.95024642     0.97418292     220            7.6304385     -23595.555      34.219902      21.045606     -32.374193      115.77316      115.86734      115.83595    
   3990000   301.98639      0.94865133     0.94865125     0.96089861     217           -5.1776107     -23579.842     -6.5418246     -42.181976      33.190968      115.83801      115.93225      115.90084    
   4000000   298.75234      0.94833        0.94832992     0.93432998     211           -9.5479854     -23552.284      21.3573        7.3630204     -57.364276      115.8511       115.94534      115.91393    
   4010000   300.06161      0.9477532      0.94775311     0.98746723     223           -2.899206      -23537.768      6.815114      -45.628411      30.115679      115.87459      115.96886      115.93744    
   4020000   302.35205      0.94780184     0.94780175     0.92990188     210           -9.6558972     -23421.128     -5.6492233     -29.216561      5.8980925      115.87261      115.96687      115.93545    
   4030000   301.31781      0.94595894     0.94595886     0.96089861     217           -6.7659779     -23472.689      38.790534     -55.579866     -3.5086018      115.94781      116.04213      116.01069    
   4040000   300.53928      0.94894368     0.94894359     0.9520424      215            3.0573788     -23622.44       1.6319742      48.983226     -41.443064      115.82612      115.92034      115.88893    
   4050000   300.92031      0.94969376     0.94969367     0.92990188     210           -2.6895485     -23720.004      14.77899      -16.876163     -5.9714733      115.79562      115.88982      115.85842    
   4060000   299.55796      0.94779099     0.94779091     0.94318619     213            1.4733202     -23679.749      24.055913     -59.851994      40.216042      115.87305      115.96732      115.9359     
   4070000   301.16593      0.95005696     0.95005688     0.96532671     218           -3.1386652     -23712.051      14.695817      35.397784     -59.509597      115.78086      115.87504      115.84365    
   4080000   299.1903       0.94580275     0.94580267     0.96975482     219            7.4070039     -23445.749      43.616173      6.0714353     -27.466596      115.95419      116.04852      116.01708    
   4090000   299.77352      0.94806974     0.94806966     0.92547377     209            1.858592      -23653.691     -11.139767     -56.168265      72.883808      115.8617       115.95595      115.92453    
   4100000   300.45283      0.94943615     0.94943606     0.94761429     214            1.0034821     -23589.415      56.585144     -16.393593     -37.181105      115.80609      115.9003       115.86889    
   4110000   301.00472      0.94776273     0.94776264     0.94761429     214            3.8874149     -23530.294     -28.352524      4.5122074      35.502561      115.87421      115.96847      115.93705    
   4120000   298.67875      0.94639179     0.9463917      0.91661757     207           -9.0922441     -23617.758     -4.6066271     -26.027348      3.3572431      115.93013      116.02444      115.993      
   4130000   300.66874      0.94988433     0.94988424     0.93432998     211            5.5965834     -23569.711     -9.8307143     -19.605921      46.226385      115.78787      115.88206      115.85067    
   4140000   300.47212      0.94853471     0.94853463     0.92104567     208            3.6245427     -23624.467     -30.095622     -1.1217392      42.090989      115.84276      115.937        115.90559    
   4150000   299.43596      0.9468752      0.94687512     0.89447704     202           -4.4343577     -23643.821      19.79178       21.777402     -54.872255      115.9104       116.00469      115.97326    
   4160000   299.85467      0.94962673     0.94962665     0.91218946     206           -6.3968661     -23584.752     -51.089537     -38.363973      70.262912      115.79834      115.89254      115.86114    
   4170000   300.70605      0.94884821     0.94884813     0.96975482     219           -11.856215     -23752.616     -12.636746     -13.931886     -9.0000124      115.83         115.92423      115.89282    
   4180000   298.56057      0.94915112     0.94915104     0.97861102     221            3.3741345     -23644.841     -17.700838      20.301973      7.5212683      115.81768      115.9119       115.88049    
   4190000   299.68601      0.94564352     0.94564343     0.97418292     220           -1.3542275     -23310.915      54.400699     -3.0170286     -55.446353      115.9607       116.05503      116.02359    
   4200000   298.07734      0.94886567     0.94886559     0.96089861     217           -2.2126492     -23540.182      10.293768     -20.118475      3.1867598      115.82929      115.92352      115.89211    
   4210000   298.97766      0.94891008     0.94890999     0.94318619     213           -7.4273155     -23623.92       34.425648     -9.5205452     -47.18705       115.82748      115.92171      115.8903     
   4220000   299.42214      0.94734432     0.94734423     0.9520424      215            11.044522     -23546.587      38.286007      21.612136     -26.764577      115.89126      115.98554      115.95411    
   4230000   301.25934      0.94808626     0.94808618     0.97861102     221           -2.1969488     -23499.191     -27.638245     -9.1446007      30.191999      115.86102      115.95528      115.92386    
   4240000   301.3513       0.94933414     0.94933406     0.93875809     212           -14.424519     -23656.692      4.7618169     -10.218825     -37.816551      115.81024      115.90445      115.87304    
   4250000   297.30203      0.94801751     0.94801742     0.96532671     218           -4.2506511     -23686.421     -11.38913      -32.579048      31.216225      115.86382      115.95808      115.92666    
   4260000   299.07871      0.94918397     0.94918389     0.9520424      215           -2.4847707     -23635.6        8.9148308     -19.638517      3.2693742      115.81634      115.91056      115.87915    
   4270000   300.99831      0.94706228     0.9470622      0.93875809     212           -8.1726435     -23528.727      40.121853     -14.338692     -50.301091      115.90276      115.99705      115.96562    
   4280000   300.34642      0.94879288     0.9487928      0.94318619     213           -4.4476886     -23471.108     -8.6623221      44.574252     -49.254995      115.83225      115.92648      115.89507    
   4290000   301.21189      0.95095271     0.95095263     0.9520424      215            0.69342597    -23597.294     -23.354761     -2.0080106      27.443049      115.74449      115.83865      115.80726    
   4300000   300.23178      0.94859425     0.94859416     0.94318619     213            2.9754535     -23554.515      3.1955619     -14.019519      19.750317      115.84034      115.93457      115.90316    
   4310000   300.45578      0.9477035      0.94770342     0.93875809     212            10.785797     -23487.044      15.189008     -20.496716      37.665101      115.87662      115.97088      115.93946    
   4320000   299.81942      0.9477203      0.94772021     0.92104567     208            2.6582116     -23569.237      19.642209     -32.308306      20.640732      115.87593      115.9702       115.93878    
   4330000   299.93479      0.9492856      0.94928552     0.97418292     220            15.658081     -23527.994     -11.601293      65.291207     -6.7156702      115.81221      115.90642      115.87502    
   4340000   300.7625       0.94764092     0.94764084     0.93432998     211            1.4582513     -23474.284     -56.88369      -8.8158166      70.074261      115.87917      115.97344      115.94201    
   4350000   299.31345      0.94928309     0.94928301     0.94318619     213            12.507844     -23585.357      14.341007      3.2470448      19.935479      115.81231      115.90652      115.87512    
   4360000   298.97747      0.94972197     0.94972189     0.9564705      216            3.2255049     -23621.683     -56.324313      22.393805      43.607023      115.79447      115.88867      115.85727    
   4370000   299.55265      0.94935496     0.94935487     0.92990188     210            2.1190952     -23720.519      13.677192      14.354973     -21.674879      115.80939      115.9036       115.8722     
   4380000   301.18395      0.94925627     0.94925619     0.92547377     209            2.8688679     -23655.422      23.377336      6.7668435     -21.537576      115.8134       115.90762      115.87621    
   4390000   298.45054      0.94919535     0.94919527     0.96532671     218            6.2535559     -23640.63       20.766769      19.156865     -21.162967      115.81588      115.9101       115.87869    
   4400000   298.89361      0.95109208     0.95109199     0.92104567     208            5.9703819     -23768.92       2.0572953     -9.9317783      25.785629      115.73884      115.83299      115.80161    
   4410000   302.43671      0.94959155     0.94959147     0.94761429     214           -2.8269615     -23609.427     -14.514327     -39.670479      45.703921      115.79977      115.89397      115.86257    
   4420000   300.21903      0.95080589     0.95080581     0.93875809     212            6.3141294     -23759.592      0.95511043    -1.9336433      19.920921      115.75045      115.84461      115.81323    
   4430000   300.61882      0.94632288     0.94632279     0.96532671     218           -4.6605125     -23578.902     -56.273008      49.376146     -7.0846759      115.93294      116.02725      115.99582    
   4440000   300.11269      0.94938142     0.94938133     0.94318619     213           -6.6113294     -23661.197      0.93599102    -43.206393      22.436414      115.80831      115.90252      115.87112    
   4450000   299.89177      0.94815684     0.94815675     0.98746723     223            2.2112877     -23648.905      32.030698      20.814919     -46.211753      115.85815      115.9524       115.92098    
   4460000   301.95988      0.94957059     0.94957051     0.98303913     222            1.3772814     -23561.293      59.847284     -49.524842     -6.1905976      115.80062      115.89483      115.86342    
   4470000   301.50208      0.94784481     0.94784473     1.0007515      226           -10.588965     -23574.621      3.0222895     -29.719912     -5.0692724      115.87086      115.96512      115.9337     
   4480000   298.76685      0.95107408     0.951074       0.94761429     214           -1.7786196     -23725.138     -15.529012      17.839258     -7.646105       115.73957      115.83372      115.80234    
   4490000   296.64492      0.94826279     0.94826271     0.92104567     208            8.7461403     -23608.014     -48.941837      16.949939      58.230319      115.85383      115.94808      115.91666    
   4500000   299.97986      0.94864165     0.94864157     0.92990188     210           -3.0097198     -23471.631     -76.96646      -42.456373      110.39367      115.83841      115.93264      115.90123    
   4510000   299.75716      0.94803219     0.94803211     0.97418292     220           -2.5364522     -23518.654      15.883847     -44.498024      21.00482       115.86323      115.95748      115.92606    
   4520000   299.7099       0.94478755     0.94478747     0.96975482     219           -8.2485554     -23451.559      60.353763     -60.791325     -24.308104      115.99571      116.09007      116.05862    
   4530000   299.50049      0.94927242     0.94927234     0.96089861     217            12.817663     -23661.428      13.635387      11.020909      13.796694      115.81275      115.90696      115.87555    
   4540000   302.60247      0.95156557     0.95156549     0.91661757     207           -3.6574621     -23890.115     -20.732041      24.587892     -14.828238      115.71964      115.81378      115.7824     
   4550000   297.89319      0.94933679     0.94933671     0.91661757     207            5.1273486     -23568.427     -67.542597      29.26041       53.664232      115.81013      115.90434      115.87293    
   4560000   299.942        0.94864325     0.94864317     0.9520424      215            5.4149838     -23647.815     -3.8562193      14.328953      5.7722177      115.83834      115.93258      115.90117    
   4570000   301.8198       0.95091217     0.95091209     0.93875809     212            4.498946      -23640.546     -4.909019       1.8085349      16.597322      115.74614      115.8403       115.80891    
   4580000   299.7472       0.94535335     0.94535326     0.96532671     218           -3.4682611     -23464.342      3.0955579      33.119731     -46.620073      115.97256      116.06691      116.03546    
   4590000   303.39953      0.94591787     0.94591778     0.96089861     217           -1.9874411     -23479.946      10.844881     -35.978552      19.171348      115.94949      116.04381      116.01237    
   4600000   300.33831      0.94739634     0.94739626     0.94761429     214            7.9468516     -23499.025      5.0759239      22.325298     -3.560667       115.88914      115.98342      115.95199    
   4610000   298.49656      0.95034522     0.95034514     0.94761429     214            6.7896143     -23692.751      60.54635      -43.642052      3.4645454      115.76915      115.86333      115.83194    
   4620000   299.83091      0.94822953     0.94822944     0.96089861     217            9.5540556     -23566.453      18.363109      6.4933498      3.8057084      115.85519      115.94944      115.91802    
   4630000   300.02684      0.94687751     0.94687743     0.94761429     214           -2.0259112     -23391.493      27.087318     -32.773372     -0.3916801      115.9103       116.0046       115.97317    
   4640000   300.47773      0.94867424     0.94867416     0.94318619     213            0.20372103    -23388.507     -28.012719     -10.349753      38.973635      115.83708      115.93131      115.8999     
   4650000   299.8383       0.94954882     0.94954874     0.94761429     214            15.188606     -23602.201      88.168899      15.388433     -57.991513      115.80151      115.89571      115.86431    
   4660000   300.23609      0.94795069     0.94795061     0.96975482     219           -0.96518901    -23543.096      18.971488     -32.239692      10.372638      115.86655      115.9608       115.92938    
   4670000   299.33862      0.94843209     0.94843201     0.96975482     219            11.886921     -23607.632      24.455874     -13.188904      24.393792      115.84694      115.94118      115.90977    
   4680000   300.2285       0.94796169     0.94796161     1.0273202      232            0.99253696    -23494.287      51.920065     -22.059265     -26.883189      115.8661       115.96035      115.92894    
   4690000   300.77868      0.94877298     0.94877289     0.93875809     212            4.6471162     -23600.686      27.582502     -16.570801      2.929648       115.83306      115.92729      115.89588    
   4700000   298.92495      0.94823114     0.94823106     0.94318619     213            2.5034409     -23594.021      25.313844      19.305305     -37.108826      115.85512      115.94937      115.91795    
   4710000   300.892        0.95045375     0.95045367     0.96089861     217            3.4843166     -23633.335      6.5026197     -15.020411      18.970741      115.76474      115.85892      115.82753    
   4720000   300.69764      0.94599222     0.94599214     0.92990188     210           -9.763834      -23455.482      43.760752     -16.790315     -56.261938      115.94645      116.04077      116.00933    
   4730000   300.20823      0.94928766     0.94928757     0.96975482     219            1.2600449     -23473.568      1.4225477      11.325052     -8.9674652      115.81213      115.90634      115.87493    
   4740000   302.83946      0.94866776     0.94866768     0.93432998     211            3.8109899     -23555.227     -22.650663      3.6927191      30.390913      115.83735      115.93158      115.90017    
   4750000   301.47883      0.95047316     0.95047307     0.96975482     219           -1.6264424     -23506.008     -4.4993488      5.4880609     -5.8680392      115.76396      115.85813      115.82674    
   4760000   300.83725      0.94938177     0.94938169     0.96532671     218           -1.1080025     -23666.257     -51.261989      51.216329     -3.2783481      115.8083       115.90251      115.87111    
   4770000   300.51985      0.94921216     0.94921208     0.96532671     218           -13.103273     -23687.654     -15.903866     -62.014029      38.608075      115.8152       115.90941      115.87801    
   4780000   301.02971      0.94739893     0.94739884     0.97418292     220            3.9900777     -23628.662     -29.055642     -7.7520814      48.777956      115.88904      115.98331      115.95189    
   4790000   300.14558      0.94980873     0.94980865     0.97418292     220           -5.8344893     -23735.733      46.413304     -32.805836     -31.110936      115.79094      115.88514      115.85374    
   4800000   299.81908      0.94749193     0.94749184     0.9520424      215            3.1361667     -23389.298      59.4087        26.659167     -76.659366      115.88524      115.97952      115.94809    
   4810000   299.86155      0.94809714     0.94809706     0.93432998     211            0.8342667     -23598.955     -38.648103     -10.161433      51.312336      115.86058      115.95483      115.92341    
   4820000   301.84283      0.94882261     0.94882252     0.97418292     220           -7.3408422     -23519.626     -15.49533       7.3498627     -13.877059      115.83104      115.92527      115.89386    
   4830000   298.53527      0.95048046     0.95048038     0.94761429     214            8.4547102     -23710.252      46.904476      17.896097     -39.436443      115.76366      115.85783      115.82644    
   4840000   300.85345      0.94858303     0.94858295     0.94318619     213            3.8847115     -23534.206      35.479358     -15.530095     -8.2951293      115.84079      115.93503      115.90362    
   4850000   297.13273      0.94865166     0.94865158     0.94318619     213           -0.94068676    -23703.151     -2.2403385      13.596426     -14.178148      115.838        115.93223      115.90082    
   4860000   301.70111      0.94481767     0.94481759     0.98303913     222           -6.597078      -23354.996      9.3812901     -27.486575     -1.685949       115.99448      116.08884      116.05738    
   4870000   300.96879      0.9502183      0.95021822     0.91661757     207            1.7706285     -23607.944     -22.762955      21.386832      6.6880086      115.7743       115.86849      115.83709    
   4880000   300.01516      0.94959412     0.94959404     0.93432998     211            0.22455743    -23648.131     -40.419175     -22.296355      63.389202      115.79967      115.89387      115.86247    
   4890000   299.06144      0.94856541     0.94856532     0.96089861     217           -3.1454252     -23521.104     -2.7024629     -23.909101      17.175289      115.84151      115.93575      115.90434    
   4900000   299.34762      0.94760063     0.94760054     0.9564705      216           -4.0021286     -23517.568     -27.363037      27.182835     -11.826184      115.88081      115.97508      115.94366    
   4910000   300.65761      0.94819059     0.94819051     0.94761429     214           -7.7644672     -23430.892      18.833616      13.640659     -55.767677      115.85677      115.95102      115.91961    
   4920000   300.15418      0.94918622     0.94918614     0.97861102     221            0.082014261   -23622.247     -33.871593      11.126521      22.991115      115.81625      115.91047      115.87906    
   4930000   300.00066      0.94847019     0.94847011     0.96532671     218           -5.8036618     -23704.553     -31.546409      7.4576528      6.6777705      115.84539      115.93963      115.90821    
   4940000   298.97548      0.94790604     0.94790595     0.92990188     210            1.8814927     -23598.837      14.920401      8.3888072     -17.66473       115.86837      115.96262      115.9312     
   4950000   298.32199      0.94745385     0.94745376     0.97861102     221            0.6920979     -23576.203      20.05319      -16.734161     -1.2427359      115.8868       115.98107      115.94965    
   4960000   301.17607      0.9498959      0.94989582     0.9520424      215           -0.30529871    -23538.055      42.343569     -20.9405       -22.318965      115.7874       115.88159      115.8502     
   4970000   301.67318      0.9512242      0.95122411     0.96532671     218            2.1260986     -23763.61       37.009683     -26.177052     -4.4543354      115.73348      115.82763      115.79625    
   4980000   299.02688      0.94900708     0.94900699     0.94761429     214            8.3849428     -23744.245      17.11148      -10.16304       18.206388      115.82354      115.91776      115.88635    
   4990000   298.42123      0.94875035     0.94875026     0.96089861     217           -6.9657755     -23729.079     -0.32375925    -5.4632598     -15.110308      115.83398      115.92821      115.8968     
   5000000   301.08448      0.94746658     0.9474665      0.9520424      215           -9.0963703     -23538.97      -10.743287      22.504793     -39.050617      115.88628      115.98055      115.94913    
   5010000   300.44321      0.94987101     0.94987093     0.9564705      216           -6.5344887     -23679.176      35.241575      16.715242     -71.560283      115.78841      115.88261      115.85121    
   5020000   299.57568      0.94906072     0.94906064     0.94318619     213           -0.61070508    -23550.896      12.238699      6.6834032     -20.754217      115.82136      115.91558      115.88417    
   5030000   300.34191      0.9473117      0.94731161     0.9564705      216           -5.4002022     -23524.196     -20.660526      35.816429     -31.35651       115.89259      115.98687      115.95544    
   5040000   298.14516      0.94931178     0.9493117      0.94761429     214           -1.7638065     -23808.323     -34.03908      -48.151653      76.899314      115.81114      115.90536      115.87395    
   5050000   300.63791      0.94930971     0.94930963     0.94761429     214            4.2916563     -23624.591      23.964078     -39.351883      28.262774      115.81123      115.90544      115.87404    
   5060000   301.55669      0.94665656     0.94665648     0.93432998     211           -10.588851     -23631.35      -24.063698     -16.656192      8.9533365      115.91932      116.01362      115.98219    
   5070000   299.18994      0.95116869     0.95116861     0.92990188     210            10.794624     -23673.143     -6.6487235      40.277662     -1.2450673      115.73573      115.82988      115.7985     
   5080000   300.68068      0.95058146     0.95058137     0.92990188     210           -0.48559282    -23729.19       45.94359      -24.145074     -23.255295      115.75956      115.85373      115.82234    
   5090000   299.51965      0.94682957     0.94682949     0.93875809     212           -4.7960963     -23681.644      33.234238     -16.377253     -31.245274      115.91226      116.00655      115.97512    
   5100000   299.77345      0.94795711     0.94795703     0.98303913     222           -10.919808     -23712.065     -1.8447143     -1.8760154     -29.038694      115.86628      115.96054      115.92912    
   5110000   298.34089      0.9491285      0.94912841     0.98303913     222           -1.4907429     -23504.215      22.734197     -2.5493332     -24.657093      115.8186       115.91282      115.88141    
   5120000   301.78289      0.94699814     0.94699806     0.93432998     211           -3.1173341     -23592.8       -40.184921     -6.4061153      37.239034      115.90538      115.99967      115.96824    
   5130000   298.02167      0.94814512     0.94814504     0.96532671     218           -5.320577      -23590.159     -68.891509      19.971369      32.958408      115.85863      115.95288      115.92146    
   5140000   300.5976       0.94834731     0.94834722     0.96089861     217            5.0014163     -23414.993     -2.3235734      56.7037       -39.375878      115.85039      115.94464      115.91322    
   5150000   300.78253      0.94721286     0.94721277     0.96975482     219           -0.07163074    -23462.056     -45.889627      27.843219      17.831516      115.89662      115.9909       115.95948    
   5160000   300.74381      0.94496208     0.94496199     0.97418292     220           -3.2254725     -23435.47      -6.5734976      20.397382     -23.500302      115.98857      116.08292      116.05147    
   5170000   299.76601      0.94587628     0.94587619     0.9564705      216           -9.0378568     -23476.273     -18.134858     -16.493039      7.5143271      115.95119      116.04551      116.01407    
   5180000   299.33339      0.94799154     0.94799146     0.97418292     220           -2.7381447     -23503.517     -3.0145669     -45.609609      40.409742      115.86488      115.95914      115.92772    
   5190000   299.48491      0.94633553     0.94633544     0.93875809     212           -5.7726183     -23496.028     -0.5007078      14.380242     -31.197389      115.93243      116.02674      115.9953     
   5200000   299.93666      0.94544172     0.94544164     0.92547377     209           -1.9401758     -23556.352      73.171385     -46.692539     -32.299373      115.96895      116.06329      116.03184    
   5210000   299.10635      0.94619146     0.94619137     0.97418292     220            7.0029762     -23516.033      0.28413088     50.964218     -30.239421      115.93831      116.03263      116.00119    
   5220000   299.91484      0.94824237     0.94824228     0.93432998     211           -6.8606846     -23670.566      55.870884     -61.954417     -14.498521      115.85466      115.94891      115.9175     
   5230000   301.1936       0.94589005     0.94588996     0.9564705      216           -12.151042     -23587.528      26.35989      -31.818966     -30.994048      115.95062      116.04495      116.01351    
   5240000   299.85115      0.94761849     0.9476184      0.94318619     213           -11.641562     -23702.857      2.3221007     -4.1082778     -33.13851       115.88008      115.97435      115.94293    
   5250000   302.08289      0.9481544      0.94815432     0.9564705      216           -3.1636452     -23727.966     -9.8984444     -44.639959      45.047468      115.85825      115.9525       115.92108    
   5260000   298.56184      0.94744709     0.947447       0.97861102     221           -2.881724      -23485.024     -22.127367     -18.407882      31.890077      115.88707      115.98135      115.94992    
   5270000   300.70282      0.94959188     0.9495918      0.97861102     221           -0.57107084    -23719.693     -18.573369      9.3831596      7.476997       115.79976      115.89396      115.86256    
   5280000   298.73611      0.94713363     0.94713355     0.9564705      216            8.3047762     -23728.616      21.38267      -31.309786      34.841445      115.89985      115.99414      115.96271    
   5290000   298.4434       0.94963739     0.9496373      0.9564705      216           -0.71743076    -23760.49       18.638062     -14.310959     -6.479396       115.79791      115.89211      115.86071    
   5300000   299.91557      0.94809216     0.94809208     0.93875809     212           -11.860297     -23591.145     -8.395395      -34.782161      7.5966657      115.86078      115.95504      115.92362    
   5310000   299.25467      0.94847255     0.94847247     0.96975482     219            6.3666405     -23664.224     -72.00192       45.816405      45.285437      115.84529      115.93953      115.90812    
   5320000   300.74441      0.94807121     0.94807112     0.96975482     219           -2.02585       -23550.931     -42.058285      34.552462      1.4282734      115.86164      115.95589      115.92447    
   5330000   302.51479      0.94993924     0.94993915     0.96975482     219           -1.5768383     -23630.494     -19.399646      51.075098     -36.405967      115.78564      115.87983      115.84843    
   5340000   299.17826      0.95045392     0.95045383     0.93432998     211            5.3746728     -23679.381      50.977235      33.614759     -68.467975      115.76474      115.85891      115.82752    
   5350000   299.66405      0.94865455     0.94865446     0.93875809     212           -2.3052802     -23699.563     -67.518019      52.485028      8.1171504      115.83788      115.93212      115.90071    
   5360000   301.49325      0.94749885     0.94749877     0.96089861     217            1.5611804     -23586.788     -0.0012287476  -14.933137      19.617907      115.88496      115.97923      115.94781    
   5370000   298.50827      0.94769018     0.9476901      0.9564705      216            4.5791028     -23605.241      35.370772     -0.69069136    -20.942772      115.87716      115.97143      115.94001    
   5380000   298.50516      0.95025214     0.95025206     0.96089861     217            8.8831977     -23604.807      13.292172     -7.7737576      21.131179      115.77293      115.86711      115.83572    
   5390000   300.44898      0.94698018     0.9469801      0.9564705      216           -4.9663355     -23594.015     -44.735463      8.3876968      21.44876       115.90611      116.0004       115.96897    
   5400000   298.06109      0.94986067     0.94986059     0.96089861     217           -1.1359915     -23807.69      -28.721173     -14.212129      39.525327      115.78883      115.88303      115.85163    
   5410000   299.37652      0.94781876     0.94781868     0.96975482     219            0.81451793    -23550.863      26.765499     -20.478056     -3.843889       115.87192      115.96618      115.93476    
   5420000   300.15033      0.9477482      0.94774812     0.9520424      215           -6.5271485     -23576.051     -56.522887      20.465668      16.475774      115.8748       115.96906      115.93764    
   5430000   299.75054      0.95005306     0.95005297     0.94761429     214            3.6620146     -23620.099     -29.278577      11.369759      28.894862      115.78102      115.8752       115.84381    
   5440000   300.67624      0.94872802     0.94872793     0.94761429     214            3.2712143     -23491.931     -34.805414      5.6284767      38.99058       115.83489      115.92912      115.89771    
   5450000   299.39523      0.94953484     0.94953475     0.94318619     213            11.258008     -23536.323     -15.025781      25.16446       23.635346      115.80208      115.89628      115.86488    
   5460000   300.2314       0.94616057     0.94616049     0.92990188     210            1.5122251     -23464.051      43.872914     -53.889966      14.553727      115.93957      116.03389      116.00245    
   5470000   299.52117      0.9469103      0.94691022     0.96532671     218            1.5989259     -23627.413     -9.4528361      0.95651588     13.293098      115.90897      116.00326      115.97183    
   5480000   300.17147      0.9491194      0.94911931     0.99632344     225            15.411203     -23648.015     -48.835073      44.509894      50.558787      115.81897      115.91319      115.88178    
   5490000   299.08912      0.95116083     0.95116074     0.96532671     218            7.3355857     -23562.634     -9.3317686      15.431626      15.9069        115.73605      115.8302       115.79882    
   5500000   300.26438      0.94947316     0.94947307     0.9564705      216           -4.5753069     -23631.006     -15.125817     -10.843864      12.24376       115.80458      115.89879      115.86739    
   5510000   299.13146      0.94849025     0.94849016     0.94318619     213           -7.7211714     -23500.119     -8.2974633      1.1064427     -15.972493      115.84457      115.93881      115.9074     
   5520000   297.67723      0.94865484     0.94865476     0.91661757     207            2.1210269     -23603.904     -48.857198      42.400717      12.819562      115.83787      115.9321       115.90069    
   5530000   297.89999      0.9487135      0.94871342     0.97418292     220            2.8827964     -23523.199     -10.83177      -26.141621      45.62178       115.83548      115.92972      115.8983     
   5540000   300.60263      0.94840517     0.94840508     0.9564705      216            4.2817491     -23599.923     -49.797053      50.845498      11.796802      115.84804      115.94228      115.91086    
   5550000   298.8303       0.94731121     0.94731112     0.92104567     208           -1.2995331     -23326.992     -42.4141       -13.992201      52.507702      115.89261      115.98689      115.95546    
   5560000   298.4519       0.94739114     0.94739105     0.9564705      216           -2.258617      -23545.989      29.986256     -37.415037      0.65292955     115.88935      115.98363      115.9522     
   5570000   300.76251      0.94935962     0.94935953     0.94318619     213            0.20458525    -23526.645      35.205241     -64.126062      29.534577      115.8092       115.90341      115.87201    
   5580000   300.32412      0.94830756     0.94830748     0.94318619     213           -0.037445344   -23626.754     -16.131621      0.050344359    15.968941      115.85201      115.94626      115.91484    
   5590000   299.71261      0.94925789     0.94925781     0.96975482     219            4.0047764     -23593.976     -5.3980849      25.952678     -8.5402644      115.81334      115.90755      115.87615    
   5600000   299.9379       0.94721295     0.94721287     0.94761429     214           -2.8798365     -23626.504     -14.586555     -24.715468      30.662513      115.89662      115.9909       115.95947    
   5610000   300.64188      0.94802272     0.94802264     0.89004894     201            1.9075156     -23552.538     -30.757115      10.262232      26.21743       115.86361      115.95787      115.92645    
   5620000   301.63672      0.94742179     0.94742171     0.90333325     204           -6.8953706     -23603.815      62.456088     -21.582452     -61.559748      115.8881       115.98238      115.95095    
   5630000   300.70378      0.94770358     0.9477035      0.91218946     206           -5.7923902     -23651.406      25.437111      3.6840119     -46.498293      115.87662      115.97088      115.93946    
   5640000   299.84229      0.94955675     0.94955666     0.94761429     214           -11.689353     -23699.543      27.960247      21.183077     -84.211381      115.80118      115.89539      115.86399    
   5650000   300.18525      0.9491071      0.94910702     0.96089861     217           -2.0471696     -23678.373      40.12811      -59.450653      13.181034      115.81947      115.91369      115.88228    
   5660000   298.9801       0.94832463     0.94832455     0.9564705      216            14.299465     -23596.163      39.367481      38.734997     -35.204083      115.85131      115.94556      115.91414    
   5670000   300.07309      0.94837603     0.94837595     0.94318619     213            5.3453427     -23600.277      27.936768      5.31219       -17.21293       115.84922      115.94346      115.91205    
   5680000   300.22169      0.94871412     0.94871404     0.9564705      216           -2.6527886     -23797.56       39.08164      -63.2502        16.210194      115.83546      115.92969      115.89828    
   5690000   300.4938       0.94978093     0.94978084     0.96089861     217            9.888763      -23697.424      70.19219      -11.24737      -29.278531      115.79207      115.88627      115.85487    
   5700000   300.27346      0.95122284     0.95122276     0.93875809     212            7.2258329     -23749.731     -14.119845      87.327232     -51.529888      115.73354      115.82768      115.7963     
   5710000   299.36043      0.94860054     0.94860046     0.98303913     222            2.4992906     -23603.463     -12.815466      8.5030186      11.810319      115.84008      115.93432      115.90291    
   5720000   300.02032      0.9480444      0.94804431     0.94318619     213           -3.4605918     -23638.801     -29.665204     -29.141795      48.425223      115.86273      115.95698      115.92556    
   5730000   300.47199      0.94737148     0.9473714      0.94761429     214            1.6831848     -23508.288      11.84654      -33.669926      26.87294       115.89015      115.98443      115.95301    
   5740000   300.80978      0.94663638     0.9466363      0.93432998     211           -8.4286091     -23617.658     -27.541966      15.59351      -13.337371      115.92014      116.01444      115.98301    
   5750000   301.58751      0.95061873     0.95061865     0.96089861     217            6.5336255     -23642.374     -13.779057      18.312406      15.067528      115.75805      115.85222      115.82083    
   5760000   300.06221      0.95005456     0.95005448     0.92990188     210            6.7553368     -23638.888      21.099106     -39.235117      38.402022      115.78096      115.87514      115.84375    
   5770000   301.45884      0.94887125     0.94887117     0.96532671     218           -7.147191      -23677.635     -42.256618      16.792439      4.0226063      115.82906      115.92329      115.89188    
   5780000   299.25851      0.94837064     0.94837055     0.93432998     211            3.0641892     -23574.273      0.67303016     24.861034     -16.341496      115.84944      115.94368      115.91227    
   5790000   300.40003      0.95034497     0.95034488     0.93432998     211            13.673887     -23712.224      63.853126     -22.306416     -0.52504745     115.76916      115.86334      115.83195    
   5800000   300.72611      0.94724189     0.94724181     0.94761429     214            2.3889042     -23640.707     -1.2179383      3.894833       4.4898179      115.89544      115.98972      115.95829    
   5810000   302.26419      0.94587205     0.94587197     0.93432998     211           -6.5348301     -23661.057      31.911696      12.179418     -63.695605      115.95136      116.04569      116.01424    
   5820000   300.97496      0.94832838     0.94832829     0.93875809     212           -0.29602893    -23673.113      3.4563118     -3.1016916     -1.2427069      115.85116      115.94541      115.91399    
   5830000   300.64042      0.9511828      0.95118272     0.94761429     214           -2.6141467     -23698.644     -12.835793      32.11204      -27.118688      115.73516      115.82931      115.79793    
   5840000   300.76531      0.94973833     0.94973825     0.92990188     210            1.575978      -23678.619      29.631218     -11.275424     -13.62786       115.7938       115.888        115.8566     
   5850000   298.9916       0.94968964     0.94968955     0.92990188     210            7.1754422     -23651.312      29.821454     -24.611136      16.316009      115.79578      115.88998      115.85858    
   5860000   299.89117      0.94958322     0.94958314     0.9520424      215            0.22242057    -23705.36      -30.894888      18.923155      12.638994      115.80011      115.89431      115.86291    
   5870000   299.78091      0.94749536     0.94749527     0.9520424      215           -1.2826034     -23601.444     -21.105835     -13.512352      30.770377      115.8851       115.97938      115.94795    
   5880000   301.90705      0.94998187     0.94998179     0.9520424      215            0.7113887     -23668.471      26.89071      -44.802619      20.046075      115.78391      115.8781       115.8467     
   5890000   300.4808       0.95164035     0.95164027     0.98303913     222            8.8611122     -23753.153      10.212633     -60.820995      77.191699      115.71661      115.81074      115.77936    
   5900000   300.19712      0.94843928     0.9484392      0.96089861     217            6.1613905     -23617.445      13.754194      32.051867     -27.32189       115.84665      115.94089      115.90947    
   5910000   298.77173      0.94861784     0.94861775     0.94761429     214           -5.2020561     -23770.098      30.401205     -41.29096      -4.7164135      115.83938      115.93361      115.9022     
   5920000   299.29053      0.94540239     0.94540231     0.94761429     214           -9.6884606     -23576.51      -15.060698      15.564553     -29.569237      115.97056      116.0649       116.03345    
   5930000   299.53685      0.94879118     0.9487911      0.96089861     217            13.000548     -23480.78       19.921377      14.380899      4.699369       115.83232      115.92655      115.89514    
   5940000   299.13561      0.95022929     0.95022921     1.0007515      226           -1.4540713     -23677.298      24.111851     -61.779073      33.305008      115.77386      115.86804      115.83665    
   5950000   299.32012      0.94668773     0.94668764     0.94318619     213           -3.3289733     -23506.041      8.3753693     -23.647703      5.2854135      115.91805      116.01235      115.98091    
   5960000   298.3759       0.94596264     0.94596255     0.96532671     218           -10.498105     -23548.588      7.9732879     -46.539759      7.0721543      115.94766      116.04198      116.01054    
   5970000   299.38517      0.94662789     0.94662781     0.96532671     218            1.414384      -23440.834     -2.1475629      22.80696      -16.416245      115.92049      116.01479      115.98336    
   5980000   300.17387      0.94840703     0.94840694     0.92547377     209           -0.31502294    -23557.389     -46.323951     -11.732833      57.111716      115.84796      115.9422       115.91079    
   5990000   300.58072      0.94909885     0.94909876     0.98303913     222            0.15838633    -23592.181      4.932259      -1.9174461     -2.5396539      115.8198       115.91402      115.88262    
   6000000   301.1237       0.94704587     0.94704578     0.9520424      215           -5.3451731     -23510.651      10.182732      8.0374819     -34.255733      115.90343      115.99772      115.96629    
   6010000   300.3539       0.95142718     0.9514271      0.93432998     211            11.866821     -23569.203      85.959139     -18.165053     -32.193622      115.72525      115.81939      115.78801    
   6020000   301.19233      0.94740671     0.94740663     0.96975482     219           -5.7884917     -23455.89       38.741207     -47.889549     -8.2171331      115.88872      115.98299      115.95157    
   6030000   300.34177      0.94893499     0.94893491     0.98303913     222           -1.2758384     -23600.001      12.489167     -10.403325     -5.9133573      115.82647      115.9207       115.88929    
   6040000   300.24932      0.9466609      0.94666081     0.97861102     221            9.2389882     -23498.605      44.631973     -6.5916808     -10.323327      115.91914      116.01344      115.98201    
   6050000   300.96687      0.94887739     0.94887731     0.94318619     213           -1.8475474     -23569.723      12.292433     -2.2168271     -15.618248      115.82881      115.92304      115.89163    
   6060000   301.44213      0.94717435     0.94717426     0.91218946     206           -7.3081725     -23397.774      41.681923     -55.011871     -8.5945699      115.89819      115.99248      115.96105    
   6070000   299.19047      0.94914629     0.9491462      0.93875809     212            2.1711879     -23688.512     -41.490425      13.88795       34.116039      115.81787      115.91209      115.88069    
   6080000   301.94095      0.94618098     0.94618089     0.97861102     221           -6.0302078     -23502.779     -38.368503      7.5380179      12.739862      115.93874      116.03305      116.00162    
   6090000   298.56268      0.9488735      0.94887342     0.90776136     205           -4.8585099     -23655.371      46.802361     -15.995417     -45.382474      115.82897      115.9232       115.89179    
   6100000   299.47796      0.94898647     0.94898639     0.9520424      215            5.4373885     -23664.274      15.426961      41.731515     -40.846311      115.82438      115.9186       115.88719    
   6110000   300.10282      0.94798169     0.94798161     0.92104567     208            0.83024993    -23587.924      31.357087      10.942656     -39.808993      115.86528      115.95954      115.92812    
   6120000   301.32138      0.94560521     0.94560513     0.94761429     214           -2.4520404     -23466.629      18.283867     -19.934665     -5.7053236      115.96227      116.0566       116.02516    
   6130000   300.75005      0.95358835     0.95358826     0.9564705      216            9.8411741     -23851.497      57.830968      13.214331     -41.521777      115.63776      115.73183      115.70047    
   6140000   301.81431      0.94850512     0.94850503     0.94761429     214            0.0085078371  -23713.252      6.7133941     -10.016085      3.3282141      115.84397      115.9382       115.90679    
   6150000   301.58294      0.94992452     0.94992444     0.94318619     213            8.8667188     -23532.945      21.846087      41.00696      -36.252891      115.78624      115.88043      115.84903    
   6160000   301.77451      0.94798001     0.94797993     0.94318619     213           -1.6520929     -23554.083     -25.753188      1.2779604      19.518949      115.86535      115.95961      115.92819    
   6170000   300.40563      0.9473654      0.94736532     0.9520424      215           -5.1502698     -23651.365      6.1756438     -0.54822851    -21.078225      115.8904       115.98468      115.95325    
   6180000   299.81419      0.94846704     0.94846696     0.97861102     221            5.3669247     -23623.355     -4.3876877      2.6713685      17.817093      115.84552      115.93976      115.90834    
   6190000   300.55583      0.94838648     0.9483864      0.94318619     213           -7.2162682     -23740.097      29.503132     -60.050434      8.8984972      115.8488       115.94304      115.91162    
   6200000   302.04384      0.94898383     0.94898374     0.96089861     217           -3.9002227     -23649.333      6.3746397     -12.080136     -5.9951714      115.82448      115.91871      115.8873     
   6210000   300.1393       0.94753294     0.94753285     0.9564705      216           -2.0387153     -23680.399      24.651225     -52.615811      21.84844       115.88357      115.97784      115.94642    
   6220000   299.61711      0.94756022     0.94756014     0.96089861     217            14.598019     -23622.923      35.068354      0.88167068     7.8440329      115.88246      115.97673      115.94531    
   6230000   300.69759      0.94972764     0.94972755     0.97418292     220           -3.9616035     -23575.498     -6.8053301     -24.310482      19.231002      115.79424      115.88844      115.85704    
   6240000   300.1087       0.94954571     0.94954563     0.98303913     222            4.9228437     -23780.399      4.5909095     -30.07293       40.250552      115.80163      115.89584      115.86444    
   6250000   299.52885      0.94937008     0.94937        0.96089861     217           -11.40273      -23710.271     -35.870215     -33.881059      35.543083      115.80877      115.90298      115.87158    
   6260000   300.43186      0.9494284      0.94942832     0.93875809     212           -10.944638     -23653.213      59.585737      1.8938312     -94.313484      115.8064       115.90061      115.86921    
   6270000   299.75359      0.94732494     0.94732485     0.94761429     214           -6.2115445     -23551.456     -15.317919     -17.448095      14.13138       115.89205      115.98633      115.9549     
   6280000   299.71982      0.94867333     0.94867325     0.90776136     205            3.2387275     -23635.164      10.795055     -0.00097571555 -1.0778963      115.83712      115.93135      115.89994    
   6290000   299.90873      0.94889417     0.94889409     0.9564705      216            1.7446262     -23712.153     -9.715061      -7.1784104      22.12735       115.82813      115.92236      115.89095    
   6300000   301.99079      0.94756528     0.9475652      0.94318619     213           -10.324707     -23572.538      13.446903     -33.34257      -11.078454      115.88225      115.97652      115.9451     
   6310000   300.2457       0.94747108     0.947471       0.96532671     218           -2.4427091     -23601.441     -50.243652     -30.692559      73.608083      115.88609      115.98037      115.94894    
   6320000   297.46633      0.94829582     0.94829574     0.96975482     219            3.0115622     -23599.174      12.908437      46.677147     -50.550897      115.85249      115.94673      115.91532    
   6330000   300.03826      0.94946453     0.94946444     0.89004894     201            1.5851646     -23684.832      15.226095      6.5238258     -16.994427      115.80493      115.89914      115.86774    
   6340000   299.18662      0.94987238     0.9498723      0.97861102     221            9.8628013     -23612.437      28.263036     -3.6672545      4.9926221      115.78836      115.88255      115.85115    
   6350000   299.98701      0.9484725      0.94847242     0.98746723     223           -2.9714322     -23601.23      -51.220784     -19.03537       61.341857      115.84529      115.93953      115.90812    
   6360000   298.26192      0.94836148     0.9483614      0.99632344     225            7.3269545     -23584.352     -34.916885      38.25479       18.642959      115.84981      115.94406      115.91264    
   6370000   301.56048      0.94954677     0.94954669     0.96089861     217           -4.8216257     -23648.455      27.3255       -78.101957      36.311579      115.80159      115.89579      115.86439    
   6380000   300.74868      0.94798346     0.94798338     0.9520424      215           -2.284657      -23648.226      2.372253      -28.626767      19.400543      115.86521      115.95947      115.92805    
   6390000   299.46396      0.94882488     0.9488248      0.9520424      215            0.2857007     -23618.414      52.612558      21.212699     -72.968155      115.83095      115.92518      115.89377    
   6400000   301.89019      0.94759522     0.94759514     0.94318619     213           -3.4173043     -23631.732     -18.914319     -18.029041      26.691447      115.88103      115.9753       115.94388    
   6410000   297.53028      0.94999626     0.94999617     0.96089861     217            4.6942491     -23787.646     -7.6976061      25.678208     -3.8978544      115.78332      115.87751      115.84612    
   6420000   298.95117      0.9448296      0.94482951     0.92547377     209            0.7566815     -23468.204     -9.6246962      32.427417     -20.532677      115.99399      116.08835      116.0569     
   6430000   301.14124      0.94766558     0.9476655      0.9564705      216           -0.25747336    -23555.246     -27.219463      22.56443       3.882613       115.87816      115.97243      115.94101    
   6440000   299.85437      0.95007669     0.95007661     0.91218946     206            3.492674      -23682.502      11.974868     -16.366093      14.869247      115.78006      115.87424      115.84285    
   6450000   298.75779      0.94847293     0.94847285     0.91661757     207           -6.7215031     -23643.263     -31.601786     -28.502755      39.940031      115.84528      115.93952      115.9081     
   6460000   298.4219       0.94783033     0.94783024     0.91218946     206            2.7572799     -23567.93      -34.958233      17.515638      25.714434      115.87145      115.96571      115.93429    
   6470000   300.10423      0.94610475     0.94610467     0.9564705      216            0.57450409    -23623.575     -14.300547     -6.3253601      22.349419      115.94185      116.03617      116.00473    
   6480000   298.66425      0.948309       0.94830892     0.92547377     209           -4.097414      -23566.198      6.0504296      21.828027     -40.170698      115.85195      115.9462       115.91478    
   6490000   297.61694      0.94772809     0.94772801     0.94318619     213           -8.0619703     -23621.812     -27.521221      29.999844     -26.664533      115.87562      115.96988      115.93846    
   6500000   301.68979      0.95002049     0.95002041     0.96532671     218           -2.6321993     -23703.725     -10.297548      36.9094       -34.508449      115.78234      115.87653      115.84513    
   6510000   301.213        0.94808808     0.94808799     0.94318619     213           -14.074299     -23607.276     -6.1693869     -49.381187      13.327678      115.86095      115.9552       115.92378    
   6520000   298.41125      0.94800805     0.94800797     0.96089861     217           -6.0236914     -23663.378     -16.933341     -86.409014      85.27128       115.86421      115.95846      115.92705    
   6530000   296.63885      0.94797398     0.9479739      0.93875809     212           -2.1009619     -23739.63       4.3583898      16.811706     -27.472981      115.8656       115.95985      115.92843    
   6540000   298.34655      0.95066339     0.95066331     0.96975482     219            7.0365879     -23737.063      61.160926     -34.247165     -5.8039973      115.75623      115.8504       115.81901    
   6550000   299.6906       0.94806726     0.94806718     0.9564705      216            4.1446592     -23660.012     -23.1825        9.3643679      26.25211       115.8618       115.95605      115.92463    
   6560000   300.53821      0.95089743     0.95089735     0.94761429     214           -4.0993107     -23680.946      20.637859     -19.319595     -13.616195      115.74674      115.8409       115.80951    
   6570000   300.50196      0.94958376     0.94958367     0.9520424      215            2.5714738     -23659.096     -24.074622     -1.583818       33.372861      115.80009      115.89429      115.86289    
   6580000   301.47739      0.95014322     0.95014313     0.9564705      216           -6.0638294     -23629.016     -12.056917     -21.43232       15.297749      115.77735      115.87154      115.84014    
   6590000   302.19327      0.948676       0.94867591     0.94318619     213           -4.9389701     -23512.88       11.905735      17.074597     -43.797242      115.83701      115.93124      115.89983    
   6600000   296.85815      0.94730088     0.9473008      0.96532671     218            10.952193     -23424.129      27.488518     -6.419305       11.787366      115.89303      115.98731      115.95589    
   6610000   302.01767      0.94662012     0.94662004     0.94761429     214           -3.4501857     -23495.207     -48.2091       -2.2508735      40.109416      115.92081      116.01511      115.98368    
   6620000   301.10078      0.94770643     0.94770635     0.96975482     219           -0.71808418    -23585.791     -27.114974      7.1163605      17.844361      115.8765       115.97076      115.93934    
   6630000   300.47446      0.9499629      0.94996282     0.97861102     221            5.2168356     -23638.07       13.693079      16.632091     -14.674663      115.78468      115.87887      115.84747    
   6640000   300.25036      0.94672531     0.94672523     1.0051796      227           -3.138335      -23590.175      12.384048     -37.196059      15.397006      115.91651      116.01081      115.97938    
   6650000   299.96352      0.94822649     0.94822641     0.96532671     218           -1.9090145     -23620.489      7.1011243      13.283705     -26.111873      115.85531      115.94956      115.91814    
   6660000   298.89397      0.94733348     0.9473334      0.92547377     209            1.899056      -23465.626      15.49165       17.971486     -27.765968      115.8917       115.98598      115.95456    
   6670000   301.26239      0.94790954     0.94790946     0.92547377     209            3.6068307     -23457.595      4.6943155      19.239511     -13.113335      115.86822      115.96248      115.93106    
   6680000   300.67674      0.9496827      0.94968261     0.93432998     211           -2.332871      -23677.362     -16.493812     -3.626942       13.122141      115.79606      115.89026      115.85886    
   6690000   300.87684      0.9484349      0.94843482     0.9564705      216            2.5721216     -23610.96      -31.548468     -1.8078156      41.072648      115.84682      115.94107      115.90965    
   6700000   299.7756       0.95208363     0.95208355     0.92990188     210            4.4512289     -23704.282      14.279144      20.925538     -21.850995      115.69865      115.79277      115.76139    
   6710000   298.6898       0.94921758     0.94921749     0.96532671     218           -5.3529359     -23731.222      46.342708     -2.2328784     -60.168637      115.81498      115.90919      115.87779    
   6720000   300.68551      0.94972618     0.9497261      0.9520424      215           -3.5495341     -23644.055     -17.441662      1.7003415      5.0927185      115.7943       115.8885       115.8571     
   6730000   300.32876      0.94951675     0.94951666     0.92990188     210            3.0324605     -23715.096      54.709383      29.664378     -75.27638       115.80281      115.89702      115.86561    
   6740000   300.50497      0.94989668     0.94989659     0.94761429     214            6.2132753     -23656.374      17.587301     -19.514054      20.566579      115.78737      115.88156      115.85016    
   6750000   301.72463      0.94772355     0.94772347     0.93875809     212           -2.1742697     -23604.278      20.517599      20.939125     -47.979533      115.8758       115.97007      115.93864    
   6760000   298.87782      0.95099768     0.95099759     0.98303913     222           -0.10495073    -23856.458     -3.2957482     -32.432664      35.41356       115.74267      115.83682      115.80544    
   6770000   299.1289       0.94969838     0.9496983      0.9520424      215            2.7496618     -23700.216     -15.448776      18.474049      5.223712       115.79543      115.88963      115.85823    
   6780000   300.11805      0.95155105     0.95155096     0.92990188     210            9.7658899     -23842.552      23.07893      -2.979857       9.1985963      115.72023      115.81437      115.78299    
   6790000   300.27549      0.94810826     0.94810818     0.92104567     208            0.82154653    -23623.598      43.691209      6.4128317     -47.639401      115.86013      115.95438      115.92296    
   6800000   299.36914      0.94758896     0.94758887     0.90333325     204           -3.1310111     -23616.026      19.934806     -30.528598      1.2007586      115.88129      115.97556      115.94413    
   6810000   302.04646      0.95125683     0.95125674     0.92104567     208            3.6793279     -23701.318      2.6333487      23.916419     -15.511784      115.73216      115.8263       115.79492    
   6820000   301.00114      0.94633531     0.94633523     0.92547377     209            1.4840624     -23542.192     -61.835276      50.471991      15.815472      115.93244      116.02675      115.99531    
   6830000   301.0473       0.94829535     0.94829526     0.96089861     217           -8.5501272     -23718         -30.36703       16.620633     -11.903985      115.85251      115.94675      115.91534    
   6840000   299.68819      0.94719611     0.94719603     0.93875809     212           -6.205439      -23538.453      5.5621876     -1.3781936     -22.800311      115.89731      115.99159      115.96016    
   6850000   299.97083      0.94701104     0.94701096     0.92990188     210            10.382893     -23555.347      26.14908      -34.875252      39.874851      115.90486      115.99914      115.96771    
   6860000   300.48023      0.9485725      0.94857241     0.94318619     213           -10.806247     -23574.462     -40.918391     -28.483163      36.982812      115.84122      115.93546      115.90405    
   6870000   299.97799      0.9480224      0.94802231     0.94761429     214            2.9641609     -23474.584     -14.569284      29.826547     -6.3647802      115.86362      115.95788      115.92646    
   6880000   298.94659      0.94771824     0.94771815     0.94761429     214           -4.7351257     -23473.651     -0.94892985    -25.156133      11.899686      115.87602      115.97028      115.93886    
   6890000   299.67208      0.9490566      0.94905651     0.94318619     213            2.3886212     -23557.136      5.1650879      10.027493     -8.0267176      115.82152      115.91574      115.88434    
   6900000   300.38955      0.95027785     0.95027777     0.96089861     217            5.5426052     -23747.921     -58.303423      2.7335937      72.197645      115.77189      115.86607      115.83467    
   6910000   299.95112      0.94743873     0.94743865     0.93432998     211           -7.1214638     -23653.633      14.468292     -5.1908502     -30.641833      115.88741      115.98169      115.95026    
   6920000   300.15855      0.94868855     0.94868847     0.96975482     219            0.022971253   -23737.786      57.035554      19.647885     -76.614526      115.8365       115.93073      115.89932    
   6930000   299.70704      0.94887295     0.94887287     0.96975482     219            9.7711403     -23661.96      -27.201385      23.088017      33.426788      115.82899      115.92322      115.89181    
   6940000   299.47077      0.94983909     0.94983901     0.9520424      215            7.9551266     -23695.899     -4.6706953      21.250222      7.2858532      115.78971      115.8839       115.85251    
   6950000   299.93546      0.94881006     0.94880997     0.97418292     220            0.92578633    -23573.429     -49.930805      1.8483526      50.859811      115.83155      115.92578      115.89437    
   6960000   300.34075      0.94647577     0.94647569     0.96532671     218           -6.1539382     -23689.074     -26.039787      6.8641731      0.713799       115.9267       116.02101      115.98957    
   6970000   299.33586      0.9480006      0.94800051     0.96089861     217            12.2011       -23615.317      63.54092      -19.849071     -7.0885491      115.86451      115.95877      115.92735    
   6980000   300.20643      0.94802007     0.94801998     0.94318619     213           -4.3458472     -23704.212      53.561684     -61.76971      -4.8295157      115.86372      115.95797      115.92656    
   6990000   299.12968      0.94839679     0.94839671     0.93875809     212           -4.4258351     -23708.179     -4.6231713     -29.466073      20.811739      115.84838      115.94262      115.9112     
   7000000   300.56435      0.94837637     0.94837629     0.91661757     207            0.56228661    -23656.171     -21.79209       9.9824331      13.496517      115.84921      115.94345      115.91204    
   7000864   299.82075      0.94795615     0.94795606     0.90333325     204            8.6884574     -23684.667      24.19232       12.962271     -11.089219      115.86632      115.96058      115.92916    
Loop time of 2304.99 on 16 procs for 5000000 steps with 12350 atoms

Performance: 187.420 ns/day, 0.128 hours/ns, 2169.211 timesteps/s, 26.790 Matom-step/s
97.8% CPU use with 16 MPI tasks x no OpenMP threads

MPI task timing breakdown:
Section |  min time  |  avg time  |  max time  |%varavg| %total
---------------------------------------------------------------
Pair    | 896.85     | 917.65     | 938.54     |  42.3 | 39.81
Bond    | 344.28     | 348.9      | 356.32     |  15.5 | 15.14
Neigh   | 106.32     | 106.42     | 106.59     |   0.7 |  4.62
Comm    | 614.55     | 637.85     | 660.14     |  56.4 | 27.67
Output  | 3.2714     | 4.1129     | 5.004      |  26.4 |  0.18
Modify  | 228.84     | 232.42     | 234.88     |  12.4 | 10.08
Other   |            | 57.63      |            |       |  2.50

Nlocal:        771.875 ave         791 max         756 min
Histogram: 2 1 0 3 6 1 1 0 0 2
Nghost:        2308.44 ave        2328 max        2286 min
Histogram: 1 1 3 1 1 3 0 2 3 1
Neighs:        26032.8 ave       27179 max       25022 min
Histogram: 1 1 1 3 3 3 2 1 0 1

Total # of neighbors = 416524
Ave neighs/atom = 33.72664
Ave special neighs/atom = 5.76
Neighbor list builds = 89054
Dangerous builds = 0
unfix               3
undump              min

write_data          pdms_50_nvt_relaxation.data
System init for write_data ...
Generated 0 of 0 mixed pair_coeff terms from geometric mixing rule
# -----------------------------------------------------
# 5. npt下拉伸
# -----------------------------------------------------
# 计算应力
reset_timestep      0
timestep            1
compute             slabpressperatom slabs stress/atom NULL
compute             2 slabs reduce sum c_slabpressperatom[1] c_slabpressperatom[2]
variable            CorVol equal 30*30*30
variable            slabsigmaxx equal c_2[1]/(v_CorVol*10)
compute             3 all reduce sum c_pressperatom[1] c_pressperatom[2]
variable            sigmaxx equal c_3[1]/(vol*10)
# 计算应变值
variable            tmp equal "lx"
variable            L0 equal ${tmp}
variable            L0 equal 115.866323661932
variable            strain equal "(lx - v_L0)/v_L0"
#dump输出
dump                1 all custom 100000 dump.pdms.lammpstrj id type x y z vx vy vz v_pxxperatom v_pyyperatom v_pzzperatom v_Pxxpairperatom v_Pyypairperatom v_Pzzpairperatom v_Pxxbondperatom v_Pyybondperatom v_Pzzbondperatom v_Pxxangleperatom v_Pyyangleperatom v_Pzzangleperatom v_Pxxdihedralperatom v_Pyydihedralperatom v_Pzzdihedralperatom c_peperatom c_Epairperatom c_Ebondperatom c_Eangleperatom c_Edihedralperatom
# 设置npt系综
fix                 1 all npt temp 300 300 50 y 0 0 2000 z 0 0 2000 drag 2
# deform拉伸，x方向
fix                 2 all deform 1 x erate 1e-7 units box remap x
# 热力学输出
# fix                 ave_sxx all ave/time 100 100 10000 v_strain v_sigmaxx v_px file stress_profile.dat ave one
# fix                 ave_sxx2 all ave/time 1000 200 200000 v_strain v_sigmaxx v_px file stress_profile2.dat ave one
# fix                 ave_sxx3 all ave/time 200 1000 200000 v_strain v_sigmaxx v_px file stress_profile3.dat ave one
# fix                 ave_sxx4 all ave/time 1000 1000 1000000 v_strain v_sigmaxx v_px file stress_profile4.dat ave one
fix                 origin all print 100 "${strain} ${sigmaxx} ${slabsigmaxx}" file origin100.txt screen no
# thermo_style        custom step temp v_strain v_sigmaxx density press pxx pyy pzz lx ly lz etotal
thermo_style        custom step temp v_dens density v_slabdens v_strain v_slabsigmaxx v_sigmaxx v_nslab press pxx pyy pzz lx ly lz
thermo              10000

# 启动模拟，n步
run                 30000000
Generated 0 of 0 mixed pair_coeff terms from geometric mixing rule
Per MPI rank memory allocation (min/avg/max) = 15.82 | 15.98 | 16.3 Mbytes
   Step          Temp          v_dens        Density       v_slabdens      v_strain    v_slabsigmaxx    v_sigmaxx       v_nslab         Press           Pxx            Pyy            Pzz             Lx             Ly             Lz      
         0   299.82075      0.94795615     0.94795606     0.90333325    -1.2264871e-15 -24.980291     -2.419232       204            8.6884574      24.19232       12.962271     -11.089219      115.86632      115.96058      115.92916    
     10000   301.34276      0.94888323     0.94888315     0.9520424      0.001         -66.485262      1.5518007      215           -49.439028     -15.518007     -70.638363     -62.160713      115.98219      115.69189      115.96891    
     20000   300.93364      0.95099525     0.95099516     0.93875809     0.002         -7.9444922     -6.5145095      212            24.621015      65.145095     -4.9669033      13.684853      116.09806      115.54225      115.74558    
     30000   301.54806      0.94815429     0.94815421     0.9564705      0.003          27.661331     -0.69620471     216            4.7570155      6.9620471      5.5243632      1.7846362      116.21392      115.51611      116.00289    
     40000   301.67102      0.9480684      0.94806831     0.94318619     0.004          48.658701     -8.7184465      213           -3.098072       87.184465     -25.320169     -71.158511      116.32979      115.20141      116.21446    
     50000   298.9236       0.94795257     0.94795249     0.93432998     0.005         -35.473393      1.4498334      211            12.51904      -14.498334      24.061166      27.994286      116.44566      114.73453      116.58549    
     60000   298.35919      0.95026007     0.95025999     0.92990188     0.006          67.371504     -5.5461766      210            35.144225      55.461766      20.645735      29.325174      116.56152      115.34228      115.57458    
     70000   300.46414      0.94850858     0.9485085      0.96532671     0.007          12.733511     -1.8447816      218            3.3702669      18.447816     -4.8808494     -3.4561657      116.67739      114.51953      116.50405    
     80000   300.0713       0.94549859     0.94549851     0.92990188     0.008         -32.954709     -0.19099449     210            21.553836      1.9099449      10.200226      52.551337      116.79325      114.90806      116.3642     
     90000   300.50745      0.94795109     0.94795101     0.96089861     0.009          11.091912      1.5159463      217           -1.4962574     -15.159463      26.809737     -16.139046      116.90912      114.86937      115.98718    
    100000   301.26381      0.94786678     0.9478667      0.92104567     0.01          -55.759244      4.4464272      208           -38.630007     -44.464272     -69.31319      -2.112558       117.02499      114.76538      115.98765    
    110000   299.19537      0.94874171     0.94874162     0.90333325     0.011         -19.645349     -4.7172703      204            47.515617      47.172703      94.433641      0.94050596     117.14085      114.46579      116.06906    
    120000   301.0277       0.94633959     0.94633951     0.91661757     0.012          46.744694      3.7815176      207           -13.573515     -37.815176      24.747803     -27.653173      117.25672      114.41916      116.29607    
    130000   299.95377      0.94648365     0.94648357     0.94318619     0.013         -6.8082863      8.7343966      213           -60.64999      -87.343966     -43.614172     -50.991832      117.37259      114.73378      115.84504    
    140000   300.15858      0.94752722     0.94752713     0.89447704     0.014          15.321289     -3.3529944      202            17.254086      33.529944     -0.4261831      18.658496      117.48845      114.75547      115.58149    
    150000   300.61798      0.94703906     0.94703898     0.91218946     0.015          41.989367      2.9620866      206           -15.006555     -29.620866      12.29398      -27.692779      117.60432      114.28342      116.00432    
    160000   299.78936      0.94699059     0.94699051     0.9564705      0.016         -15.314343     -1.942963       216            24.319284      19.42963       20.240536      33.287685      117.72018      113.91475      116.27116    
    170000   300.1768       0.9459993      0.94599921     0.92547377     0.017         -5.1851401      4.8763325      209           -37.867654     -48.763325     -36.52478      -28.314859      117.83605      114.50554      115.67861    
    180000   299.62404      0.94933608     0.949336       0.96089861     0.018          14.609462      6.9406649      217           -53.185877     -69.406649     -77.902777     -12.248207      117.95192      114.3989       115.26613    
    190000   300.07921      0.94625205     0.94625197     0.91661757     0.019         -12.140698      5.6563857      207            10.551815     -56.563857      46.569528      41.649774      118.06778      114.58225      115.34346    
    200000   300.15891      0.94973751     0.94973743     0.9564705      0.02          -40.782956      8.5590928      216           -67.594544     -85.590928     -71.981547     -45.211156      118.18365      113.45322      115.94999    
    210000   298.96946      0.94835037     0.94835029     0.96089861     0.021         -34.283709      3.2485577      217            11.510088     -32.485577      25.904479      41.111361      118.29952      113.99202      115.45754    
    220000   299.3339       0.94935128     0.94935119     0.94761429     0.022          10.808509      1.212472       214            39.452046     -12.12472       73.514675      56.966183      118.41538      113.32468      115.90148    
    230000   300.94521      0.94379802     0.94379794     0.94761429     0.023         -25.781989      4.4095038      214           -55.085141     -44.095038     -31.993019     -89.167367      118.53125      113.30122      116.4936     
    240000   299.43319      0.94778455     0.94778447     0.91218946     0.024          11.931963      3.8139859      206           -47.194696     -38.139859     -42.579063     -60.865164      118.64712      113.30344      115.88805    
    250000   300.1067       0.94906704     0.94906695     0.92547377     0.025          1.1106311      5.8159147      209           -32.839053     -58.159147     -55.74023       15.382218      118.76298      112.63627      116.30338    
    260000   299.65831      0.94682059     0.94682051     0.96532671     0.026          49.220019      1.4507745      218           -14.430234     -14.507745     -7.0678087     -21.715148      118.87885      113.03126      116.0587     
    270000   299.49366      0.94766561     0.94766553     0.9520424      0.027         -4.9897118      2.2184788      215           -34.853207     -22.184788     -22.611061     -59.763771      118.99471      112.93738      115.9386     
    280000   301.9794       0.95001159     0.9500115      0.91218946     0.028         -27.592569      1.0123928      206            4.7995501     -10.123928      30.290726     -5.7681477      119.11058      112.96492      115.51162    
    290000   300.03644      0.94679876     0.94679868     0.93875809     0.029          14.524951      2.5548301      212           -25.096609     -25.548301     -28.964151     -20.777375      119.22645      113.07439      115.67887    
    300000   297.75933      0.94683811     0.94683802     0.94318619     0.03           9.0987107      0.23136914     213           -11.717206     -2.3136914     -21.514011     -11.323916      119.34231      112.83211      115.8099     
    310000   298.01069      0.94860294     0.94860286     0.9564705      0.031         -58.776812     -0.47304948     216            10.09431       4.7304948      35.050032     -9.4975979      119.45818      112.87666      115.43673    
    320000   299.62265      0.94805908     0.94805899     0.93432998     0.032          15.02417      -0.69741612     211            12.242088      6.9741612      44.993705     -15.241602      119.57405      112.92035      115.34639    
    330000   298.07091      0.949161       0.94916091     0.9564705      0.033         -48.930051     -0.57029835     216            35.759767      5.7029835      37.86392       63.712397      119.68991      113.39743      114.61671    
    340000   301.27524      0.94974276     0.94974268     0.92990188     0.034          17.133885      2.5707706      210           -18.650497     -25.707706     -13.384418     -16.859366      119.80578      113.55767      114.27424    
    350000   300.70079      0.94754842     0.94754834     0.9520424      0.035         -10.783229      3.7266858      215            8.5198195     -37.266858     -8.0133121      70.839629      119.92164      113.3155       114.67275    
    360000   300.78558      0.94512334     0.94512326     0.93432998     0.036          29.239585      9.4374297      211           -63.248803     -94.374297     -50.453416     -44.918695      120.03751      113.45769      114.71208    
    370000   300.00687      0.94844361     0.94844352     0.9564705      0.037          1.139753       1.0807865      216            32.996029     -10.807865      41.706921      68.089031      120.15338      112.66612      115.00261    
    380000   302.26961      0.94726191     0.94726183     0.91661757     0.038          10.395648     -0.090349439    207            16.377879      0.90349439     29.582801      18.647342      120.26924      112.39412      115.31354    
    390000   298.50081      0.94968486     0.94968478     0.9520424      0.039          6.5578891     -0.31317285     215            35.262197      3.1317285      61.065773      41.58909       120.38511      111.73539      115.58608    
    400000   297.51218      0.94878707     0.94878699     0.91661757     0.04           34.139407      1.2805315      207           -31.907157     -12.805315      4.3056907     -87.221847      120.50098      112.29656      115.00661    
    410000   299.99929      0.94858741     0.94858733     0.92547377     0.041         -0.13510654     0.77031229     209            38.372093     -7.7031229      79.371973      43.447428      120.61684      112.04818      115.17506    
    420000   299.78525      0.94909173     0.94909164     0.9520424      0.042         -16.105599      0.57014252     215            36.867827     -5.7014252      52.305241      63.999665      120.73271      111.62932      115.43491    
    430000   298.68626      0.94932567     0.94932559     0.96975482     0.043         -49.714703     -4.585362       219            19.265159      45.85362      -14.805621      26.747478      120.84858      111.67072      115.25306    
    440000   299.80917      0.94820692     0.94820684     0.96975482     0.044          10.568227     -3.8280009      219            12.479363      38.280009     -5.8571093      5.0151887      120.96444      112.62581      114.30093    
    450000   299.58878      0.94889196     0.94889187     0.96089861     0.045         -34.210032     -5.0573189      217            30.250259      50.573189      13.480381      26.697205      121.08031      112.91376      113.81812    
    460000   301.20128      0.94748131     0.94748123     0.93875809     0.046          47.584129     -5.2494822      212            17.157352      52.494822     -58.096583      57.073816      121.19617      113.06399      113.72729    
    470000   299.81402      0.94866933     0.94866925     0.99632344     0.047          37.001174      0.13370612     225            5.2316923     -1.3370612      0.016008056    17.01613       121.31204      113.19503      113.34502    
    480000   301.20735      0.94582717     0.94582709     0.98746723     0.048          9.36548        4.4367348      223           -40.627546     -44.367348     -2.7407404     -74.774551      121.42791      113.7665       113.00661    
    490000   299.5238       0.94829196     0.94829187     0.9520424      0.049         -12.710785     -0.66248575     215           -15.150519      6.6248575     -40.296368     -11.780046      121.54377      113.22168      113.14729    
    500000   299.20188      0.94644204     0.94644195     0.97861102     0.05          -80.159909      1.9821518      221           -31.649355     -19.821518     -32.891888     -42.234659      121.65964      113.22338      113.25878    
    510000   300.29571      0.94499167     0.94499158     0.98303913     0.051         -18.966687     -1.6354083      222            9.740621       16.354083      16.110951     -3.2431717      121.77551      113.18418      113.36394    
    520000   298.05073      0.94991356     0.94991348     0.9520424      0.052          5.1184157     -3.4948795      215           -0.48890528     34.948795     -1.2513313     -35.16418       121.89137      112.27458      113.58214    
    530000   300.77811      0.94730419     0.9473041      0.93875809     0.053          19.486075      2.7003248      212            37.09643      -27.003248      62.550578      75.741958      122.00724      113.13584      112.92063    
    540000   301.24424      0.94760375     0.94760366     0.96532671     0.054         -2.1202357     -12.208216      218            56.986836      122.08216      49.878797     -1.000444       122.12311      112.99849      112.91491    
    550000   300.05845      0.94872025     0.94872016     0.92547377     0.055         -26.842494      2.4819229      209            17.4464       -24.819229      46.312208      30.84622       122.23897      113.26558      112.40943    
    560000   299.69717      0.9498931      0.94989302     0.99189534     0.056          18.47275      -1.5584229      224            18.903128      15.584229      39.938456      1.1867001      122.35484      113.48902      111.94348    
    570000   298.94157      0.94948103     0.94948095     1.0007515      0.057          18.535482     -1.905189       226            27.613942      19.05189       28.340371      35.449566      122.4707       113.47779      111.89719    
    580000   300.10766      0.94711596     0.94711587     0.92547377     0.058         -40.57372       5.259071       209           -23.193635     -52.59071      -14.545615     -2.4445801      122.58657      113.55169      111.99764    
    590000   299.0067       0.94752063     0.94752054     0.92547377     0.059          40.96289       6.6416183      209           -9.0597582     -66.416183      20.683707      18.553202      122.70244      114.25685      111.15383    
    600000   299.21025      0.94928084     0.94928076     0.94761429     0.06           68.906995     -0.34472076     214            37.348198      3.4472076      85.198794      23.398591      122.8183       113.67929      111.40621    
    610000   302.84333      0.94793659     0.94793651     0.96089861     0.061          15.923533      0.76597702     217           -11.816269     -7.6597702     -32.906429      5.1173937      122.93417      114.01207      111.13371    
    620000   299.94787      0.94727321     0.94727313     0.9564705      0.062          39.205735      6.1648828      216           -34.716816     -61.648828     -7.7285148     -34.773106      123.05004      113.96804      111.14975    
    630000   299.84553      0.94628995     0.94628987     0.94761429     0.063          16.09007       9.7295265      214           -47.684739     -97.295265     -68.603346      22.844395      123.1659       113.83152      111.29388    
    640000   302.24708      0.94775273     0.94775265     0.96089861     0.064          21.764417     -1.9213516      217           -17.708898      19.213516     -59.61746      -12.72275       123.28177      113.86302      110.98696    
    650000   299.29881      0.94735254     0.94735246     0.94318619     0.065          32.09265       5.9406762      213           -29.687458     -59.406762     -12.430724     -17.224889      123.39763      114.01469      110.78202    
    660000   298.65936      0.9449073      0.94490722     0.96532671     0.066          49.691914      5.2350001      218           -43.583041     -52.350001     -31.298218     -47.100905      123.5135       113.58237      111.38687    
    670000   299.64737      0.94614609     0.946146       0.99189534     0.067         -44.113149      6.5565054      224           -13.267658     -65.565054      44.823712     -19.061631      123.62937      113.64197      111.07848    
    680000   301.65285      0.95009251     0.95009242     0.99189534     0.068          79.264261      4.4990795      224            17.9509       -44.990795      51.841672      47.001823      123.74523      113.57108      110.58251    
    690000   299.32534      0.94622762     0.94622754     0.98303913     0.069         -17.122359      4.3664634      222           -32.421301     -43.664634     -45.971969     -7.6273005      123.8611       113.98903      110.52358    
    700000   300.91745      0.94590562     0.94590554     0.9564705      0.07          -5.0693537      5.1747214      216           -14.415901     -51.747214      14.937158     -6.4376462      123.97697      113.99925      110.44797    
    710000   297.91714      0.9482967      0.94829661     0.96975482     0.071         -3.9864684     -0.21674502     219            14.392983      2.1674502      10.605674      30.405824      124.09283      113.4587       110.59101    
    720000   298.53722      0.94894077     0.94894068     0.94761429     0.072         -67.175225      2.5917492      214            1.3241579     -25.917492     -17.393848      47.283814      124.2087       113.92396      109.96193    
    730000   298.79158      0.94933894     0.94933886     0.96089861     0.073         -95.915024     -6.4547432      217            56.770611      64.547432      60.5514        45.213002      124.32457      114.34696      109.40714    
    740000   298.61946      0.94722499     0.94722491     0.97418292     0.074          10.728487      4.8366815      220           -10.245544     -48.366815     -9.9843927      27.614575      124.44043      114.15129      109.73699    
    750000   299.38117      0.94776461     0.94776453     0.93432998     0.075          10.32267       4.4484227      211           -20.234242     -44.484227     -18.624546      2.4060477      124.5563       114.38807      109.34568    
    760000   301.06149      0.9478815      0.94788142     0.9520424      0.076         -21.975657      5.5067428      215           -39.98222      -55.067428     -50.313409     -14.565823      124.67216      113.83273      109.76347    
    770000   300.03962      0.94811307     0.94811299     0.9564705      0.077         -30.879191      0.013940808    216            27.409051     -0.13940808     107.03733     -24.670767      124.78803      113.02821      110.41514    
    780000   300.70487      0.94911045     0.94911037     0.93875809     0.078          35.313751      4.4460536      212            14.745811     -44.460536      37.827571      50.870397      124.9039       112.56397      110.65127    
    790000   300.56509      0.94957394     0.94957386     0.94318619     0.079         -9.4230356      8.5439992      213           -62.779328     -85.439992     -25.687291     -77.210699      125.01976      112.45854      110.59835    
    800000   299.78704      0.94624334     0.94624325     0.90333325     0.08           13.321396     -0.34544911     204           -45.428792      3.4544911     -30.788241     -108.95262      125.13563      112.72394      110.6238     
    810000   301.79318      0.94993924     0.94993915     0.96532671     0.081          26.957965      3.2658067      218           -9.8163054     -32.658067      32.182293     -28.973143      125.2515       111.91316      110.88905    
    820000   299.27083      0.94548464     0.94548456     0.93432998     0.082         -36.879644      5.3409674      211           -47.927642     -53.409674     -49.500662     -40.87259       125.36736      111.64495      111.57593    
    830000   300.78349      0.94882928     0.9488292      0.92990188     0.083          12.46845       7.4878262      210           -66.193897     -74.878262     -41.059535     -82.643893      125.48323      111.65883      111.06615    
    840000   297.79435      0.94768959     0.94768951     0.93875809     0.084         -3.6082191     -1.3670946      212            50.144259      13.670946      53.556697      83.205134      125.59909      111.96036      110.79793    
    850000   300.13427      0.94765987     0.94765979     0.9564705      0.085          8.3409608      1.8845465      216           -31.611417     -18.845465     -82.812993      6.8242074      125.71496      111.8452       110.81326    
    860000   298.60486      0.9481245      0.94812442     0.98746723     0.086          22.010385      6.4839343      223           -27.303588     -64.839343      27.13309      -44.204512      125.83083      111.96378      110.53978    
    870000   299.26132      0.9502568      0.95025672     0.96975482     0.087          10.146661     -0.93649042     219            11.913425      9.3649042     -16.031153      42.406523      125.94669      111.19558      110.95152    
    880000   299.64648      0.94905148     0.9490514      0.94318619     0.088         -53.625243     -6.3137853      213            29.056172      63.137853      49.672452     -25.64179       126.06256      111.12831      111.05751    
    890000   297.71788      0.94894345     0.94894336     0.9564705      0.089         -53.626871     -1.9598975      216           -7.4956909      19.598975     -15.77629      -26.309758      126.17843      111.20035      110.89627    
    900000   297.16571      0.94714193     0.94714185     0.96089861     0.09           11.329192      3.1213983      217           -25.667394     -31.213983     -58.899276      13.111077      126.29429      110.8178       111.38847    
    910000   301.28362      0.94749944     0.94749935     0.9520424      0.091         -37.766522     -0.62457205     215            27.604277      6.2457205      3.1634783      73.403631      126.41016      110.61324      111.45011    
    920000   298.94637      0.94932386     0.94932378     0.91661757     0.092         -3.8056368     -5.7678758      207            60.205661      57.678758      72.768957      50.169269      126.52603      110.38747      111.36136    
    930000   301.21778      0.94661608     0.946616       0.9564705      0.093          22.210542      0.90546132     216           -37.159581     -9.0546132     -56.465571     -45.958558      126.64189      110.81831      111.14394    
    940000   299.48681      0.94658887     0.94658879     0.96532671     0.094         -4.8062844      5.809838       218           -42.628537     -58.09838      -34.221838     -35.565395      126.75776      111.34337      110.52188    
    950000   299.79969      0.94541428     0.9454142      0.92104567     0.095         -24.681403     -2.2376329      208            9.2673536      22.376329      15.601846     -10.176114      126.87362      111.01205      110.8881     
    960000   300.20161      0.94720806     0.94720798     0.94318619     0.096          14.678307     -2.7683586      213            16.076568      27.683586      16.332109      4.2140089      126.98949      111.43664      110.1558     
    970000   297.91034      0.94865653     0.94865645     0.92547377     0.097          7.6666207      7.5547629      209           -69.137291     -75.547629     -39.674601     -92.189642      127.10536      111.12683      110.1937     
    980000   299.96005      0.94835196     0.94835187     0.92990188     0.098         -35.219036      1.2027344      210            34.793752     -12.027344      15.784973      100.62363      127.22122      111.45299      109.80642    
    990000   299.526        0.94772623     0.94772615     0.9564705      0.099         -6.5881516     -4.057383       216           -13.3417        40.57383      -92.103832      11.504902      127.33709      111.61228      109.62226    
   1000000   300.16903      0.94777184     0.94777176     0.92990188     0.1           -80.100818      1.9462501      210           -5.0825889     -19.462501     -16.445729      20.660463      127.45296      110.65556      110.46421    
   1010000   299.7341       0.95078893     0.95078885     0.96532671     0.101          26.544618      4.7633327      218            16.190287     -47.633327      34.101226      62.102964      127.56882      110.51855      110.15005    
   1020000   299.85847      0.94766868     0.9476686      0.9520424      0.102         -11.022585      5.5770278      215           -30.905745     -55.770278     -3.7804225     -33.166534      127.68469      110.16155      110.77025    
   1030000   299.3198       0.95024749     0.9502474      0.94318619     0.103         -0.28785753     3.0454621      213           -29.346997     -30.454621     -21.700379     -35.88599       127.80055      110.5894       109.94249    
   1040000   301.0361       0.94737762     0.94737754     0.98303913     0.104          1.3166775     -3.3381815      222            14.41845       33.381815     -1.7820864      11.655621      127.91642      110.69545      110.0701     
   1050000   302.75512      0.94679726     0.94679718     0.97861102     0.105         -27.953524     -0.8015304      221            47.663222      8.015304       52.212235      82.762128      128.03229      110.91867      109.81645    
   1060000   302.44808      0.95043023     0.95043014     1.0007515      0.106         -39.709575     -7.1101707      226            33.700375      71.101707      55.028369     -25.028951      128.14815      111.24699      108.97521    
   1070000   298.4768       0.94683683     0.94683675     0.96532671     0.107         -38.2783        4.2783169      218           -21.613572     -42.783169     -56.605716      34.54817       128.26402      111.40187      109.13802    
   1080000   301.58795      0.949804       0.94980392     0.96089861     0.108          5.8081719      1.2690118      217           -14.043172     -12.690118     -33.988732      4.5493349      128.37989      110.78453      109.30461    
   1090000   299.6339       0.94858303     0.94858295     0.9520424      0.109          10.006469     -2.2781281      215           -14.582246      22.781281     -17.648735     -48.879284      128.49575      110.54698      109.58157    
   1100000   299.63443      0.94989248     0.9498924      1.0007515      0.11          -76.759307     -2.7396018      226            24.564358      27.396018      44.483902      1.8131522      128.61162      110.46664      109.41144    
   1110000   300.1967       0.94898499     0.9489849      0.93875809     0.111         -34.871803     -9.0012574      212            32.590278      90.012574     -17.955528      25.713788      128.72749      110.06255      109.81922    
   1120000   299.10009      0.94923681     0.94923673     0.94761429     0.112          10.946979      4.1049518      214            8.286186      -41.049518      41.962298      23.945778      128.84335      109.76795      109.98575    
   1130000   299.01003      0.94852562     0.94852554     0.9564705      0.113          8.8839865     -1.9947554      216           -8.6016426      19.947554     -38.493357     -7.2591252      128.95922      109.1836       110.55788    
   1140000   299.38166      0.9464736      0.94647352     0.93875809     0.114          26.298505     -1.9221154      212           -6.5236943      19.221154     -25.455744     -13.336493      129.07508      109.917        109.9595     
   1150000   300.05174      0.9467283      0.94672821     0.94761429     0.115          93.033232      7.6722449      214           -44.853059     -76.722449     -17.876986     -39.959743      129.19095      110.19428      109.55496    
   1160000   299.39902      0.94696313     0.94696305     0.91218946     0.116         -33.799669     -3.9357047      206            0.61487831     39.357047      11.76051      -49.272922      129.30682      109.85443      109.76819    
   1170000   299.97105      0.94917708     0.949177       0.93432998     0.117         -34.171707     -2.7171734      211            32.217736      27.171734      32.667611      36.813862      129.42268      109.67623      109.59189    
   1180000   299.06998      0.94884306     0.94884298     0.93875809     0.118          13.059055      4.9236973      212           -17.924996     -49.236973     -12.260023      7.7220086      129.53855      109.96892      109.24087    
   1190000   299.92308      0.94781449     0.94781441     0.93432998     0.119          12.528701      4.9805663      211           -23.460423     -49.805663     -2.96137       -17.614237      129.65442      109.35252      109.87758    
   1200000   300.06986      0.95063989     0.9506398      0.96532671     0.12          -0.61898583     5.7866018      218           -13.993744     -57.866018      35.483724     -19.59894       129.77028      109.57518      109.23079    
   1210000   299.67289      0.94855955     0.94855947     0.96532671     0.121          47.403683     -0.40616015     218           -1.5912552      4.0616015     -36.394157      27.558789      129.88615      109.63473      109.31329    
   1220000   301.0451       0.95023442     0.95023433     0.94761429     0.122         -60.235797      2.9388553      214            19.208482     -29.388553      46.233977      40.780021      130.00202      109.36764      109.28961    
   1230000   300.52867      0.94936731     0.94936723     0.93875809     0.123          24.742035      5.6816583      212           -19.525362     -56.816583      13.619482     -15.378984      130.11788      109.54588      109.1142     
   1240000   299.72807      0.94943828     0.9494382      0.96089861     0.124         -11.386311     -3.2499795      217            4.6623757      32.499795      25.206874     -43.719542      130.23375      109.53245      109.02233    
   1250000   302.04082      0.94674873     0.94674865     0.98303913     0.125         -6.6630456     -3.7113786      222           -7.206061       37.113786      14.182689     -72.914658      130.34961      109.6025       109.16505    
   1260000   299.13556      0.94466765     0.94466757     0.98746723     0.126         -31.488871      7.3977253      223           -19.774478     -73.977253     -67.283582      81.937402      130.46548      109.27615      109.63482    
   1270000   301.06797      0.9480481      0.94804801     0.93432998     0.127          55.964482     -1.3029039      211           -2.257877       13.029039     -7.6237062     -12.178964      130.58135      108.90329      109.52066    
   1280000   299.32165      0.94737124     0.94737116     0.98746723     0.128         -15.357134      9.5600272      223           -51.388671     -95.600272     -38.642817     -19.922925      130.69721      108.83359      109.57187    
   1290000   300.12122      0.94778672     0.94778664     0.96532671     0.129         -36.664644      0.57229365     218           -27.645167     -5.7229365     -46.001638     -31.210926      130.81308      109.0802       109.17944    
   1300000   299.68625      0.94887272     0.94887264     0.9564705      0.13          -2.3932481      0.89026031     216            31.281792     -8.9026031      28.963967      73.784011      130.92895      109.47829      108.56177    
   1310000   301.64105      0.94851622     0.94851613     0.92547377     0.131          46.191326      1.2246483      209            2.1802418     -12.246483      12.973993      5.8132153      131.04481      109.81222      108.17659    
   1320000   297.09924      0.94677191     0.94677182     0.93875809     0.132         -18.905333     -1.6317065      212            3.5807998      16.317065      41.290801     -46.865467      131.16068      109.86635      108.2268     
   1330000   301.37853      0.94690684     0.94690676     0.96532671     0.133         -33.292741      3.6091798      218            3.9475556     -36.091798      21.799857      26.134608      131.27654      109.86388      108.11831    
   1340000   298.79634      0.94879425     0.94879417     0.9520424      0.134          19.667251     -5.2793001      215            20.202331      52.793001      16.498455     -8.6844634      131.39241      109.38835      108.27674    
   1350000   300.98428      0.94872474     0.94872465     0.91661757     0.135          38.813701      6.0364696      207           -39.120864     -60.364696     -64.510595      7.5126984      131.50828      109.22897      108.34713    
   1360000   301.08419      0.94562559     0.94562551     0.92104567     0.136          1.7734582      4.2037149      208           -5.4046725     -42.037149      19.615782      6.2073495      131.62414      109.4823       108.35523    
   1370000   300.40227      0.94877518     0.9487751      0.93432998     0.137          0.5512723     -2.0144834      211           -15.499679      20.144834     -27.89775      -38.746119      131.74001      109.30404      108.07652    
   1380000   300.36461      0.94840284     0.94840276     1.0140359      0.138         -38.330357      5.4305529      229           -37.355756     -54.305529     -14.709249     -43.05249       131.85588      109.98304      107.35703    
   1390000   299.70243      0.94720248     0.9472024      0.93875809     0.139          23.756333      6.8615948      212           -21.57301      -68.615948     -11.1428        15.039717      131.97174      109.51073      107.86191    
   1400000   299.99632      0.94843795     0.94843787     0.96089861     0.14          -41.366161     -3.8791968      217            18.891459      38.791968      44.212361     -26.329952      132.08761      109.53859      107.59954    
   1410000   299.19852      0.94634861     0.94634852     0.93875809     0.141         -19.456209     -3.5772344      212            17.982843      35.772344      14.390486      3.7856999      132.20348      109.77949      107.50616    
   1420000   300.99494      0.94723575     0.94723567     0.97418292     0.142         -2.6132921      5.8292608      220           -30.431473     -58.292608      30.410757     -63.412569      132.31934      110.0377       107.0596     
   1430000   300.58641      0.94989037     0.94989029     0.96089861     0.143         -12.5876        3.2955085      217           -21.882848     -32.955085     -12.89252      -19.80094       132.43521      110.08455      106.62161    
   1440000   299.92969      0.94663834     0.94663826     0.93432998     0.144          65.188082      2.4409048      211           -9.1482692     -24.409048      12.929312     -15.965071      132.55107      110.0632       106.91511    
   1450000   299.6622       0.94560946     0.94560938     0.93432998     0.145         -1.5409944      2.4559535      211           -22.653915     -24.559535     -23.073305     -20.328904      132.66694      110.04069      106.95984    
   1460000   299.20857      0.95140852     0.95140844     0.96532671     0.146         -1.7592102     -3.4905232      218            23.130222      34.905232     -0.41741831     34.902853      132.78281      109.87554      106.37478    
   1470000   301.62134      0.9477277      0.94772762     0.9564705      0.147          11.983852     -0.93884704     216            2.768943       9.3884704     -40.149863      39.068221      132.89867      110.29921      106.28499    
   1480000   299.95272      0.94958694     0.94958685     0.94318619     0.148          13.054471     -2.59043        213            24.388924      25.9043       -27.631916      74.894388      133.01454      110.5987       105.69749    
   1490000   301.34886      0.94901672     0.94901664     0.97418292     0.149          61.318265      2.8058646      220            4.0081633     -28.058646      21.338411      18.744724      133.13041      110.75318      105.52157    
   1500000   298.6079       0.94573964     0.94573955     0.90333325     0.15          -28.444612      4.7239049      204           -27.866534     -47.239049     -11.363994     -24.996559      133.24627      110.82806      105.72365    
   1510000   298.67124      0.94954427     0.94954419     0.94318619     0.151         -24.818869      0.050635686    213            21.108385     -0.50635686     16.211821      47.619692      133.36214      110.90836      105.13239    
   1520000   303.14535      0.94993555     0.94993547     0.94761429     0.152          45.44392       2.9334542      214           -5.2096835     -29.334542      33.947422     -20.241931      133.478        110.81471      105.08659    
   1530000   301.52146      0.94703304     0.94703295     0.94761429     0.153          12.214792      6.0140259      214           -31.695961     -60.140259     -12.245672     -22.701952      133.59387      110.83069      105.30206    
   1540000   298.45488      0.94815647     0.94815639     0.92104567     0.154          3.8661657      2.2109354      208           -14.997359     -22.109354     -29.295763      6.4130397      133.70974      110.93462      104.98769    
   1550000   299.00358      0.94784958     0.9478495      0.97418292     0.155         -75.714998      3.2706748      220           -36.310791     -32.706748     -22.229989     -53.995635      133.8256       110.52402      105.32058    
   1560000   299.44415      0.94727849     0.9472784      0.94318619     0.156         -33.666469     -2.3107874      213            18.220816      23.107874      16.158422      15.396153      133.94147      110.68905      105.13593    
   1570000   300.29877      0.94930254     0.94930245     0.94761429     0.157          10.719579      6.1275131      214           -2.3284008     -61.275131     -8.7883618      63.078291      134.05734      110.03321      105.44586    
   1580000   299.48462      0.94791624     0.94791616     0.9564705      0.158         -69.651747      0.58082911     216           -21.963703     -5.8082911     -56.831309     -3.2515088      134.1732       108.79569      106.70901    
   1590000   298.91204      0.94889144     0.94889136     0.92104567     0.159         -5.1179006      3.8653705      208           -5.0868775     -38.653705     -26.199112      49.592185      134.28907      109.05269      106.25637    
   1600000   299.39487      0.94877675     0.94877666     0.93875809     0.16           28.559544      5.2192941      212            5.8556618     -52.192941      58.387193      11.372733      134.40494      108.88364      106.34245    
   1610000   298.46049      0.94856523     0.94856514     0.96089861     0.161          82.99671       4.1231012      217           -40.650238     -41.231012     -28.501207     -52.218494      134.5208       108.56177      106.58964    
   1620000   303.87391      0.94620401     0.94620393     0.9520424      0.162         -3.4756551      4.8442229      215           -48.925358     -48.442229     -53.162244     -45.171602      134.63667      108.16822      107.15211    
   1630000   300.90088      0.94680595     0.94680587     0.91661757     0.163          49.817483      0.51641318     207           -8.0044963     -5.1641318      15.69485      -34.544207      134.75253      108.30079      106.86094    
   1640000   302.27661      0.94799343     0.94799334     0.91661757     0.164          25.193601      5.8744969      207           -24.106216     -58.744969     -3.0179494     -10.55573       134.8684       108.02206      106.91055    
   1650000   300.93839      0.94660278     0.9466027      0.94318619     0.165          22.083774      2.0509077      213           -57.260309     -20.509077     -89.881487     -61.390364      134.98427      107.42109      107.57418    
   1660000   301.34074      0.94770367     0.94770358     0.9520424      0.166         -32.710585     -7.130611       215            1.0523401      71.30611       7.2233127     -75.372403      135.10013      107.07952      107.69953    
   1670000   300.72023      0.94935164     0.94935156     0.9564705      0.167         -23.045026     -2.7158451      216            23.100011      27.158451     -2.521784       44.663366      135.216        107.03256      107.46757    
   1680000   299.15833      0.94994101     0.94994093     0.9564705      0.168          35.714292      3.7598826      216            3.1339973     -37.598826      19.94159       27.059228      135.33187      107.27415      107.06728    
   1690000   299.67889      0.94974238     0.9497423      0.96089861     0.169         -51.916711      5.0225772      217           -46.689136     -50.225772     -47.254871     -42.586765      135.44773      107.67562      106.59911    
   1700000   300.43571      0.95000964     0.95000955     0.9520424      0.17          -18.072785      2.086592       215           -20.239655     -20.86592      -91.718247      51.865201      135.5636       107.52662      106.62559    
   1710000   300.25014      0.94746355     0.94746347     0.93875809     0.171          31.264476      0.044757731    212           -8.8970571     -0.44757731     19.753506     -45.9971        135.67947      107.1584       107.18789    
   1720000   300.54932      0.94782466     0.94782457     0.93875809     0.172          12.532862      2.5589995      212           -8.0387277     -25.589995      37.463505     -35.989693      135.79533      107.48608      106.72926    
   1730000   299.97012      0.94768763     0.94768755     0.96975482     0.173         -19.430754      1.6992437      219            0.066075999   -16.992437      5.227181       11.963484      135.9112       107.82468      106.31877    
   1740000   299.87629      0.94839427     0.94839419     0.94318619     0.174          8.7436182      3.722077       213           -30.252045     -37.22077      -31.344273     -22.191092      136.02706      107.61792      106.35299    
   1750000   300.33586      0.94755483     0.94755474     0.92990188     0.175          3.7385406      5.0092177      210           -10.049411     -50.092177     -16.745046      36.688989      136.14293      107.81688      106.16036    
   1760000   301.23837      0.94712977     0.94712969     0.92104567     0.176         -26.54087      -1.4556548      208            27.102394      14.556548      33.879664      32.870969      136.2588       107.36484      106.56447    
   1770000   299.93031      0.94616942     0.94616934     0.96089861     0.177          1.0301959      8.9089915      217           -52.896208     -89.089915      22.669633     -92.268342      136.37466      107.85075      106.10181    
   1780000   298.52023      0.94626224     0.94626216     0.96532671     0.178          3.1129581     -0.26304677     218           -10.791243      2.6304677     -66.391348      31.387152      136.49053      108.39606      105.46808    
   1790000   301.48093      0.94762344     0.94762336     0.92990188     0.179          14.81208      -0.45585358     210           -14.620549      4.5585358     -46.276556     -2.143626       136.6064       107.74837      105.85979    
   1800000   303.26505      0.94717195     0.94717186     0.94761429     0.18           7.3722469      3.762385       214           -18.467349     -37.62385      -10.833377     -6.9448202      136.72226      107.79624      105.7735     
   1810000   299.93192      0.9480658      0.94806572     0.9520424      0.181          18.942755      1.771691       215           -24.815149     -17.71691      -60.850282      4.1217453      136.83813      107.82798      105.55322    
   1820000   299.42373      0.94877544     0.94877536     0.93432998     0.182          21.167552      3.1745728      211           -3.1065392     -31.745728      7.0934447      15.332665      136.95399      107.22075      105.98187    
   1830000   300.64323      0.94946318     0.9494631      0.94761429     0.183         -25.971474     -3.0573956      214            26.566096      30.573956      7.536295       41.588035      137.06986      106.82248      106.21009    
   1840000   300.11221      0.94812766     0.94812757     0.94318619     0.184          19.016483      1.802697       213            14.379512     -18.02697       62.106396     -0.94088941     137.18573      107.23249      105.86354    
   1850000   299.98605      0.94910178     0.9491017      0.93432998     0.185          0.74821278     5.3719682      211           -0.33266784    -53.719682      39.198411      13.523268      137.30159      107.17272      105.72457    
   1860000   300.36494      0.94730418     0.94730409     0.92990188     0.186         -7.8837346      7.5825508      210           -23.036937     -75.825508      3.959429       2.7552691      137.41746      106.98104      106.02551    
   1870000   298.80004      0.9464197      0.94641961     0.94761429     0.187         -6.7446891      0.48416249     214           -9.3410093     -4.8416249     -11.352656     -11.828747      137.53333      107.05235      105.96456    
   1880000   300.43411      0.94790953     0.94790944     0.92990188     0.188          4.6107936      2.5110217      210            29.607253     -25.110217      23.146686      90.78529       137.64919      106.41135      106.34573    
   1890000   301.01439      0.94886892     0.94886884     0.93875809     0.189          72.966989      4.4732992      212            10.744272     -44.732992      44.041564      32.924245      137.76506      106.50538      106.05513    
   1900000   299.4269       0.94938368     0.94938359     0.93875809     0.19           12.869938     -2.7380747      212            38.063832      27.380747      77.483659      9.327091       137.88093      106.59402      105.82049    
   1910000   299.95125      0.9529422      0.95294212     0.92547377     0.191         -47.045585     -9.5501807      209            43.080436      95.501807      19.487138      14.252363      137.99679      106.15332      105.77412    
   1920000   299.69435      0.94725137     0.94725128     0.96532671     0.192         -55.548024     -1.0151769      218            35.580828      10.151769      44.591618      51.999096      138.11266      106.61752      105.85741    
   1930000   300.27315      0.94805702     0.94805694     0.9520424      0.193         -54.446797     -2.8176286      215            10.846337      28.176286     -22.334407      26.697132      138.22852      106.80444      105.49385    
   1940000   298.58164      0.94823022     0.94823014     0.99189534     0.194         -61.375213     -1.1143893      224            5.8764421      11.143893      26.994622     -20.509189      138.34439      106.13292      106.05303    
   1950000   298.99049      0.94866554     0.94866546     0.96532671     0.195         -21.71618       0.63035878     218            14.912869     -6.3035878     -15.149476      66.191671      138.46026      106.81978      105.23462    
   1960000   299.98802      0.94938568     0.9493856      0.96089861     0.196          6.4838046     -1.5755754      217           -30.145444      15.755754     -35.556578     -70.635509      138.57612      106.41401      105.4675     
   1970000   299.64918      0.94516978     0.9451697      0.97418292     0.197         -47.308284      3.6102492      220           -18.393119     -36.102492      6.6446427     -25.721507      138.69199      106.59355      105.67115    
   1980000   300.59027      0.94843178     0.9484317      0.9520424      0.198         -28.169064      0.43660976     215           -2.0266949     -4.3660976     -29.266658      27.552671      138.80786      106.56972      105.24333    
   1990000   300.98397      0.94823056     0.94823048     0.97861102     0.199         -26.834504      3.1849659      221           -14.630611     -31.849659      14.26401      -26.306183      138.92372      106.46624      105.28009    
   2000000   298.21368      0.94710422     0.94710413     0.93432998     0.2           -19.372388      4.1955291      211           -4.0284027     -41.955291     -35.700237      65.570321      139.03959      106.57723      105.20779    
   2010000   299.67898      0.94657872     0.94657864     0.92990188     0.201          49.916345      3.1897685      210           -10.511745     -31.897685     -41.477184      41.839633      139.15545      106.61763      105.13869    
   2020000   299.01768      0.94699227     0.94699219     0.92104567     0.202          24.722117     -2.6940744      208           -7.7717182      26.940744     -39.78298      -10.472918      139.27132      106.60119      105.02154    
   2030000   297.65442      0.94815945     0.94815937     0.92547377     0.203          17.850453      4.3969015      209           -36.865939     -43.969015     -0.5427097     -66.086093      139.38719      106.68002      104.72762    
   2040000   296.96414      0.94819894     0.94819885     0.9564705      0.204          86.705839      7.2554385      216           -43.817073     -72.554385      10.930895     -69.827728      139.50305      106.91769      104.40368    
   2050000   299.84681      0.94686266     0.94686257     0.94318619     0.205          8.513527       7.4960095      213           -23.388138     -74.960095      13.224509     -8.4288261      139.61892      106.99908      104.38479    
   2060000   300.26305      0.94655519     0.9465551      0.96975482     0.206          34.061911     -0.24075656     219            9.7712098      2.4075656      16.104162      10.801902      139.73479      107.13377      104.20096    
   2070000   300.59228      0.9469727      0.94697262     0.96532671     0.207          44.780073      0.82802071     218           -31.497952     -8.2802071     -66.595667     -19.617983      139.85065      106.77857      104.41491    
   2080000   300.97607      0.94965456     0.94965447     0.92990188     0.208          18.110966      5.8454995      210           -13.0144       -58.454995     -4.7193434      24.131139      139.96652      106.67323      104.13658    
   2090000   301.18123      0.94682427     0.94682419     0.93432998     0.209         -8.9534476      1.209553       211            4.9254684     -12.09553       25.512031      1.3599051      140.08239      107.25638      103.79406    
   2100000   300.80252      0.94730678     0.94730669     0.96532671     0.21           68.605434      0.29534994     218            4.570478      -2.9534994      44.188849     -27.523916      140.19825      106.61309      104.2809     
   2110000   300.83196      0.946828       0.94682791     0.94318619     0.211         -28.547894     -5.1851305      213           -3.7645526      51.851305     -127.94827      64.803304      140.31412      107.10887      103.76494    
   2120000   298.4153       0.9477239      0.94772382     0.9564705      0.212          33.662733     -0.39863454     216            1.767659       3.9863454      24.421851     -23.105219      140.42998      106.54674      104.1278     
   2130000   301.51003      0.9476257      0.94762562     0.92990188     0.213          10.338347      6.4889649      210           -15.324579     -64.889649     -13.911514      32.827425      140.54585      106.95969      103.65101    
   2140000   300.31555      0.94748935     0.94748926     0.98746723     0.214          14.912666     -2.7961304      223            16.765573      27.961304      39.948678     -17.613262      140.66172      106.71692      103.81617    
   2150000   300.95343      0.94675356     0.94675347     0.93875809     0.215         -14.873633      3.7593202      212           -22.419355     -37.593202     -17.742457     -11.922407      140.77758      106.90424      103.62944    
   2160000   301.69059      0.94840775     0.94840766     0.92547377     0.216          0.84703502     2.1771338      209           -8.4583822     -21.771338     -41.556647      37.952838      140.89345      106.74925      103.51369    
   2170000   299.09735      0.94779986     0.94779978     0.94318619     0.217          69.376031      13.665003      213           -69.936246     -136.65003     -57.756162     -15.402544      141.00932      106.82342      103.42312    
   2180000   301.06818      0.94628421     0.94628413     0.94761429     0.218          6.3072776     -1.7868018      214           -5.6632154      17.868018     -15.053517     -19.804148      141.12518      106.12415      104.18572    
   2190000   300.97133      0.94785389     0.9478538      0.92547377     0.219          7.0177404     -2.3545625      209           -1.7140351      23.545625     -31.320951      2.6332201      141.24105      105.99363      104.05584    
   2200000   299.94087      0.94799181     0.94799173     0.94761429     0.22          -21.783312      6.6473652      214           -40.687128     -66.473652     -33.969137     -21.618594      141.35691      106.1096       103.8418     
   2210000   299.2532       0.94754355     0.94754347     0.94318619     0.221         -39.879443     -0.46645788     213           -20.588995      4.6645788     -53.997562     -12.434002      141.47278      105.72079      104.18761    
   2220000   299.18029      0.94723181     0.94723173     0.9564705      0.222          24.984102     -5.5643867      216            24.68242       55.643867      59.721184     -41.317791      141.58865      105.24741      104.605      
   2230000   300.98805      0.9495929      0.94959282     0.9564705      0.223         -32.674415     -0.477579       216           -7.0538308      4.77579       -36.223423      10.286141      141.70451      104.9729       104.53223    
   2240000   300.17188      0.94682942     0.94682933     0.94318619     0.224         -6.5096924      3.2062854      213           -4.0171314     -32.062854     -13.968317      33.979776      141.82038      105.16044      104.56486    
   2250000   299.83664      0.94842977     0.94842969     0.9520424      0.225          40.307264      3.0384414      215           -13.326478     -30.384414     -18.795504      9.2004831      141.93625      105.15833      104.3053     
   2260000   301.91103      0.94803533     0.94803525     0.91218946     0.226         -2.8419316      3.5124713      206           -22.549392     -35.124713     -18.248584     -14.274878      142.05211      105.06626      104.35495    
   2270000   301.70691      0.94860669     0.9486066      0.93432998     0.227          13.957286     -1.9792151      211            42.150839      19.792151      96.871115      9.7892515      142.16798      104.7651       104.50665    
   2280000   301.73933      0.94657507     0.94657499     0.94318619     0.228         -26.444534      0.8582221      213           -11.567085     -8.582221       29.547522     -55.666555      142.28385      104.46378      104.94751    
   2290000   299.93671      0.94796482     0.94796474     0.94318619     0.229          33.717973     -1.6963878      213           -7.7417278      16.963878      29.491348     -69.680409      142.39971      103.96946      105.20623    
   2300000   297.13211      0.94860387     0.94860378     0.96089861     0.23          -27.386459      0.16880883     217           -4.5461121     -1.6880883      1.2540096     -13.204258      142.51558      103.92109      105.09877    
   2310000   301.41322      0.95037533     0.95037524     0.92990188     0.231          55.388231     -0.59766847     210            5.544685       5.9766847     -6.3698827      17.027253      142.63144      103.28578      105.46238    
   2320000   299.75639      0.94846507     0.94846499     0.93875809     0.232          5.5936473      1.9917549      212            37.881319     -19.917549      58.234992      75.326515      142.74731      102.94418      105.93939    
   2330000   299.47933      0.94689325     0.94689317     0.96089861     0.233         -35.303394      4.8922388      217            15.26178      -48.922388      70.004991      24.702738      142.86318      102.95352      106.01957    
   2340000   297.45768      0.94873254     0.94873246     0.94318619     0.234          8.0803779      5.4091944      213            14.419924     -54.091944      48.504861      48.846854      142.97904      102.82751      105.85785    
   2350000   300.67227      0.94596331     0.94596322     0.96532671     0.235          11.375708     -6.4292995      218            45.266048      64.292995      19.233976      52.271173      143.09491      103.30024      105.59631    
   2360000   300.02736      0.94651598     0.9465159      0.96089861     0.236          55.128639      11.667288      217           -39.471651     -116.67288      15.911607     -17.653677      143.21078      103.15926      105.59338    
   2370000   299.5763       0.94831025     0.94831017     0.97418292     0.237         -51.409291     -1.4622399      220           -24.101667      14.622399     -9.9741897     -76.953211      143.32664      103.59356      104.8669     
   2380000   298.6389       0.95037697     0.95037689     0.9564705      0.238         -61.203816     -0.70508588     216            31.807684      7.0508588      18.304748      70.067446      143.44251      103.5618       104.58639    
   2390000   300.24196      0.94968836     0.94968828     0.97418292     0.239         -1.8675062     -0.44678006     220            44.839742      4.4678006      97.972665      32.078761      143.55838      103.07123      105.0755     
   2400000   300.20194      0.94835657     0.94835649     0.93432998     0.24          -46.329225     -8.743489       211            55.688356      87.43489       42.250836      37.379342      143.67424      103.54409      104.65805    
   2410000   298.33161      0.94787835     0.94787827     0.94318619     0.241          40.850894      0.97372636     213           -8.1368456     -9.7372636     -32.180693      17.50742       143.79011      103.47258      104.69879    
   2420000   300.55303      0.94907391     0.94907382     0.94761429     0.242         -23.926983     -2.283041       214            29.688756      22.83041       19.401311      46.834547      143.90597      102.99925      104.96286    
   2430000   298.77278      0.94870477     0.94870469     0.94761429     0.243          43.424079      0.93981966     214            24.548821     -9.3981966      17.342532      65.702127      144.02184      102.9917       104.92691    
   2440000   300.21851      0.94580521     0.94580513     0.97418292     0.244         -0.1015959      13.022694      220           -56.959875     -130.22694     -36.499848     -4.1528358      144.13771      103.61615      104.53021    
   2450000   302.14602      0.94905199     0.94905191     0.99632344     0.245          30.276848      5.525255       225           -14.622558     -55.25255       43.417075     -32.0322        144.25357      103.09415      104.61596    
   2460000   298.80494      0.94937613     0.94937605     0.92547377     0.246         -1.1763436     -5.7734341      209            67.343101      57.734341      74.6537        69.641261      144.36944      102.63778      104.96094    
   2470000   301.10752      0.94864187     0.94864178     0.96975482     0.247         -47.483162     -1.9827365      219           -15.502111      19.827365     -18.381668     -47.952031      144.48531      102.797        104.79539    
   2480000   298.82529      0.94575091     0.94575082     0.94761429     0.248          14.901126      14.027921      214           -83.979997     -140.27921     -37.853786     -73.806993      144.60117      103.0029       104.82154    
   2490000   300.98281      0.94623118     0.9462311      0.9564705      0.249          22.560545      1.9355816      216            18.743691     -19.355816      28.545517      47.041371      144.71704      103.12194      104.56361    
   2500000   301.44504      0.9486223      0.94862222     0.96089861     0.25           4.5792621     -4.3790676      217            32.894416      43.790676      33.032187      21.860384      144.8329       102.7395       104.60454    
   2510000   300.93164      0.9454899      0.94548982     1.0096078      0.251         -25.638495      5.356258       228           -24.658341     -53.56258       4.0977603     -24.510204      144.94877      103.30935      104.28876    
   2520000   298.91124      0.94586894     0.94586886     0.94318619     0.252         -42.338287     -1.1354813      213           -9.4457277      11.354813     -1.5889805     -38.103015      145.06464      103.09916      104.37606    
   2530000   299.22139      0.94858838     0.94858829     0.92104567     0.253          57.563675     -2.6446798      208            36.172905      26.446798      54.969403      27.102514      145.1805       103.05731      104.036      
   2540000   299.97085      0.94681471     0.94681463     0.94761429     0.254         -2.1507894      1.8827988      214           -26.0194       -18.827988     -43.543176     -15.687036      145.29637      102.25957      104.96024    
   2550000   300.78373      0.94625158     0.9462515      0.96532671     0.255         -51.355275      0.072609297    218           -10.656291     -0.72609297    -54.817998      23.575218      145.41224      102.15212      105.04941    
   2560000   298.60189      0.94916127     0.94916119     0.9564705      0.256         -8.1545653     -4.3997843      216            29.369996      43.997843      51.327773     -7.2156284      145.5281       102.10217      104.69519    
   2570000   300.87037      0.94927711     0.94927703     0.96532671     0.257         -9.0150602      5.8066277      218           -22.405866     -58.066277     -33.586576      24.435256      145.64397      102.1341       104.56642    
   2580000   300.30207      0.94766141     0.94766132     0.9520424      0.258          17.66912       8.2262608      215           -2.0608551     -82.262608      30.839111      45.240932      145.75984      102.60268      104.18346    
   2590000   301.07999      0.94942395     0.94942386     0.94761429     0.259          1.098702      -1.1107551      214            7.9942279      11.107551      13.988924     -1.1137914      145.8757       102.15051      104.36741    
   2600000   299.09943      0.94687918     0.9468791      0.92990188     0.26          -14.908759      9.9894293      210            4.3496374     -99.894293      67.416799      45.526406      145.99157      102.1495       104.56588    
   2610000   300.28249      0.94495485     0.94495477     0.93875809     0.261          28.362497     -2.7986073      212            19.301277      27.986073      52.210154     -22.292396      146.10743      102.1913       104.65289    
   2620000   299.02597      0.94640587     0.94640579     0.94318619     0.262         -15.969203     -0.63092667     213            25.080254      6.3092667      21.092401      47.839095      146.2233       101.69554      104.91864    
   2630000   300.92093      0.9502747      0.95027461     0.94318619     0.263         -69.633101      7.0841796      213           -18.079643     -70.841796      70.157487     -53.554622      146.33917      101.74829      104.35462    
   2640000   300.13779      0.9459025      0.94590242     0.9564705      0.264         -41.436433      3.2517499      216            2.5215869     -32.517499      40.603547     -0.52128809     146.45503      102.26618      104.22354    
   2650000   300.61769      0.94645284     0.94645276     0.97861102     0.265         -25.686052      0.65553599     221           -2.8060285     -6.5553599     -8.2436571      6.3809316      146.5709       101.99488      104.35745    
   2660000   299.66676      0.94774422     0.94774414     0.9564705      0.266          53.007011      1.4621462      216            39.063989     -14.621462      61.229924      70.583504      146.68677      102.35954      103.76196    
   2670000   298.60635      0.94736595     0.94736586     0.89890515     0.267         -15.701468     -6.3298309      203            34.932565      63.298309     -4.414125       45.91351       146.80263      102.20482      103.87847    
   2680000   300.19942      0.94551409     0.94551401     0.96089861     0.268          14.109267      0.35637095     217            26.508806     -3.5637095      25.478342      57.611787      146.9185       102.31863      103.88416    
   2690000   299.95335      0.94679074     0.94679066     0.99632344     0.269         -6.1298343      1.7654144      225            34.005959     -17.654144      81.005056      38.666967      147.03436      101.93612      104.05132    
   2700000   300.66399      0.94722375     0.94722367     0.94761429     0.27           14.705782      2.2713091      214           -4.7893265     -22.713091      2.2109313      6.1341803      147.15023      102.01601      103.84048    
   2710000   299.93024      0.9471002      0.94710012     0.97861102     0.271         -31.384281     -0.36566182     221            14.101957      3.6566182      71.309408     -32.660156      147.2661       102.58026      103.20151    
   2720000   299.19085      0.94764367     0.94764359     0.99632344     0.272         -48.878534     -0.24983531     225           -14.91807       2.4983531     -3.6206425     -43.631922      147.38196      102.01848      103.62876    
   2730000   298.76983      0.94922521     0.94922512     0.94761429     0.273         -11.460327      1.917431       214            57.055376     -19.17431       77.958401      112.38204      147.49783      102.15365      103.23804    
   2740000   300.0918       0.94805949     0.94805941     0.97861102     0.274          72.202456     -5.8580733      221            48.23409       58.580733      43.316364      42.805171      147.6137       102.6087       102.82581    
   2750000   299.15098      0.94805083     0.94805075     0.94318619     0.275         -34.250058      4.5466983      213           -25.17712      -45.466983     -29.630142     -0.43423494     147.72956      102.29011      103.0661     
   2760000   301.40226      0.94862005     0.94861996     0.99189534     0.276          36.919618     -4.6904759      224            30.366851      46.904759      0.448071       43.747723      147.84543      102.39355      102.81957    
   2770000   299.13233      0.94721638     0.9472163      0.98746723     0.277          18.573834      1.4912598      223            13.861711     -14.912598      55.225862      1.2718702      147.9613       103.01066      102.27489    
   2780000   299.40678      0.9487882      0.94878812     0.96089861     0.278         -7.0490301      1.5765478      217            0.47141701    -15.765478      20.622203     -3.4424744      148.07716      102.22655      102.80814    
   2790000   299.86701      0.94902417     0.94902409     0.92990188     0.279          51.536003      5.8824364      210           -37.636443     -58.824364     -15.569842     -38.515124      148.19303      102.49324      102.43497    
   2800000   299.63444      0.95055069     0.95055061     0.96975482     0.28          -14.227593     -9.1162203      219            50.952277      91.162203      18.681896      43.012732      148.30889      102.42912      102.25454    
   2810000   301.89957      0.94656277     0.94656268     0.92547377     0.281         -59.674882     -0.29314273     209            33.035391      2.9314273      67.436089      28.738656      148.42476      102.781        102.25391    
   2820000   301.03318      0.94719591     0.94719583     0.92990188     0.282          21.842177      9.4919287      210           -62.438368     -94.919287     -1.1959714     -91.199846      148.54063      102.56967      102.31623    
   2830000   299.06446      0.94854752     0.94854744     0.9520424      0.283          22.308598      2.7845018      215            0.99220423    -27.845018      50.807886     -19.986255      148.65649      102.31745      102.34246    
   2840000   300.01768      0.94478346     0.94478338     0.92990188     0.284         -15.761357      3.2520334      210           -27.919235     -32.520334      35.647952     -86.885321      148.77236      102.25444      102.73344    
   2850000   299.90037      0.94770507     0.94770499     0.93875809     0.285          28.428153     -1.797462       212           -29.653561      17.97462      -45.389969     -61.545334      148.88823      101.29308      103.3083     
   2860000   298.77063      0.94873842     0.94873834     0.92547377     0.286          9.3757925      2.1037995      209           -0.91646435    -21.037995      27.277881     -8.9892791      149.00409      101.21335      103.19676    
   2870000   299.32115      0.94838767     0.94838759     0.9520424      0.287         -33.628001      0.13616113     215            55.575528     -1.3616113      99.765322      68.322874      149.11996      101.21327      103.15479    
   2880000   300.89319      0.94851449     0.94851441     0.96975482     0.288         -18.605952     -0.72237974     219            39.256362      7.2237974      46.892436      63.652853      149.23582      101.45769      102.81264    
   2890000   301.36857      0.94605435     0.94605427     0.94318619     0.289          44.08107       2.3036658      213           -28.071538     -23.036658     -24.448203     -36.729753      149.35169      102.11136      102.34067    
   2900000   299.01644      0.95066225     0.95066216     1.0096078      0.29          -18.934289     -2.2283915      228            13.462361      22.283915     -7.9513924      26.05456       149.46756      101.86578      102.01101    
   2910000   300.27052      0.94578741     0.94578733     0.97861102     0.291          33.664206      12.092901      221           -84.882374     -120.92901     -43.808467     -89.909651      149.58342      101.44476      102.8826     
   2920000   300.35038      0.94724226     0.94724218     0.92104567     0.292         -5.8523086     -0.55957597     208            7.28691        5.5957597     -11.379964      27.644934      149.69929      101.76206      102.32502    
   2930000   298.10391      0.94872956     0.94872948     0.98303913     0.293         -28.217804     -4.3904864      222            35.786637      43.904864      43.920714      19.534335      149.81516      101.68185      102.16613    
   2940000   299.02033      0.94846267     0.94846258     0.92104567     0.294         -50.64531       1.3212933      208            18.684425     -13.212933      14.016693      55.249517      149.93102      100.8667       102.94114    
   2950000   299.1562       0.94685727     0.94685718     0.94318619     0.295          38.07075       2.6055196      213            5.7123669     -26.055196      28.999561      14.192736      150.04689      100.89345      103.00874    
   2960000   299.69243      0.94699414     0.94699406     0.98746723     0.296          72.959029      0.28540466     223           -0.14193305    -2.8540466     -45.106904      47.535152      150.16276      101.1554       102.64787    
   2970000   299.96801      0.94520648     0.9452064      0.96975482     0.297          31.618758      6.8170475      219           -4.675658      -68.170475      25.434635      28.708866      150.27862      101.13098      102.78753    
   2980000   298.78788      0.94667711     0.94667703     0.96532671     0.298         -48.920627     -2.4893699      218           -12.227377      24.893699     -42.687381     -18.888448      150.39449      100.86521      102.81899    
   2990000   299.51089      0.94969675     0.94969667     0.92547377     0.299          3.6239543      2.0114381      209           -20.389106     -20.114381     -34.083688     -6.9692512      150.51035      101.09431      102.18109    
   3000000   302.19252      0.94648957     0.94648949     0.96975482     0.3            15.796122      0.62355847     219           -14.714592     -6.2355847     -70.72418       32.81599       150.62622      100.64784      102.90291    
   3010000   297.92031      0.94818568     0.9481856      0.96532671     0.301          40.056513      1.7432636      218            16.116543     -17.432636      93.342999     -27.560734      150.74209      100.84512      102.4391     
   3020000   301.69695      0.94900089     0.94900081     0.96975482     0.302         -0.004584633   -1.5846495      219           -0.15400222     15.846495     -44.227908      27.919405      150.85795      101.03647      102.0788     
   3030000   299.03691      0.94898452     0.94898443     0.93432998     0.303         -18.300975      0.68756249     211            27.219007     -6.8756249      56.640772      31.891873      150.97382      100.49748      102.54928    
   3040000   298.9787       0.94956329     0.94956321     0.9564705      0.304          46.269912      4.2348618      216            14.237156     -42.348618      35.481161      49.578926      151.08969      101.23711      101.65999    
   3050000   299.3906       0.94954855     0.94954847     0.9520424      0.305         -2.4522166      2.1322578      215            6.3789897     -21.322578      27.679016      12.780531      151.20555      100.87104      101.95232    
   3060000   299.5563       0.94763501     0.94763493     0.9564705      0.306          13.513244      0.66369813     216            44.409416     -6.6369813      33.95479       105.91044      151.32142      100.87414      102.07684    
   3070000   299.80838      0.95083264     0.95083255     0.94761429     0.307          5.2359809     -0.59164835     214            0.44442862     5.9164835      13.64375      -18.226948      151.43729      100.16464      102.37578    
   3080000   298.89955      0.94761944     0.94761935     0.93875809     0.308          36.881648      3.2231476      212            3.1656722     -32.231476      34.307616      7.420876       151.55315      100.35715      102.44748    
   3090000   300.24544      0.94806421     0.94806412     0.9564705      0.309         -28.444345     -1.9367555      216            8.4788139      19.367555      40.352195     -34.283309      151.66902      100.55984      102.11496    
   3100000   298.71441      0.94759566     0.94759558     0.96532671     0.31           18.956162     -6.648921       218            23.050448      66.48921      -33.213987      35.87612       151.78488      100.90336      101.73991    
   3110000   301.22337      0.94812736     0.94812728     0.96532671     0.311         -81.976216     -2.1567518      218            29.105867      21.567518     -12.095977      77.846059      151.90075      100.96857      101.53967    
   3120000   300.66962      0.94715761     0.94715753     0.9564705      0.312         -20.57331       10.051244      216           -36.521052     -100.51244     -9.3705325      0.31981239     152.01662      101.10044      101.43368    
   3130000   298.40809      0.94697081     0.94697073     0.97861102     0.313          44.764932      5.3512532      221           -38.055362     -53.512532     -36.513526     -24.140027      152.13248      101.08757      101.38933    
   3140000   300.64044      0.94682771     0.94682762     0.92104567     0.314          37.468905      1.6878298      208           -23.164022     -16.878298     -40.022195     -12.591573      152.24835      101.2759       101.13905    
   3150000   301.76397      0.94702635     0.94702627     0.9564705      0.315          9.4309712      4.22725        216           -48.509419     -42.2725       -79.681729     -23.574028      152.36422      101.21697      101.09977    
   3160000   299.48388      0.94746542     0.94746533     0.92104567     0.316          24.389675      6.281815       208           -29.308433     -62.81815      -36.196932      11.089782      152.48008      100.62966      101.56547    
   3170000   299.06561      0.94740732     0.94740724     0.96975482     0.317         -15.131153      6.5796122      219           -15.520734     -65.796122     -14.827228      34.061149      152.59595      100.38425      101.7427     
   3180000   300.74578      0.94833871     0.94833863     0.9564705      0.318         -10.285041      5.0570244      216           -13.874087     -50.570244     -14.981212      23.929196      152.71181      100.90922      101.03726    
   3190000   300.47282      0.94581588     0.9458158      0.97418292     0.319          47.658758      7.8995459      220           -28.063956     -78.995459      39.210158     -44.406566      152.82768      101.20623      100.93288    
   3200000   298.82723      0.95015065     0.95015057     0.9564705      0.32          -10.189124      3.3726511      216            23.03154      -33.726511      64.258051      38.563081      152.94355      101.21618      100.38643    
   3210000   300.56272      0.94562663     0.94562655     0.96089861     0.321          30.629147      1.9298731      217           -43.723412     -19.298731     -52.227818     -59.643687      153.05941      101.42932      100.57853    
   3220000   300.84858      0.94463983     0.94463974     0.96975482     0.322         -19.3119        0.81407544     219           -24.718209     -8.1407544     -40.271527     -25.742346      153.17528      101.48347      100.55376    
   3230000   301.78351      0.94993143     0.94993134     0.9520424      0.323          37.582911     -2.7970913      215            16.366494      27.970913     -15.882063      37.010632      153.29115      100.94641      100.44964    
   3240000   297.28689      0.94623282     0.94623274     0.96975482     0.324         -16.50737      -0.56304481     219            7.0944702      5.6304481      10.264928      5.3880342      153.40701      100.65641      101.05641    
   3250000   299.97505      0.94759308     0.947593       0.93875809     0.325          53.741748      6.7810174      212           -29.987869     -67.810174     -26.853166      4.6997328      153.52288      100.42826      101.06427    
   3260000   301.91588      0.94900327     0.94900319     0.97418292     0.326         -31.863519      2.7253204      220           -4.7060946     -27.253204      5.1936895      7.9412308      153.63875      99.77591       101.49728    
   3270000   299.95277      0.9481466      0.94814651     0.90333325     0.327          71.294547      7.9903942      204           -35.456765     -79.903942     -13.370751     -13.095602      153.75461      99.603382      101.68826    
   3280000   302.08461      0.94641457     0.94641449     0.98303913     0.328         -14.280151     -3.2571522      222            4.7988503      32.571522      34.508442     -52.683413      153.87048      100.02258      101.37101    
   3290000   300.92522      0.94594774     0.94594766     0.93432998     0.329          1.317597      -3.1265852      211            18.006124      31.265852     -3.3105181      26.063038      153.98634      100.1426       101.22326    
   3300000   300.06394      0.94838714     0.94838705     0.93875809     0.33           9.5075039      0.1437778      212            10.650932     -1.437778       63.935913     -30.545339      154.10221      100.29267      100.73603    
   3310000   300.67825      0.94586793     0.94586784     0.91661757     0.331          20.754486      5.2488492      207           -11.237834     -52.488492      10.919372      7.8556189      154.21808      99.92554       101.29926    
   3320000   299.34102      0.94864676     0.94864668     0.90333325     0.332         -20.937693      1.7504428      204           -2.9366187     -17.504428     -39.368208      48.06278       154.33394      99.717802      101.13695    
   3330000   299.31565      0.94484848     0.9448484      0.94761429     0.333          18.458319      10.902576      214           -70.176469     -109.02576     -36.383502     -65.120138      154.44981      100.15397      101.02546    
   3340000   299.61518      0.95092446     0.95092438     0.9564705      0.334         -15.500445      0.032541527    216           -13.125107     -0.32541527    -31.365152     -7.6847518      154.56568      99.821642      100.63864    
   3350000   297.28981      0.94887766     0.94887758     0.94318619     0.335         -9.3908319      7.4058611      213           -15.090136     -74.058611      7.6075738      21.180631      154.68154      99.567769      101.03714    
   3360000   298.91103      0.94874388     0.94874379     0.93432998     0.336         -30.961012     -2.0846086      211            32.159539      20.846086      12.347211      63.28532       154.79741      99.45285       101.09243    
   3370000   300.52849      0.94888445     0.94888437     0.99632344     0.337          55.576584     -0.32352431     225           -28.107718      3.2352431     -18.051593     -69.506803      154.91327      99.219416      101.23948    
   3380000   300.05417      0.94726045     0.94726037     0.9564705      0.338         -17.834201      7.7823546      216           -27.407047     -77.823546     -25.625608      21.228012      155.02914      99.369842      101.18385    
   3390000   300.18791      0.94737047     0.94737039     0.93875809     0.339          18.65775       6.9326299      212           -20.416654     -69.326299      60.282467     -52.20613       155.14501      99.634986      100.82751    
   3400000   297.70393      0.94873575     0.94873567     0.97418292     0.34          -51.085989     -6.3112148      220            85.473511      63.112148      111.17982      82.128563      155.26087      98.869863      101.38585    
   3410000   299.59046      0.94884545     0.94884537     0.96975482     0.341          9.1917346      0.30156504     219            22.388293     -3.0156504     -5.9532173      76.133747      155.37674      98.816392      101.35334    
   3420000   300.89739      0.94525114     0.94525106     0.9520424      0.342          15.547709     -2.4464776      215            32.186361      24.464776      56.839053      15.255253      155.49261      98.672015      101.81168    
   3430000   300.99022      0.94602329     0.94602321     0.94761429     0.343          74.624238     -2.6107867      214            6.0819236      26.107867     -41.495229      33.633132      155.60847      98.665111      101.65995    
   3440000   297.75683      0.94715036     0.94715027     0.97418292     0.344         -20.267382     -2.0718456      220            21.601952      20.718456      67.882489     -23.795088      155.72434      98.658388      101.47034    
   3450000   299.738        0.94717532     0.94717524     0.93875809     0.345          36.690164      9.7904464      212           -14.422421     -97.904464      33.209771      21.427431      155.84021      98.755628      101.29239    
   3460000   300.09129      0.94489095     0.94489087     0.92104567     0.346          53.364619      6.5090861      208           -35.570161     -65.090861     -50.693223      9.0736026      155.95607      98.512629      101.71211    
   3470000   300.70544      0.94906112     0.94906104     0.92990188     0.347          26.431976      2.2534775      210            0.036430207   -22.534775      58.991758     -36.347693      156.07194      98.461496      101.24256    
   3480000   300.96747      0.95073158     0.95073149     0.94318619     0.348          51.378032      1.5113795      213            1.233412      -15.113795     -9.5291057      28.343137      156.1878       98.52099       100.92872    
   3490000   299.36416      0.94787442     0.94787434     0.91218946     0.349          45.958456      13.420403      206           -61.670466     -134.20403     -64.612857      13.80549       156.30367      98.237335      101.44999    
   3500000   302.56193      0.94755445     0.94755437     0.93432998     0.35           26.205869      0.55676525     211           -34.316755     -5.5676525     -42.756129     -54.626482      156.41954      98.205288      101.44216    
   3510000   299.96596      0.94413873     0.94413864     0.99189534     0.351         -24.436686      9.8264641      224           -53.507532     -98.264641     -35.28669      -26.971264      156.5354       98.879102      101.04054    
   3520000   300.09049      0.94775222     0.94775213     0.9520424      0.352         -70.662651      3.9620801      215           -27.4381       -39.620801     -40.151058     -2.5424416      156.65127      99.169018      100.28681    
   3530000   299.76761      0.94773655     0.94773647     0.94761429     0.353          4.3962014      1.5005825      214           -25.069863     -15.005825     -51.572389     -8.6313743      156.76714      98.977126      100.40863    
   3540000   300.88482      0.94747809     0.947478       0.92547377     0.354          61.268144      3.7324622      209           -69.873148     -37.324622     -74.30429      -97.990531      156.883        98.873863      100.46666    
   3550000   301.52901      0.9462379      0.94623781     0.96089861     0.355          34.527744     -0.63989803     217           -7.4522324      6.3989803     -15.471052     -13.284626      156.99887      99.107168      100.28746    
   3560000   301.09721      0.94842236     0.94842228     0.91661757     0.356          20.088779     -6.7051994      207            83.496228      67.051994      130.58833      52.848359      157.11473      99.268884      99.819803    
   3570000   299.76757      0.94676007     0.94675999     0.93875809     0.357         -28.089872      5.4920008      212           -22.171255     -54.920008     -40.711831      29.118075      157.2306       99.056745      100.13537    
   3580000   298.52119      0.94720328     0.94720319     0.92990188     0.358          43.806552      8.9280962      210           -57.092034     -89.280962     -58.103766     -23.891375      157.34647      99.068938      100.0025     
   3590000   299.51415      0.94806453     0.94806445     0.92990188     0.359          12.243398     -0.33717761     210           -17.874851      3.3717761     -45.16631      -11.830017      157.46233      99.415061      99.490539    
   3600000   300.10788      0.94715953     0.94715945     0.94318619     0.36          -17.159835      1.1462373      213           -5.3465615     -11.462373     -10.589226      6.0119147      157.5782       99.306773      99.620889    
   3610000   300.30615      0.9467943      0.94679421     0.9520424      0.361         -17.201554     -1.5967637      215            20.639163      15.967637     -31.61452       77.564373      157.69407      99.340947      99.551835    
   3620000   301.24153      0.94860808     0.94860799     0.93875809     0.362         -101.60157      0.96576375     212           -8.6909258     -9.6576375      28.986745     -45.401885      157.80993      99.097934      99.532015    
   3630000   300.4727       0.94681398     0.9468139      0.96089861     0.363          7.8743005     -3.7267586      217            10.997756      37.267586      33.398495     -37.672813      157.9258       99.130546      99.614672    
   3640000   301.99734      0.94679493     0.94679485     0.98303913     0.364         -35.349497      1.9717731      222           -11.615532     -19.717731      33.716414     -48.845279      158.04167      98.376156      100.30699    
   3650000   300.85413      0.9458166      0.94581651     0.93875809     0.365         -72.84721       4.094851       212           -32.070484     -40.94851      -9.8584753     -45.404467      158.15753      98.319137      100.39537    
   3660000   299.22006      0.94667145     0.94667137     0.92547377     0.366          11.657175      9.0842441      209           -53.935922     -90.842441     -28.985584     -41.97974       158.2734       98.551413      99.995046    
   3670000   299.17554      0.94733364     0.94733355     0.94318619     0.367          6.9942961      0.22981584     213            40.587399     -2.2981584      62.20343       61.856926      158.38926      98.278071      100.12977    
   3680000   300.86372      0.94631402     0.94631394     0.94318619     0.368         -10.313936      8.2589681      213           -49.181215     -82.589681     -25.567336     -39.386628      158.50513      98.462373      99.976897    
   3690000   299.32059      0.94902389     0.94902381     0.99632344     0.369         -63.227181      1.7161176      225           -1.7970784     -17.161176      49.990733     -38.220792      158.621        98.358397      99.723908    
   3700000   301.06017      0.94903538     0.94903529     0.96532671     0.37          -54.466111      6.1625186      218           -13.403742     -61.625186     -19.934472      41.348433      158.73686      98.696847      99.308193    
   3710000   298.44234      0.94737375     0.94737367     0.9520424      0.371          19.126013      2.2673237      215            8.1190059     -22.673237     -3.330608       50.360862      158.85273      99.091841      99.013548    
   3720000   299.58796      0.94893465     0.94893457     0.9564705      0.372          20.071081      5.4007048      216           -19.831617     -54.007048      44.41404      -49.901842      158.9686       99.130518      98.740093    
   3730000   301.09613      0.94992763     0.94992755     0.98303913     0.373          12.777026      2.3713144      222           -8.1191117     -23.713144      28.555085     -29.199276      159.08446      99.523983      98.175363    
   3740000   299.688        0.94741492     0.94741484     0.94761429     0.374          2.3347601      6.8788734      214           -14.147176     -68.788734      29.689133     -3.341929       159.20033      99.428918      98.458148    
   3750000   297.82468      0.94544708     0.945447       0.90333325     0.375          29.790381      1.5846085      204            6.5303926     -15.846085     -32.226679      67.663942      159.3162       99.288137      98.731114    
   3760000   299.25287      0.94573604     0.94573596     0.92990188     0.376          25.71366      -1.712971       210           -5.7542953      17.12971      -43.326569      8.9339733      159.43206      99.262746      98.654447    
   3770000   299.44954      0.94920983     0.94920974     0.93432998     0.377         -0.210492       5.8789671      211           -17.504349     -58.789671     -8.2748048      14.551429      159.54793      99.007055      98.475686    
   3780000   298.01679      0.94861493     0.94861485     0.9564705      0.378         -5.7152204     -0.62837876     216            30.370619      6.2837876      36.120903      48.707167      159.66379      98.918573      98.554012    
   3790000   300.60181      0.9484435      0.94844342     0.93432998     0.379         -0.45878012     5.8414065      211           -17.544965     -58.414065      14.528098     -8.7489263      159.77966      98.831974      98.586654    
   3800000   300.28181      0.94717921     0.94717912     0.9520424      0.38          -51.913787      3.260629       215           -33.733063     -32.60629      -52.482195     -16.110705      159.89553      99.126375      98.353736    
   3810000   299.84651      0.94883533     0.94883525     0.9564705      0.381         -49.05628      -4.7081164      216            63.407359      47.081164      71.1814        71.959513      160.01139      99.741449      97.505952    
   3820000   298.37141      0.94952689     0.94952681     0.94761429     0.382         -54.493455     -12.840899      214            30.797616      128.40899      34.833057     -70.849202      160.12726      98.906012      98.186848    
   3830000   299.15685      0.9500266      0.95002651     0.96089861     0.383         -18.267207      0.57370306     217            5.6912539     -5.7370306      12.073922      10.73687       160.24313      98.890527      98.079601    
   3840000   300.73463      0.94953565     0.94953557     0.91661757     0.384          75.747953      4.0963762      207           -12.939769     -40.963762      14.721362     -12.576907      160.35899      98.794142      98.155077    
   3850000   300.65406      0.9493698      0.94936972     0.96975482     0.385         -15.163559     -4.2744329      219            45.772491      42.744329      63.678391      30.894753      160.47486      98.924658      97.971911    
   3860000   299.61985      0.94908297     0.94908288     0.94318619     0.386          21.549498      5.4597676      213           -25.178222     -54.597676      10.676903     -31.613894      160.59072      98.804244      98.050162    
   3870000   301.23936      0.94902114     0.94902106     0.96089861     0.387          2.619158      -2.0751363      217            47.848406      20.751363      30.883488      91.910368      160.70659      98.753421      98.036281    
   3880000   299.4873       0.94692929     0.9469292      0.9564705      0.388          1.4125734      5.231315       216           -53.431926     -52.31315      -72.910708     -35.071919      160.82246      98.996449      97.941036    
   3890000   302.19563      0.94843274     0.94843266     0.94761429     0.389          40.811331      7.6505566      214           -31.277134     -76.505566     -3.1582592     -14.167576      160.93832      99.005947      97.706006    
   3900000   300.21195      0.94827267     0.94827259     0.96089861     0.39           29.035121     -0.60985598     217           -7.2764311      6.0985598     -49.772968      21.845115      161.05419      98.819728      97.836213    
   3910000   299.70218      0.9482932      0.94829312     0.96975482     0.391          23.778099     -1.9297374      219           -12.151595      19.297374     -38.477045     -17.275113      161.17006      98.882393      97.701805    
   3920000   298.21585      0.94968558     0.94968549     0.9520424      0.392          26.70579      -4.2161778      215            15.907867      42.161778     -42.581527      48.143351      161.28592      98.776657      97.592832    
   3930000   300.15256      0.94460978     0.9446097      0.9564705      0.393          10.280711      4.5348112      216           -54.434589     -45.348112     -67.520141     -50.435513      161.40179      98.449253      98.37287     
   3940000   302.08692      0.94854427     0.94854419     0.97418292     0.394         -12.540567      1.9728878      220           -8.6397522     -19.728878      13.611316     -19.801694      161.51766      97.772699      98.571949    
   3950000   299.76798      0.94589396     0.94589388     0.96532671     0.395         -8.9462354      1.8863342      218           -12.641633     -18.863342      5.0158991     -24.077456      161.63352      97.453833      99.100476    
   3960000   301.25301      0.94830017     0.94830009     0.94761429     0.396          76.713434      8.2502211      214           -18.712631     -82.502211      12.48748       13.876837      161.74939      97.376838      98.856312    
   3970000   299.4079       0.94866245     0.94866237     0.93432998     0.397          14.217208     -1.3493053      211            4.928188       13.493053     -24.856204      26.147715      161.86525      97.853178      98.267131    
   3980000   299.27422      0.94703488     0.94703479     0.94761429     0.398          12.914775      2.5644976      214           -11.296595     -25.644976     -10.542         2.2971909      161.98112      98.019571      98.198619    
   3990000   300.72942      0.94610886     0.94610878     0.9520424      0.399          29.120121      2.8848675      215           -62.440224     -28.848675     -73.041332     -85.430666      162.09699      97.935974      98.308315    
   4000000   300.71033      0.94804304     0.94804296     0.97861102     0.4           -13.641102      2.1613306      221           -4.735202      -21.613306      4.6869786      2.7207211      162.21285      97.741484      98.232751    
   4010000   301.14432      0.94789265     0.94789257     0.93432998     0.401          7.4955546      5.5078239      211            4.7839243     -55.078239      10.618184      58.811828      162.32872      97.270878      98.653204    
   4020000   299.74461      0.94605094     0.94605086     0.93432998     0.402         -29.789812      10.889748      211           -72.358107     -108.89748     -81.880132     -26.29671       162.44459      97.707677      98.333183    
   4030000   299.44578      0.94783707     0.94783698     0.94318619     0.403         -57.825172      7.3564716      213            12.060773     -73.564716      75.487251      34.259785      162.56045      97.934329      97.850943    
   4040000   301.58535      0.94697448     0.9469744      0.93432998     0.404         -40.002202      7.7070119      211           -54.791655     -77.070119     -80.719777     -6.5850684      162.67632      97.437816      98.369032    
   4050000   298.35058      0.94688034     0.94688026     0.9564705      0.405          20.336444      6.4565425      216           -68.261901     -64.565425     -59.621974     -80.598303      162.79218      97.466078      98.280285    
   4060000   301.96049      0.94688053     0.94688045     0.92547377     0.406          5.5641239      7.7430576      209           -37.970898     -77.430576     -17.719908     -18.76221       162.90805      97.400194      98.276797    
   4070000   299.7649       0.94706874     0.94706866     0.94318619     0.407          15.527569      3.139348       213           -12.596596     -31.39348       4.8766919     -11.272999      163.02392      97.630288      97.956026    
   4080000   300.22901      0.94714662     0.94714654     0.96532671     0.408          40.9942        7.7334231      218           -63.984178     -77.334231     -82.55386      -32.064442      163.13978      97.776366      97.732175    
   4090000   299.62705      0.94863324     0.94863316     0.98303913     0.409          74.266665      1.6752976      222           -15.959479     -16.752976      2.9926108     -34.118071      163.25565      97.379242      97.907419    
   4100000   300.28692      0.94909494     0.94909486     0.9564705      0.41          -26.495034      4.3635632      216            14.741372     -43.635632      21.673106      66.186643      163.37152      97.411011      97.758494    
   4110000   298.8486       0.94988774     0.94988766     0.96975482     0.411          42.28379      -2.2735361      219            12.136156      22.735361      32.455468     -18.78236       163.48738      97.387593      97.631148    
   4120000   301.47854      0.9473219      0.94732182     0.96975482     0.412         -70.803779      4.4546782      219           -3.5457996     -44.546782      16.109084      17.800299      163.60325      97.827899      97.385953    
   4130000   300.09207      0.9479721      0.94797202     0.93875809     0.413          41.532506      4.9642923      212           -63.176507     -49.642923     -64.197274     -75.689325      163.71912      97.595079      97.482282    
   4140000   300.54855      0.94785406     0.94785398     0.94318619     0.414         -4.0297137      1.2197672      213           -32.47453      -12.197672     -9.0127986     -76.213119      163.83498      97.210386      97.811016    
   4150000   299.85505      0.94673926     0.94673917     0.93432998     0.415         -3.5616127     -5.0450437      211            34.600087      50.450437      44.742492      8.6073324      163.95085      96.996041      98.073233    
   4160000   300.14811      0.94813379     0.94813371     0.94761429     0.416          10.847397      0.97721226     214           -0.1657316     -9.7721226      27.594906     -18.319978      164.06671      97.0116        97.84413     
   4170000   300.84165      0.94517445     0.94517437     0.9564705      0.417          27.082797      2.6693543      216           -45.526352     -26.693543     -42.88376      -67.001754      164.18258      96.989385      98.103678    
   4180000   300.93848      0.94683031     0.94683023     0.91218946     0.418         -5.9159211      3.9257786      206           -37.688916     -39.257786     -53.598184     -20.210778      164.29845      97.265247      97.58549     
   4190000   299.51377      0.94783136     0.94783127     0.89890515     0.419         -6.3863191     -0.076820786    203           -26.320946      0.76820786    -81.44828       1.717234       164.41431      96.879743      97.801356    
   4200000   301.38736      0.94931063     0.94931055     0.9564705      0.42           17.992148      7.3247325      216           -30.400474     -73.247325     -17.27857      -0.67552606     164.53018      96.976452      97.482878    
   4210000   300.4964       0.9495683      0.94956822     0.97418292     0.421         -85.679634     -1.2141158      220           -35.236377      12.141158     -76.865684     -40.984605      164.64605      96.947314      97.417114    
   4220000   299.44956      0.94725914     0.94725906     0.9564705      0.422          16.358388      2.9037516      216            3.7309791     -29.037516     -13.438322      53.668776      164.76191      96.458839      98.080098    
   4230000   300.02263      0.94769017     0.94769009     0.92104567     0.423         -6.5733608      5.0289528      208           -44.982712     -50.289528     -28.89514      -55.763466      164.87778      96.769221      97.652373    
   4240000   301.2053       0.94760128     0.94760119     0.93875809     0.424          2.593147      -0.072608248    212            8.5331595      0.72608248     15.791045      9.0823514      164.99364      96.296508      98.072028    
   4250000   300.59313      0.9490407      0.94904062     0.94318619     0.425         -6.7028319      1.7857145      213           -18.688564     -17.857145     -73.821643      35.613097      165.10951      96.13146       98.02257     
   4260000   301.12643      0.94857871     0.94857863     0.93432998     0.426         -13.171289     -1.5305292      211            15.549315      15.305292      0.79653525     30.546118      165.22538      96.43376       97.694322    
   4270000   302.26943      0.9469405      0.94694041     0.98746723     0.427         -15.344122      2.0413216      223           -25.612151     -20.413216     -24.372512     -32.050726      165.34124      96.734067      97.491154    
   4280000   301.58475      0.9463268      0.94632672     0.9564705      0.428          10.07167      -1.2035248      216           -30.982823      12.035248     -23.878616     -81.105101      165.45711      96.585676      97.635837    
   4290000   298.67116      0.94492211     0.94492203     0.96089861     0.429          17.520481      2.5017642      217            1.7293055     -25.017642      25.975184      4.230375       165.57298      96.54582       97.752891    
   4300000   299.66033      0.94649033     0.94649025     0.9520424      0.43          -6.6855826      4.0367802      215           -51.063136     -40.367802     -41.771887     -71.049721      165.68884      96.100548      97.974542    
   4310000   300.92994      0.94774938     0.9477493      0.97861102     0.431          24.817991      9.6222715      221           -82.794835     -96.222715     -100.33128     -51.830514      165.80471      96.067667      97.809477    
   4320000   298.76169      0.94771482     0.94771473     0.97418292     0.432          51.307779      4.7651164      220           -35.368526     -47.651164     -28.380191     -30.074222      165.92058      96.359512      97.448699    
   4330000   299.16145      0.94879475     0.94879467     0.94761429     0.433         -4.60627        8.4322427      214           -32.914353     -84.322427     -60.58504       46.164409      166.03644      95.450472      98.196222    
   4340000   299.87247      0.9470904      0.94709032     0.9520424      0.434         -79.267824     -1.9410531      215            46.028895      19.410531      108.11313      10.563026      166.15231      95.409681      98.346361    
   4350000   299.18221      0.94756476     0.94756468     0.94761429     0.435         -15.149391      9.2342694      214           -32.922162     -92.342694     -47.134919      40.711126      166.26817      95.865239      97.761839    
   4360000   298.40701      0.94567601     0.94567593     1.0051796      0.436         -9.9844375      5.8313595      227           -50.678278     -58.313595     -26.463627     -67.257612      166.38404      95.774956      97.981154    
   4370000   299.64094      0.94498364     0.94498356     0.97418292     0.437         -30.326981      0.54731389     220           -15.019169     -5.4731389     -34.352074     -5.2322954      166.49991      96.189657      97.562268    
   4380000   297.69028      0.94547004     0.94546995     0.9520424      0.438          17.837719      3.7828117      215           -33.65993      -37.828117     -41.482431     -21.669242      166.61577      96.067002      97.56868     
   4390000   300.15006      0.9470654      0.94706532     0.96089861     0.439         -59.703543      9.3368022      217           -74.277143     -93.368022     -54.751507     -74.711899      166.73164      96.489496      96.91043     
   4400000   299.79635      0.9478724      0.94787232     0.99632344     0.44          -13.044818      1.4354528      225            8.3586539     -14.354528      7.0286613      32.401829      166.84751      96.562261      96.687767    
   4410000   300.03497      0.94831757     0.94831749     0.9564705      0.441         -40.898151     -4.7254496      216            30.804496      47.254496      17.364384      27.794607      166.96337      96.945637      96.1934      
   4420000   299.31         0.95017521     0.95017513     0.94318619     0.442         -35.446932      1.5049148      213            21.249969     -15.049148     -1.8347233      80.633778      167.07924      96.953078      95.931396    
   4430000   298.46891      0.94818246     0.94818237     0.96532671     0.443          64.583616      0.28581908     218            24.871131     -2.8581908      62.398705      15.072877      167.19511      96.838494      96.180062    
   4440000   299.1599       0.94888079     0.94888071     0.94761429     0.444          51.480013      0.74693261     214           -0.9903283     -7.4693261     -16.530014      21.028356      167.31097      96.721798      96.158596    
   4450000   298.26792      0.94619609     0.94619601     0.94761429     0.445          49.169897      4.1692434      214           -33.335742     -41.692434     -6.0959032     -52.218889      167.42684      96.826918      96.26008     
   4460000   301.01439      0.94659436     0.94659428     0.96089861     0.446         -71.466155      0.30631354     217           -10.975385     -3.0631354     -64.529093      34.666073      167.5427       96.982069      95.999213    
   4470000   298.98501      0.94995895     0.94995886     0.93875809     0.447          93.560927      8.9338617      212           -49.588068     -89.338617      23.195269     -82.620857      167.65857      96.848507      95.724923    
   4480000   301.70709      0.94853109     0.94853101     0.92990188     0.448         -6.4395394      2.0353983      210           -1.2013258     -20.353983      25.467618     -8.717612       167.77444      96.712129      95.937909    
   4490000   299.69905      0.94980966     0.94980957     0.92547377     0.449          17.428967      1.3018806      209            19.941633     -13.018806      6.9900355      65.853669      167.8903       96.256503      96.195837    
   4500000   299.02779      0.94762197     0.94762189     0.92104567     0.45          -2.8662643      10.493874      208           -42.946397     -104.93874     -35.733303      11.832855      168.00617      96.517854      96.09052     
   4510000   299.89449      0.94777726     0.94777718     0.90776136     0.451          2.1917122     -0.27608975     205            40.330266      2.7608975      61.52366       56.706241      168.12204      96.445857      96.080233    
   4520000   300.49887      0.94873338     0.94873329     0.96975482     0.452          9.6125387      10.407349      219           -27.445753     -104.07349      62.661605     -40.925376      168.2379       96.325915      96.036735    
   4530000   302.31526      0.94602625     0.94602617     0.93432998     0.453          10.116032      2.6461001      211           -21.683325     -26.461001     -37.683237     -0.9057381      168.35377      96.702985      95.869981    
   4540000   302.74599      0.94842519     0.94842511     0.94318619     0.454          36.621918     -3.6097236      213            24.954533      36.097236     -11.958176      50.724538      168.46963      97.037099      95.232685    
   4550000   300.56177      0.94955755     0.94955746     0.94761429     0.455         -10.257052     -3.4785709      214            0.26144013     34.785709     -9.4830878     -24.518301      168.5855       96.531637      95.551469    
   4560000   299.49427      0.94731449     0.9473144      0.96089861     0.456         -54.740973     -0.10343506     217           -25.846936      1.0343506     -50.174641     -28.400517      168.70137      96.16853       96.073319    
   4570000   299.52995      0.94878714     0.94878705     0.9520424      0.457          30.715233      1.4929799      215            15.378625     -14.929799      26.661031      34.404644      168.81723      95.761489      96.265815    
   4580000   301.35062      0.94623364     0.94623356     1.0096078      0.458         -27.046856      4.0901744      228           -9.6753108     -40.901744      15.087629     -3.2118179      168.9331       96.076222      96.143405    
   4590000   299.46315      0.94925113     0.94925105     0.97418292     0.459         -2.2299637     -3.9296613      220            28.78462       39.296613     -14.015966      61.073213      169.04897      96.180819      95.667943    
   4600000   299.77207      0.94897723     0.94897715     0.9520424      0.46          -50.982714      4.3948949      215           -46.250739     -43.948949     -56.31975      -38.483519      169.16483      95.937011      95.873038    
   4610000   299.96701      0.9481928      0.94819272     0.94761429     0.461          39.67408       2.5581063      214           -37.382411     -25.581063     -51.690938     -34.87523       169.2807       95.839082      95.984654    
   4620000   298.82168      0.94740882     0.94740874     0.92990188     0.462          57.120629      9.0161197      210           -38.336126     -90.161197     -50.593015      25.745832      169.39657      95.920695      95.916696    
   4630000   300.44903      0.94871309     0.94871301     0.93432998     0.463          67.519944      6.3100038      211           -48.777806     -63.100038     -65.410167     -17.823211      169.51243      95.936589      95.703502    
   4640000   298.82356      0.94746883     0.94746874     0.92104567     0.464         -2.3633231     -1.6310443      208           -10.866098      16.310443      9.4162588     -58.324995      169.6283       96.308806      95.393618    
   4650000   298.06259      0.94801831     0.94801822     0.9520424      0.465          11.239492      5.8795611      215           -12.557965     -58.795611      3.020841       18.100875      169.74416      96.08189       95.498256    
   4660000   300.14721      0.94621609     0.94621601     0.96089861     0.466          11.015877     -1.0083611      217            3.0888165      10.083611     -32.715143      31.897981      169.86003      96.305816      95.392561    
   4670000   299.88014      0.94474191     0.94474182     0.94761429     0.467         -14.110618      3.3561688      214           -32.302872     -33.561688     -19.020769     -44.32616       169.9759       96.247832      95.533805    
   4680000   298.60715      0.94764418     0.94764409     0.98303913     0.468          24.956224      7.7846441      222           -76.575483     -77.846441     -74.972553     -76.907454      170.09176      96.555528      94.873042    
   4690000   300.49654      0.94657        0.94656991     0.93875809     0.469          25.911089      7.1929423      212           -57.806294     -71.929423     -69.897114     -31.592346      170.20763      96.43014       95.039468    
   4700000   301.12856      0.94696326     0.94696318     0.94761429     0.47          -53.089732      0.77839952     214            7.5889387     -7.7839952      45.538506     -14.987695      170.3235       96.513026      94.853842    
   4710000   301.30525      0.95017885     0.95017876     0.96532671     0.471         -2.6173338      2.9410953      218           -43.822359     -29.410953     -78.952609     -23.103515      170.43936      96.315224      94.662584    
   4720000   301.5972       0.94766598     0.9476659      0.91661757     0.472          50.587442     -2.3765114      207            26.765414      23.765114      25.950098      30.581031      170.55523      95.989982      95.170491    
   4730000   301.80023      0.94817522     0.94817514     0.94761429     0.473         -7.9082057      3.1893929      214           -35.061625     -31.893929     -61.629558     -11.661388      170.67109      95.805637      95.237703    
   4740000   297.69027      0.94692867     0.94692859     0.96532671     0.474         -41.936055      9.5470636      218           -41.603702     -95.470636      48.510187     -77.850656      170.78696      95.857879      95.246441    
   4750000   299.57713      0.94914683     0.94914675     0.97418292     0.475         -47.516326     -2.1264206      220            28.517169      21.264206      57.743717      6.5435854      170.90283      95.682747      95.133235    
   4760000   300.874        0.94754072     0.94754064     0.9564705      0.476          0.2219416      1.9929449      216           -10.046858     -19.929449      4.875205      -15.086331      171.01869      95.387474      95.524711    
   4770000   298.76987      0.94749296     0.94749288     0.94761429     0.477          92.075861      1.2966136      214           -14.392514     -12.966136     -16.202789     -14.008617      171.13456      95.207974      95.644833    
   4780000   299.65749      0.94674309     0.94674301     0.92547377     0.478          46.839948      5.8378315      209           -39.735435     -58.378315     -13.784099     -47.04389       171.25043      95.352796      95.510543    
   4790000   300.57632      0.94764747     0.94764738     0.93432998     0.479         -10.027607      2.1932912      211           -18.798488     -21.932912     -7.4813682     -26.981183      171.36629      95.623796      95.084639    
   4800000   299.63154      0.9461026      0.94610252     0.93875809     0.48          -10.748228      10.818254      212           -51.945389     -108.18254     -15.956626     -31.697006      171.48216      95.585446      95.213735    
   4810000   299.09925      0.94693604     0.94693596     0.96089861     0.481         -32.560507      5.9689566      217           -26.08307      -59.689566      1.8816595     -20.441304      171.59803      95.387423      95.263054    
   4820000   301.60727      0.94768941     0.94768932     0.94761429     0.482          26.03606       4.6000816      214           -16.485213     -46.000816      16.3577       -19.812522      171.71389      95.546         94.965222    
   4830000   301.95404      0.94612928     0.9461292      0.89004894     0.483          78.186931      5.6185449      201            7.3337066     -56.185449      2.4338956      75.752673      171.82976      95.595703      95.00825     
   4840000   300.22042      0.94674202     0.94674194     0.9564705      0.484          36.661069     -1.8295223      216            20.976664      18.295223      20.598647      24.036123      171.94562      95.169191      95.308008    
   4850000   299.73111      0.9493589      0.94935882     0.9520424      0.485          35.007352      4.8580667      215            4.80263       -48.580667      25.643496      37.345061      172.06149      95.053975      95.096418    
   4860000   299.3608       0.94784275     0.94784266     0.9520424      0.486          8.5730579     -2.0770047      215            21.62176       20.770047      49.128071     -5.0328393      172.17736      95.55379       94.686553    
   4870000   300.62103      0.94654852     0.94654844     0.98303913     0.487         -37.950715     -0.044398155    222           -68.561471      0.44398155    -117.35109     -88.777303      172.29322      96.054676      94.258162    
   4880000   297.6298       0.94647241     0.94647233     0.9564705      0.488         -45.648679     -2.4498448      216            34.406328      24.498448      44.944201      33.776335      172.40909      95.809818      94.443141    
   4890000   298.41659      0.94950879     0.94950871     0.94761429     0.489         -11.87578       0.89848286     214            20.041178     -8.9848286      29.240504      39.86786       172.52496      95.385929      94.495978    
   4900000   297.92329      0.94975852     0.94975843     0.9520424      0.49          -21.031861      2.3993748      215            22.391083     -23.993748      28.74656       62.420438      172.64082      95.979245      93.824126    
   4910000   301.84593      0.94552673     0.94552665     0.94761429     0.491          0.28033241    -3.3099271      214           -5.7232999      33.099271     -66.406876      16.137705      172.75669      96.619083      93.557144    
   4920000   300.00263      0.94654772     0.94654763     0.94761429     0.492          15.749485      7.2644973      214           -12.291636     -72.644973     -37.261788      73.031851      172.87255      96.633696      93.379469    
   4930000   298.62988      0.94857147     0.94857138     0.93875809     0.493          64.920905      2.6893139      212           -42.372754     -26.893139     -59.168974     -41.056148      172.98842      96.521425      93.226147    
   4940000   300.66955      0.94653065     0.94653057     0.93875809     0.494          16.58636       4.2778432      212           -3.460563      -42.778432     -27.791853      60.188596      173.10429      96.479728      93.404968    
   4950000   300.38         0.94808899     0.94808891     0.96975482     0.495         -25.769152     -0.85189813     219            20.827837      8.5189813      26.361699      27.602832      173.22015      96.136933      93.52135     
   4960000   299.40525      0.947828       0.94782791     0.9564705      0.496          8.1273791      0.96043484     216           -30.810327     -9.6043484     -13.943241     -68.883391      173.33602      96.384064      93.244874    
   4970000   298.77158      0.9454218      0.94542172     0.94761429     0.497          7.8739646      2.8740339      214           -15.517628     -28.740339      12.465972     -30.278518      173.45189      96.325976      93.476079    
   4980000   297.80019      0.94645025     0.94645017     0.93875809     0.498          16.142944     -4.8418527      212            3.3588776      48.418527     -19.375824     -18.96607       173.56775      96.086134      93.545091    
   4990000   301.86416      0.94794015     0.94794006     0.96089861     0.499          61.944803      1.5867971      217           -14.45733      -15.867971      31.930384     -59.434402      173.68362      96.283988      93.143961    
   5000000   300.28894      0.94843209     0.94843201     0.99189534     0.5           -49.075793      1.4398382      224            14.428292     -14.398382      39.990221      17.693036      173.79949      95.876876      93.428623    
   5010000   300.5583       0.9482655      0.94826541     0.98746723     0.501         -47.102267     -1.3679335      223            22.974791      13.679335      46.173383      9.0716565      173.91535      95.615752      93.637808    
   5020000   297.99308      0.94671668     0.9467166      0.9520424      0.502          38.393958      3.9299752      215           -26.019899     -39.299752     -29.840915     -8.9190309      174.03122      95.481092      93.860743    
   5030000   301.83303      0.94687725     0.94687717     0.94761429     0.503          10.365455     -2.7939205      214            13.729158      27.939205      13.409351     -0.16108148     174.14708      95.172746      94.086229    
   5040000   299.91294      0.94671109     0.946711       0.9520424      0.504         -34.656369      0.34672328     215           -23.793308     -3.4672328     -67.787657     -0.12503309     174.26295      95.021128      94.190227    
   5050000   300.32599      0.94791543     0.94791534     0.96532671     0.505          33.044138     -0.18864838     218           -5.4358947      1.8864838      16.119674     -34.313842      174.37882      94.752805      94.274265    
   5060000   301.61534      0.94960666     0.94960657     0.90776136     0.506          46.406958     -1.6332664      205           -20.161332      16.332664     -28.577899     -48.238762      174.49468      94.995881      93.803238    
   5070000   300.47864      0.94795476     0.94795468     0.94318619     0.507          49.194257      0.72860371     213            8.5225925     -7.2860371      72.444641     -39.590827      174.61055      95.067623      93.83348     
   5080000   300.06229      0.94891748     0.94891739     0.96532671     0.508         -31.582374     -6.5621106      218            52.241974      65.621106      42.594472      48.510346      174.72642      95.226335      93.519993    
   5090000   302.46643      0.94731996     0.94731987     0.93432998     0.509          17.930147      0.8528647      211           -10.22936      -8.528647       6.5962444     -28.755676      174.84228      94.992672      93.845898    
   5100000   301.59609      0.94488748     0.94488739     0.9520424      0.51           51.48783      -5.1865601      215            0.83548849     51.865601     -38.77051      -10.588626      174.95815      95.081182      93.937655    
   5110000   297.96401      0.94651818     0.94651809     0.93432998     0.511         -1.2708084      3.563604       211           -9.9675029     -35.63604       24.322762     -18.589231      175.07402      95.631171      93.174791    
   5120000   303.52553      0.94898113     0.94898104     0.92547377     0.512          12.61454      -6.674359       209            37.918329      66.74359       12.053907      34.957491      175.18988      95.649227      92.853974    
   5130000   300.70183      0.94896751     0.94896743     0.94318619     0.513         -31.13673      -2.5502494      213           -6.4368332      25.502494     -65.086018      20.273025      175.30575      95.512977      92.926305    
   5140000   299.27886      0.94793185     0.94793177     0.91661757     0.514         -2.3791679     -1.2286763      207            32.160766      12.286763      59.152352      25.043183      175.42161      95.530433      92.949399    
   5150000   302.08556      0.94735703     0.94735695     0.93875809     0.515         -17.006175      4.1414682      212            24.245029     -41.414682     -16.82128       130.97105      175.53748      94.994471      93.468803    
   5160000   299.80609      0.9456285      0.94562841     0.9520424      0.516          33.654421      6.6141735      215           -41.224236     -66.141735     -17.393148     -40.137824      175.65335      95.314815      93.263382    
   5170000   300.38344      0.94619876     0.94619867     0.93432998     0.517          22.855049     -0.64431573     211           -1.3236874      6.4431573     -26.77981       16.365591      175.76921      95.486139      92.978607    
   5180000   298.23374      0.94644836     0.94644827     0.92547377     0.518          20.084559     -0.89267632     209            9.8769575      8.9267632     -10.61153       31.315639      175.88508      95.169785      93.201638    
   5190000   299.22637      0.94789451     0.94789443     0.9564705      0.519         -4.241586       6.7554445      216           -6.3302158     -67.554445      50.81449      -2.2506928      176.00095      95.019251      93.145512    
   5200000   298.27392      0.94780816     0.94780808     0.92547377     0.52          -30.953753      1.4782386      209            21.528886     -14.782386     -8.9059982      88.275041      176.11681      94.87112       93.238068    
   5210000   301.32658      0.94948004     0.94947996     0.97861102     0.521         -58.077975     -4.8792637      221            48.89892       48.792637      41.823732      56.080389      176.23268      94.799182      93.083281    
   5220000   300.11195      0.95005385     0.95005377     0.92547377     0.522         -3.4220108      0.87944054     209            30.952027     -8.7944054      35.872075      65.778412      176.34854      94.924067      92.84363     
   5230000   299.60232      0.94811693     0.94811685     0.93875809     0.523         -39.94621      -5.2833957      212            29.862525      52.833957      76.972712     -40.219093      176.46441      94.62631       93.264768    
   5240000   301.2142       0.94668515     0.94668507     0.96532671     0.524          34.686882      3.1722697      218           -53.424116     -31.722697      3.83659       -132.38624      176.58028      94.784465      93.188781    
   5250000   301.24015      0.94509856     0.94509847     0.99189534     0.525         -48.552542      4.1592886      224           -7.6094531     -41.592886      43.960217     -25.19569       176.69614      95.001004      93.071387    
   5260000   301.445        0.94948437     0.94948429     0.9520424      0.526         -15.217271     -6.5092929      215            33.52002       65.092929      1.7202244      33.746906      176.81201      94.915892      92.663785    
   5270000   301.57546      0.94962587     0.94962579     0.93875809     0.527         -13.448502      5.6172913      212           -12.35359      -56.172913     -5.8451494      24.957293      176.92788      95.325722      92.191237    
   5280000   300.94879      0.94787985     0.94787976     0.94761429     0.528         -22.19611       3.1261407      214           -22.100205     -31.261407     -7.2183006     -27.820908      177.04374      95.05824       92.560334    
   5290000   302.51833      0.94661188     0.9466118      0.98303913     0.529         -7.2524826      4.4396895      222           -41.174607     -44.396895      7.4643517     -86.591276      177.15961      94.929351      92.749457    
   5300000   299.13284      0.94458488     0.9445848      0.93875809     0.53           2.3799776      2.0938021      212           -12.767255     -20.938021     -15.582453     -1.7812919      177.27548      95.128533      92.693249    
   5310000   302.24585      0.94851105     0.94851096     0.9564705      0.531          9.4487842     -3.4608729      216            8.5670696      34.608729     -45.909295      37.001774      177.39134      94.719487      92.647649    
   5320000   298.87989      0.94909664     0.94909656     0.9564705      0.532         -10.658242      7.2197358      216           -15.079045     -72.197358     -6.9255197      33.885743      177.50721      94.254074      92.986948    
   5330000   299.63783      0.94965351     0.94965343     0.94761429     0.533          42.701221      6.5590598      214           -48.076699     -65.590598     -45.389987     -33.249513      177.62307      94.369958      92.757755    
   5340000   300.66653      0.947999       0.94799892     0.9520424      0.534          33.667667      3.8098528      215           -25.855761     -38.098528     -35.339395     -4.1293591      177.73894      94.245545      92.981651    
   5350000   298.82013      0.94411844     0.94411835     0.93875809     0.535         -32.492942      7.5300493      212           -39.107031     -75.300493      6.6617961     -48.682396      177.85481      93.526488      94.020344    
   5360000   300.71748      0.94859551     0.94859542     0.96089861     0.536         -0.66439571    -0.49661164     217            23.424063      4.9661164      52.704865      12.601207      177.97067      93.60952       93.432727    
   5370000   300.28681      0.94684397     0.94684389     0.94761429     0.537          0.20602586     6.6286708      214           -22.539263     -66.286708      24.993854     -26.324935      178.08654      94.034562      93.121837    
   5380000   300.59472      0.94708865     0.94708857     0.93432998     0.538         -13.760701      2.7549884      211           -23.773241     -27.549884     -14.406622     -29.363217      178.20241      93.933758      93.137089    
   5390000   300.10492      0.94813322     0.94813314     0.93875809     0.539         -14.80866       3.7953817      212           -22.422449     -37.953817     -18.433002     -10.880527      178.31827      93.850002      93.057001    
   5400000   299.48265      0.94803483     0.94803475     0.94318619     0.54          -19.472128      4.6502531      213           -20.52562      -46.502531      61.268918     -76.343248      178.43414      93.487049      93.367312    
   5410000   298.70225      0.94928113     0.94928105     0.93875809     0.541         -63.409197     -0.0057337799   212            7.759045       0.057337799   -7.8661647      31.085962      178.55         93.410375      93.260711    
   5420000   301.80759      0.94572319     0.94572311     0.97418292     0.542         -27.782037      0.54044978     220            7.8927037     -5.4044978      67.520454     -38.437845      178.66587      93.251506      93.710242    
   5430000   297.78569      0.94645567     0.94645558     0.96532671     0.543          0.80902557     7.2281143      218           -17.841596     -72.281143      2.0441409      16.712215      178.78174      93.213149      93.615539    
   5440000   297.28921      0.94860313     0.94860304     0.93432998     0.544         -1.9628642      7.8134942      211           -29.060568     -78.134942      19.068215     -28.114978      178.8976       92.835226      93.723107    
   5450000   299.56643      0.94804937     0.94804929     0.90776136     0.545         -16.263726      1.9474892      205           -3.763917      -19.474892      0.14077589     8.0423654      179.01347      93.202286      93.348065    
   5460000   301.65482      0.94775948     0.94775939     0.94761429     0.546          6.6463208     -0.40310465     214           -0.8896332      4.0310465     -20.606434      13.906488      179.12934      93.160847      93.357727    
   5470000   301.38259      0.94905344     0.94905335     0.96532671     0.547         -32.043247      1.8675508      218            9.3102881     -18.675508      51.826676     -5.220304       179.2452       93.369608      92.961861    
   5480000   298.84938      0.94586593     0.94586585     0.93875809     0.548          39.272558      6.4091289      212            4.3294806     -64.091289      16.302908      60.776823      179.36107      93.141612      93.443056    
   5490000   298.81893      0.94773563     0.94773554     0.94318619     0.549          26.364917     -0.051374776    213           -2.9212647      0.51374776    -14.246177      4.9686356      179.47694      92.929105      93.411629    
   5500000   298.01649      0.9465928      0.94659272     0.96532671     0.55          -21.815324     -1.141942       218            28.746667      11.41942       52.635679      22.184901      179.5928       92.957977      93.435038    
   5510000   299.22726      0.94728827     0.94728818     0.96089861     0.551         -39.875156      3.5187392      217           -21.206412     -35.187392     -18.290599     -10.141246      179.70867      92.955325      93.308905    
   5520000   301.21307      0.9473471      0.94734702     0.93875809     0.552         -35.460288      1.792655       212            17.019087     -17.92655       29.884247      39.099564      179.82453      92.696147      93.5037      
   5530000   300.43769      0.94830874     0.94830865     0.89890515     0.553          6.385213      -8.2263276      203            39.352317      82.263276      30.055503      5.738173       179.9404       92.200273      93.850785    
   5540000   299.92138      0.94878101     0.94878093     0.96975482     0.554          3.85054        5.0648027      219           -13.42368      -50.648027     -16.872415      27.249402      180.05627      92.246192      93.697041    
   5550000   300.5697       0.94705914     0.94705906     0.99189534     0.555          70.849837     -3.3719928      224           -9.1722509      33.719928      7.5671434     -68.803823      180.17213      92.403501      93.647331    
   5560000   299.17631      0.94633169     0.9463316      0.98303913     0.556         -19.841665     -3.5904055      222           -5.9472577      35.904055     -8.5045033     -45.241325      180.288        92.164276      93.902193    
   5570000   298.84481      0.9479826      0.94798251     0.96975482     0.557         -15.463259      2.9979942      219           -6.0371671     -29.979942      15.59121      -3.7227694      180.40387      92.133354      93.709898    
   5580000   299.82481      0.94847424     0.94847416     0.98303913     0.558          19.076416     -1.0511303      222           -13.337469      10.511303     -44.838146     -5.6855637      180.51973      92.054432      93.681455    
   5590000   301.66858      0.95073295     0.95073287     0.97861102     0.559         -32.210744     -3.2755529      221            46.763346      32.755529      39.335236      68.199273      180.6356       92.19743       93.254082    
   5600000   302.22948      0.94967252     0.94967244     0.97861102     0.56           34.322929      5.6790357      221           -4.4578627     -56.790357      3.2141729      40.202596      180.75146      91.867866      93.633062    
   5610000   301.35312      0.9483724      0.94837232     0.94761429     0.561          10.604124      3.6663553      214           -12.841254     -36.663553      28.864947     -30.725157      180.86733      91.913409      93.654929    
   5620000   301.17465      0.94781421     0.94781412     0.97418292     0.562         -59.702819      1.5347726      220           -6.8130346     -15.347726      23.096163     -28.187542      180.9832       92.080049      93.48061     
   5630000   299.66159      0.95086078     0.9508607      0.93875809     0.563          15.074049     -0.0031886397   212            3.0571256      0.031886397    5.3440968      3.7953936      181.09906      92.066061      93.135628    
   5640000   299.05138      0.94668771     0.94668763     0.9520424      0.564          7.4933683      3.0899381      215           -47.693024     -30.899381     -121.70074      9.5210435      181.21493      92.062615      93.489864    
   5650000   298.81914      0.94574356     0.94574348     0.93875809     0.565         -48.110207     -6.6286582      212            16.545818      66.286582     -41.396675      24.747547      181.3308       92.021969      93.564708    
   5660000   299.98267      0.94636764     0.94636756     0.96532671     0.566         -70.48072      -6.0681685      218            17.971563      60.681685      10.259732     -17.026729      181.44666      91.964545      93.501646    
   5670000   299.47521      0.94849205     0.94849196     0.96975482     0.567          38.533319      12.954383      219           -51.580979     -129.54383     -1.1549689     -24.044136      181.56253      92.033434      93.162902    
   5680000   299.55522      0.94768588     0.94768579     0.94318619     0.568         -11.062957      5.6267855      213           -47.104834     -56.267855     -40.000699     -45.045947      181.6784       91.72342       93.497634    
   5690000   299.34594      0.94547231     0.94547223     0.97861102     0.569          11.428955     -0.48324778     221           -0.20526835     4.8324778     -10.974883      5.5265999      181.79426      92.484866      92.885708    
   5700000   301.20602      0.9466493      0.94664921     0.9520424      0.57          -7.8234354      6.9291475      215           -48.68774      -69.291475     -60.579087     -16.192656      181.91013      92.007873      93.191771    
   5710000   300.4368       0.9480919      0.94809181     0.96975482     0.571          27.608081      6.3663641      219           -3.686473      -63.663641      52.64639      -0.042168641    182.02599      92.152763      92.844534    
   5720000   299.41889      0.94882687     0.94882679     0.94318619     0.572          73.613831      1.859894       213           -13.905353     -18.59894      -0.60116737    -22.515951      182.14186      92.203117      92.662968    
   5730000   300.90825      0.9487756      0.94877552     0.9520424      0.573          37.273635     -0.66984224     215            34.270668      6.6984224      59.231787      36.881793      182.25773      92.472258      92.339524    
   5740000   297.26045      0.94837445     0.94837437     0.9520424      0.574          81.876699     -8.3380292      215            6.4031966      83.380292     -16.17902      -47.991683      182.37359      92.521791      92.270467    
   5750000   300.98057      0.94659783     0.94659775     0.9520424      0.575          37.385599      8.9371209      215           -46.134802     -89.371209      17.826082     -66.859278      182.48946      92.263269      92.643814    
   5760000   300.49877      0.94662742     0.94662734     0.90776136     0.576          29.887523      0.37920716     205            0.24263945    -3.7920716     -7.6686781      12.188668      182.60533      92.338996      92.506209    
   5770000   302.43359      0.94517189     0.9451718      0.93875809     0.577          39.222195      7.8575281      212           -53.795566     -78.575281     -29.141467     -53.669952      182.72119      92.710094      92.219299    
   5780000   298.73712      0.94698788     0.9469878      0.9520424      0.578          24.853435      13.759849      215           -93.715247     -137.59849     -82.832823     -60.71443       182.83706      92.944699      91.751945    
   5790000   298.54968      0.94951086     0.94951078     0.96975482     0.579         -6.4798888     -6.1094811      219            43.828737      61.094811      27.573639      42.81776       182.95293      92.652523      91.738579    
   5800000   300.89729      0.94761296     0.94761287     0.94318619     0.58           5.9510517      2.9473226      213            6.0426946     -29.473226      2.72581        44.8755        183.06879      92.47763       92.037869    
   5810000   299.98692      0.94765475     0.94765467     0.90333325     0.581          2.240876      -1.2694017      204            2.9201957      12.694017      9.2926323     -13.226063      183.18466      92.889586      91.567695    
   5820000   299.69475      0.94707185     0.94707177     0.93432998     0.582          16.209204      0.92568144     211           -21.510544     -9.2568144     -21.290065     -33.984754      183.30052      92.66284       91.790199    
   5830000   300.04063      0.94716682     0.94716673     0.96532671     0.583          36.763903      6.8656471      218           -2.9101569     -68.656471      3.5642833      56.361717      183.41639      92.906438      91.482521    
   5840000   301.32327      0.94986141     0.94986133     0.9564705      0.584          47.996245     -4.7767905      216            57.955979      47.767905      39.647083      86.452947      183.53226      92.678279      91.389845    
   5850000   299.39951      0.94490284     0.94490276     0.89890515     0.585          70.882389      8.650224       203           -41.135402     -86.50224      -53.963517      17.059552      183.64812      92.532429      91.956184    
   5860000   300.44652      0.9471425      0.94714241     0.9520424      0.586         -24.258387     -1.0462079      215            20.949849      10.462079      39.786606      12.600861      183.76399      92.272652      91.939008    
   5870000   299.02884      0.94665351     0.94665343     0.94318619     0.587         -4.2790601     -4.7642517      213            32.894008      47.642517      22.457728      28.58178       183.87986      92.290673      91.910586    
   5880000   300.53347      0.94659448     0.9465944      0.96532671     0.588         -2.8685157     -3.3493069      218            9.8052692      33.493069     -35.199203      31.121941      183.99572      92.561621      91.589546    
   5890000   300.12511      0.94753725     0.94753716     0.9520424      0.589         -27.725528      0.82966018     215           -37.472424     -8.2966018     -30.933385     -73.187287      184.11159      91.983643      92.015403    
   5900000   300.2763       0.94574381     0.94574372     0.92990188     0.59           54.314673     -0.060867323    210           -15.192715      0.60867323    -35.862993     -10.323824      184.22745      91.93072       92.184952    
   5910000   299.54426      0.94586393     0.94586385     0.97418292     0.591         -9.6532311      0.49689866     220            37.709746     -4.9689866      14.727029      103.37119      184.34332      91.542179      92.506283    
   5920000   301.21527      0.94779568     0.9477956      0.97861102     0.592         -38.667308      3.5976975      221           -9.6917825     -35.976975     -12.322229      19.223856      184.45919      91.11873       92.688505    
   5930000   301.06551      0.94819864     0.94819856     0.94761429     0.593         -24.084904     -1.2125313      214           -11.678493      12.125313     -40.611055     -6.5497361      184.57505      91.687684      92.016396    
   5940000   301.17202      0.94515563     0.94515555     0.9520424      0.594         -41.913447      2.970557       215           -4.8798655     -29.70557       68.412799     -53.346825      184.69092      91.480991      92.463179    
   5950000   299.79466      0.94769362     0.94769354     0.98303913     0.595          45.42947       10.61356       222           -25.744069     -106.1356       27.132394      1.7709942      184.80679      91.964774      91.672942    
   5960000   298.69696      0.94646376     0.94646367     0.97418292     0.596          10.276868      3.6750231      220            10.062895     -36.750231      35.944304      30.994611      184.92265      91.162194      92.54217     
   5970000   299.48573      0.94590053     0.94590044     0.94318619     0.597         -15.076272      7.6427244      213           -26.277209     -76.427244      9.7597049     -12.164089      185.03852      91.017704      92.686198    
   5980000   300.87216      0.94816009     0.94816001     0.97418292     0.598          8.4824429      8.9843506      220           -37.635643     -89.843506     -14.000021     -9.0634027      185.15439      91.244694      92.177571    
   5990000   301.34825      0.94814295     0.94814286     0.92104567     0.599         -6.6642058      8.312336       208           -49.008077     -83.12336      -74.122669      10.221797      185.27025      91.492023      91.872559    
   6000000   297.42219      0.9495822      0.94958211     0.92104567     0.6            22.819117     -0.27402106     208            30.140694      2.7402106     -6.9970239      94.678895      185.38612      91.223591      91.94574     
   6010000   300.96657      0.94638743     0.94638735     0.9520424      0.601          1.4510684      7.6295549      215           -17.061909     -76.295549      27.971256     -2.8614327      185.50198      91.842714      91.57698     
   6020000   299.95076      0.94692872     0.94692864     0.97861102     0.602         -34.320069      8.4225022      221           -20.432868     -84.225022      30.738328     -7.8119091      185.61785      91.987867      91.323169    
   6030000   300.10495      0.94705324     0.94705316     0.9520424      0.603         -6.3186607      2.1321518      215           -8.1727362     -21.321518      4.2643422     -7.4610327      185.73372      92.442158      90.805746    
   6040000   300.18677      0.94801557     0.94801549     0.94761429     0.604          5.3587438      1.3208532      214            1.9749185     -13.208532      11.494434      7.6388527      185.84958      92.232392      90.863198    
   6050000   299.22624      0.946471       0.94647092     0.93432998     0.605         -19.365188      2.2366233      211            4.3610572     -22.366233      52.756217     -17.306812      185.96545      92.287252      90.900707    
   6060000   299.84739      0.94700046     0.94700037     0.96975482     0.606          22.423232      1.5326226      219           -11.367539     -15.326226     -3.2958214     -15.480571      186.08132      91.96843       91.108065    
   6070000   299.7279       0.94770226     0.94770218     0.96089861     0.607          37.626677      0.88210656     217           -39.985354     -8.8210656     -55.414243     -55.720752      186.19718      92.023018      90.929973    
   6080000   301.62018      0.94661096     0.94661087     0.98303913     0.608         -28.968761      4.3222145      222           -28.402071     -43.222145      19.121883     -61.10595       186.31305      91.486538      91.511687    
   6090000   300.65895      0.94742345     0.94742337     0.94318619     0.609          54.068277      0.081491554    213           -5.1396031     -0.81491554    -9.9161104     -4.6877833      186.42891      91.324239      91.538774    
   6100000   302.25305      0.94593417     0.94593409     0.92547377     0.61          -25.154528     -0.68343601     209           -21.18764       6.8343601     -48.646871     -21.75041       186.54478      91.344193      91.605931    
   6110000   299.75592      0.94851961     0.94851953     0.9564705      0.611         -64.23235       2.1251863      216           -4.2616675     -21.251863      51.759724     -43.292864      186.66065      91.403794      91.239993    
   6120000   300.88086      0.94859489     0.9485948      0.97418292     0.612         -23.426275     -3.1147784      220            51.273365      31.147784      89.663956      33.008356      186.77651      91.637152      90.943973    
   6130000   302.45798      0.94894567     0.94894559     0.93875809     0.613         -10.955671      3.3151107      212           -19.082823     -33.151107     -17.355915     -6.7414461      186.89238      91.999602      90.496058    
   6140000   299.42525      0.94781094     0.94781086     0.96089861     0.614         -24.79046       1.5784234      217            18.321771     -15.784234      3.1384592      67.611088      187.00825      91.940396      90.606573    
   6150000   299.96715      0.94883508     0.948835       0.93432998     0.615          52.577995     -8.2472273      211           -8.1967634      82.472273     -33.159485     -73.903078      187.12411      91.306385      91.080817    
   6160000   300.31806      0.94883343     0.94883335     0.97418292     0.616         -46.058933      3.6550851      220           -22.433455     -36.550851      22.357659     -53.107171      187.23998      91.02752       91.303469    
   6170000   299.14739      0.94696199     0.94696191     0.94761429     0.617         -34.950227      3.178502       214           -6.3843009     -31.78502      -29.613689      42.245807      187.35585      91.283137      91.171311    
   6180000   300.73262      0.94800472     0.94800464     0.9520424      0.618         -74.856995     -1.9470586      215            12.208591      19.470586      13.191675      3.9635129      187.47171      91.163713      91.133972    
   6190000   299.72626      0.94787612     0.94787603     0.91661757     0.619          3.764281       0.82611472     207           -10.176305     -8.2611472     -1.7004343     -20.567334      187.58758      91.114499      91.13924     
   6200000   299.39934      0.94752412     0.94752404     0.96089861     0.62          -3.3070121     -2.6443408      217            7.8899043      26.443408      8.3160458     -11.089741      187.70344      91.619733      90.614356    
   6210000   301.69016      0.94850167     0.94850158     0.92990188     0.621          6.5002762      4.7258996      210           -8.8064835     -47.258996     -5.5504793      26.390025      187.81931      91.998297      90.09287     
   6220000   302.70642      0.94897389     0.9489738      0.96532671     0.622         -22.358613      2.1388102      218           -4.6533268     -21.388102      41.004352     -33.57623       187.93518      92.125263      89.868496    
   6230000   300.48879      0.94592249     0.94592241     0.93432998     0.623         -18.879187      2.95467        211            37.63129      -29.5467        92.589579      49.850991      188.05104      92.332868      89.900256    
   6240000   300.26032      0.94600482     0.94600474     0.93432998     0.624          4.6423714      4.0662729      211           -50.728081     -40.662729     -45.300162     -66.221353      188.16691      92.30377       89.865399    
   6250000   301.14332      0.94498443     0.94498434     0.96975482     0.625         -41.527134      4.1692597      219           -8.7021595     -41.692597     -12.773515      28.359634      188.28278      92.18991       90.018116    
   6260000   299.84098      0.94671206     0.94671198     0.92547377     0.626         -25.888203      3.1528597      209           -27.486402     -31.528597     -35.730439     -15.200171      188.39864      92.063973      89.92142     
   6270000   298.25722      0.94727153     0.94727145     0.94761429     0.627          10.95463       13.043631      214           -49.47148      -130.43631     -20.218558      2.2404331      188.51451      92.116673      89.761694    
   6280000   299.79304      0.94725766     0.94725758     0.9564705      0.628         -40.189142      8.3654547      216           -46.222419     -83.654547     -0.70025073    -54.312459      188.63037      91.941468      89.87882     
   6290000   300.48588      0.94734471     0.94734463     0.97418292     0.629         -64.675078     -7.7650981      220            27.850885      77.650981      2.283237       3.6184382      188.74624      91.962721      89.794636    
   6300000   300.58974      0.94803398     0.94803389     0.9520424      0.63           33.264647      0.5337311      215            15.681667     -5.337311       10.031143      42.351168      188.86211      92.055         89.584409    
   6310000   303.32896      0.94676278     0.9467627      0.93432998     0.631          2.3445649      9.3516094      211           -16.891552     -93.516094      35.21637       7.6250671      188.97797      91.763686      89.934295    
   6320000   301.09568      0.94527361     0.94527353     0.94761429     0.632          6.4374455      12.966197      214           -116.06391     -129.66197     -149.58704     -68.942699      189.09384      91.871119      89.915513    
   6330000   295.95105      0.94969605     0.94969597     0.96975482     0.633         -66.088821      11.69428       219           -38.391937     -116.9428       2.431793      -0.66480323     189.20971      91.862983      89.449921    
   6340000   299.93974      0.94554157     0.94554148     0.92104567     0.634          22.813606      6.7777484      208           -23.784116     -67.777484      33.288133     -36.862998      189.32557      91.845907      89.804653    
   6350000   300.46821      0.94731854     0.94731846     0.9564705      0.635         -41.877439     -6.3047132      216            75.193548      63.047132      112.36557      50.167939      189.44144      91.710191      89.71394     
   6360000   301.36767      0.94654652     0.94654643     0.96089861     0.636         -43.566951      6.9063869      217           -39.764884     -69.063869     -15.83565      -34.395134      189.55731      91.462593      89.975145    
   6370000   298.79691      0.94863379     0.9486337      0.9564705      0.637          1.5795674      1.6999365      216            21.648347     -16.999365      94.896558     -12.952152      189.67317      91.042739      90.136096    
   6380000   299.94582      0.94886095     0.94886086     0.91661757     0.638         -20.556247      3.5984658      207           -35.378981     -35.984658     -69.751777     -0.40050954     189.78904      90.802774      90.297502    
   6390000   301.21015      0.94352865     0.94352856     0.92547377     0.639          22.56437       1.1363526      209           -31.623822     -11.363526     -42.32334      -41.1846        189.9049       90.667512      90.887798    
   6400000   300.53821      0.94892431     0.94892423     0.94318619     0.64           39.790015     -1.1448454      213            40.447965      11.448454      41.470707      68.424735      190.02077      90.132987      90.851508    
   6410000   300.14425      0.94794617     0.94794609     0.9520424      0.641         -2.5088034      2.2380866      215           -19.855409     -22.380866     -64.061073      26.875712      190.13664      90.372396      90.649052    
   6420000   301.07494      0.94467117     0.94467108     0.94761429     0.642         -4.1751468      4.3714339      214           -40.432789     -43.714339     -5.6955655     -71.888462      190.2525       90.673266      90.60627     
   6430000   300.11373      0.94643926     0.94643918     0.93875809     0.643          8.4207822     -8.7078543      212            43.599225      87.078543      7.0552356      36.663896      190.36837      90.37411       90.681142    
   6440000   299.85356      0.94836782     0.94836774     0.96975482     0.644         -106.43023      0.22897472     219            41.407366     -2.2897472      63.473511      63.038334      190.48424      89.694057      91.127412    
   6450000   300.58365      0.94501083     0.94501075     0.91661757     0.645          1.5735744      3.3221217      207           -12.426711     -33.221217     -11.873366      7.8144511      190.6001       89.923151      91.162688    
   6460000   300.87069      0.94597493     0.94597485     0.94318619     0.646          37.028398      3.4524986      213           -9.4710158     -34.524986     -4.7051638      10.817103      190.71597      89.532368      91.411702    
   6470000   300.13985      0.9476326      0.94763252     0.96089861     0.647         -49.941791      2.2780366      217           -10.079489     -22.780366      16.277689     -23.735789      190.83184      89.915482      90.807821    
   6480000   298.83667      0.94671104     0.94671096     0.9520424      0.648         -4.6761162     -0.36905913     215           -35.756107      3.6905913     -114.68832      3.7294057      190.9477       90.036672      90.718788    
   6490000   301.06754      0.94850292     0.94850284     0.94761429     0.649         -19.902626      0.75007571     214           -17.294469     -7.5007571     -20.821338     -23.561312      191.06357      89.78801       90.743108    
   6500000   300.13384      0.94872104     0.94872096     0.9520424      0.65          -46.502665     -0.88770394     215            19.113254      8.8770394      16.489771      31.972953      191.17943      89.739874      90.715896    
   6510000   299.40907      0.94917399     0.94917391     0.91218946     0.651         -5.2142832      0.25565547     206            19.61699      -2.5565547      7.380133       54.027393      191.2953       89.707749      90.650136    
   6520000   300.44196      0.94928982     0.94928974     0.94761429     0.652          18.83334       1.1005591      214            6.0458688     -11.005591      52.674005     -23.530808      191.41117      89.687163      90.605001    
   6530000   297.87655      0.94652824     0.94652815     0.90776136     0.653          7.1934404      0.38539291     205            35.208626     -3.8539291      71.075262      38.404545      191.52703      89.81259       90.687551    
   6540000   300.95357      0.94739397     0.94739389     0.94318619     0.654          51.281152      0.91440286     213           -29.921693     -9.1440286     -19.721136     -60.899914      191.6429       89.74173       90.6214      
   6550000   301.09589      0.94490358     0.9449035      0.93432998     0.655          18.86183       7.2968293      211           -20.950441     -72.968293     -17.288201      27.405171      191.75877      89.115222      91.443731    
   6560000   300.79672      0.94707102     0.94707093     0.9564705      0.656          6.0988748      1.3685119      216            30.228432     -13.685119      52.763427      51.606988      191.87463      89.172388      91.12091     
   6570000   301.68742      0.94380296     0.94380288     0.9564705      0.657          16.220019      0.89988014     216            12.859219     -8.9988014      61.690429     -14.113971      191.9905       89.15895       91.39502     
   6580000   299.69782      0.94895147     0.94895138     0.93875809     0.658         -7.9108836      7.7529174      212           -30.558885     -77.529174     -26.137695      11.990213      192.10636      89.305905      90.694849    
   6590000   301.47783      0.94963652     0.94963644     0.96089861     0.659         -46.883904     -3.8993136      217            22.945752      38.993136      30.049223     -0.20510338     192.22223      89.163674      90.719276    
   6600000   300.09774      0.94523377     0.94523369     0.93875809     0.66           3.2654918      0.97326569     212           -18.949756     -9.7326569      9.3691879     -56.485799      192.3381       89.181982      91.068228    
   6610000   299.70015      0.9486676      0.94866751     0.9520424      0.661          48.188467      5.8431536      215           -32.256404     -58.431536     -31.454234     -6.8834422      192.45396      88.761492      91.113563    
   6620000   299.2864       0.94742726     0.94742718     0.96089861     0.662         -25.530395      5.7932102      217           -26.601008     -57.932102     -14.500163     -7.3707585      192.56983      88.709846      91.231035    
   6630000   300.32324      0.94579097     0.94579089     0.93432998     0.663         -10.843134      7.9080082      211           -9.261805      -79.080082     -2.5346173      53.829285      192.6857       88.326754      91.730052    
   6640000   302.53982      0.94694349     0.94694341     0.96532671     0.664         -3.1831697      7.4148187      218           -27.435793     -74.148187      7.6581973     -15.817391      192.80156      87.99093       91.912807    
   6650000   301.00703      0.94704725     0.94704717     0.93875809     0.665          8.1638328      4.0755716      212           -1.2290981     -40.755716      77.316011     -40.24759       192.91743      88.137207      91.695106    
   6660000   299.73359      0.94711789     0.94711781     0.92104567     0.666          16.098352      3.8730256      208           -0.43814008    -38.730256      34.357276      3.0585593      193.0333       87.927225      91.852064    
   6670000   300.32027      0.94749746     0.94749738     0.9520424      0.667         -20.08708       12.852267      215           -58.075832     -128.52267     -48.594864      2.8900404      193.14916      88.695366      90.965506    
   6680000   302.36765      0.94877798     0.9487779      0.94761429     0.668          55.726244      0.15762828     214           -8.2558601     -1.5762828      25.145761     -48.337058      193.26503      88.322021      91.172042    
   6690000   299.00667      0.94726478     0.9472647      0.93432998     0.669          43.772363      0.055424518    211            14.267465     -0.55424518     12.445874      30.910765      193.38089      88.447796      91.133192    
   6700000   299.87654      0.94579065     0.94579057     0.96975482     0.67           36.482671      6.0545747      219           -68.924156     -60.545747     -66.818501     -79.40822       193.49676      88.528818      91.137092    
   6710000   299.89922      0.94850034     0.94850025     0.96089861     0.671          6.2007375      1.8343574      217           -53.830632     -18.343574     -38.230149     -104.91817      193.61263      88.841863      90.502323    
   6720000   300.61577      0.94835157     0.94835148     0.9520424      0.672          28.561918      6.937278       215           -33.931373     -69.37278      -6.2986302     -26.122708      193.72849      88.69783       90.609282    
   6730000   302.7388       0.94728275     0.94728266     0.96532671     0.673          31.863752      3.7973876      218           -33.338935     -37.973876     -27.874696     -34.168234      193.84436      88.830537      90.52186     
   6740000   302.48567      0.94683147     0.94683139     0.93432998     0.674         -6.1223881      0.43602071     211           -15.976723     -4.3602071      40.764993     -84.334955      193.96023      88.374195      90.978279    
   6750000   299.3592       0.94874291     0.94874283     0.93875809     0.675         -51.203285     -0.10063939     212            30.943791      1.0063939      53.451569      38.373411      194.07609      87.927621      91.201639    
   6760000   299.03525      0.94612059     0.94612051     0.92990188     0.676         -6.9341765     -2.1874083      210            10.649268      21.874083      25.316544     -15.242823      194.19196      88.095208      91.225978    
   6770000   300.87151      0.94618085     0.94618077     0.92547377     0.677          14.404496     -3.2091306      209            2.9249416      32.091306     -8.7090078     -14.607473      194.30782      88.008553      91.255537    
   6780000   301.53382      0.94492916     0.94492908     0.91218946     0.678          25.879103      6.9102021      206           -34.228971     -69.102021     -25.2308       -8.3540927      194.42369      87.802972      91.535783    
   6790000   300.91732      0.94689785     0.94689777     0.93432998     0.679          13.973406      1.8177429      211           -12.862247     -18.177429      40.681934     -61.091246      194.53956      87.457755      91.651414    
   6800000   299.21602      0.9485836      0.94858352     0.93875809     0.68           2.0453769     -2.0884676      212           -8.4102914      20.884676     -15.455109     -30.660441      194.65542      87.384614      91.510612    
   6810000   298.83056      0.9501813      0.95018122     0.94318619     0.681         -8.0668172     -6.7208698      213            40.055786      67.208698      13.032825      39.925837      194.77129      87.508348      91.173294    
   6820000   300.35281      0.94737786     0.94737778     0.96089861     0.682         -8.4624194     -1.7908996      217            11.261291      17.908996     -13.433736      29.308614      194.88716      88.068842      90.807102    
   6830000   299.72903      0.94556053     0.94556045     0.96975482     0.683          2.9110009      3.6327909      219           -36.827801     -36.327909     -19.11294      -55.042554      195.00302      88.156289      90.837374    
   6840000   299.57864      0.94653859     0.9465385      0.92990188     0.684          57.254657     -5.0422583      210            53.078146      50.422583      43.389017      65.422837      195.11889      88.317581      90.524002    
   6850000   298.998        0.94512018     0.9451201      0.97861102     0.685          26.582722      8.068627       221           -61.68857      -80.68627      -66.499537     -37.879903      195.23476      88.240678      90.685018    
   6860000   300.72425      0.94773649     0.9477364      0.9520424      0.686          38.930986     -1.4495299      215            25.500846      14.495299      18.362151      43.645088      195.35062      88.195102      90.427742    
   6870000   300.40215      0.94685962     0.94685954     0.9520424      0.687          3.7213331      7.3477146      215           -55.607056     -73.477146     -54.526391     -38.817632      195.46649      88.005692      90.652521    
   6880000   300.43033      0.94844214     0.94844205     0.93432998     0.688          13.756217     -7.1887971      211            5.8959427      71.887971      24.195731     -78.395874      195.58235      87.481325      90.989796    
   6890000   301.66697      0.94654934     0.94654926     0.96532671     0.689          1.9307576      3.644099       218           -27.586945     -36.44099      -30.773489     -15.546355      195.69822      87.850184      90.735188    
   6900000   301.56002      0.94755762     0.94755753     0.93875809     0.69          -18.102732      2.4337609      212           -30.850229     -24.337609     -32.508022     -35.705056      195.81409      87.576891      90.867687    
   6910000   299.04398      0.9488655      0.94886542     0.94761429     0.691         -44.505652     -1.6851718      214            31.127871      16.851718      68.531599      8.0002957      195.92995      87.810186      90.447832    
   6920000   298.5326       0.9504886      0.95048852     0.96975482     0.692         -42.20021      -2.4403693      219            65.310114      24.403693      101.7213       69.805352      196.04582      87.471559      90.589359    
   6930000   301.00875      0.94894048     0.9489404      0.92990188     0.693          66.745933      0.60316927     210            19.67593      -6.0316927      35.406715      29.652767      196.16169      87.941988      90.198458    
   6940000   300.84276      0.94692564     0.94692555     0.9564705      0.694          2.3831508      5.3783725      216           -48.015599     -53.783725     -98.757518      8.4944463      196.27755      88.105139      90.169737    
   6950000   298.62774      0.94721516     0.94721508     0.92104567     0.695         -5.687785       7.8508448      208           -34.547423     -78.508448      31.649959     -56.783778      196.39342      88.283228      89.907263    
   6960000   302.01887      0.94688719     0.94688711     0.92104567     0.696          63.570361      1.5967928      208            17.160221     -15.967928      74.713147     -7.2645554      196.50928      88.211396      89.958569    
   6970000   300.38548      0.94899136     0.94899128     0.9520424      0.697          50.892143      4.845483       215           -10.743521     -48.45483      -7.5237975      23.748066      196.62515      88.600222      89.312535    
   6980000   301.53355      0.94960296     0.94960288     0.9520424      0.698          66.467936      6.3509944      215            12.93865      -63.509944      71.812187      30.513706      196.74102      88.731587      89.070385    
   6990000   300.7289       0.94462561     0.94462553     0.91218946     0.699         -15.293783      1.5883078      206            15.14774      -15.883078     -23.311178      84.637476      196.85688      89.191361      89.025708    
   7000000   298.69187      0.94593804     0.94593796     0.96532671     0.7           -9.6035031     -1.4853321      218           -1.6866865      14.853321      9.9977121     -29.911093      196.97275      88.884743      89.156393    
   7010000   297.53169      0.94927968     0.94927959     0.92547377     0.701         -8.8379077     -1.0161207      209            25.172721      10.161207      24.921309      40.435646      197.08862      88.405745      89.271399    
   7020000   301.23298      0.94806762     0.94806754     0.9564705      0.702          4.7149671      2.7715937      216           -11.632678     -27.715937      28.50905      -35.691147      197.20448      88.147844      89.594378    
   7030000   300.02442      0.94866971     0.94866963     0.96089861     0.703         -24.018572     -2.2084888      217            25.22602       22.084888      17.631891      35.96128       197.32035      87.973526      89.662252    
   7040000   300.00323      0.94553639     0.94553631     0.90333325     0.704          9.9360029      5.0255063      204           -47.734335     -50.255063      13.381535     -106.32948      197.43622      87.842088      90.041108    
   7050000   300.50543      0.9475746      0.94757452     0.92990188     0.705          10.600442      1.2836515      210            40.866954     -12.836515      100.4132       35.024178      197.55208      87.631718      90.010299    
   7060000   299.47338      0.9485559      0.94855582     0.96532671     0.706         -29.354943      4.8121688      218            3.8054529     -48.121688      15.948514      43.589532      197.66795      87.747196      89.746211    
   7070000   300.65208      0.94649746     0.94649738     0.96975482     0.707         -44.168921      9.3465304      219           -48.435538     -93.465304     -58.517164      6.675856       197.78381      87.539802      90.101659    
   7080000   301.9101       0.94726985     0.94726976     0.90333325     0.708         -14.157613      0.47977917     204           -15.519773     -4.7977917     -47.815405      6.0538784      197.89968      87.634633      89.878119    
   7090000   301.47013      0.94708405     0.94708397     0.93875809     0.709          57.792258      6.7897556      212           -14.952439     -67.897556      33.189393     -10.149155      198.01555      87.934042      89.53724     
   7100000   302.54581      0.94746529     0.94746521     0.91218946     0.71           55.688716      5.8753979      206           -35.862224     -58.753979     -7.3567532     -41.47594       198.13141      87.753084      89.633327    
   7110000   299.97692      0.94741169     0.94741161     0.96089861     0.711          18.105818     -1.089864       217           -5.9685461      10.89864      -7.4224914     -21.381787      198.24728      87.627367      89.714535    
   7120000   299.16042      0.94915789     0.94915781     0.96532671     0.712         -31.714002     -4.1960104      218            46.223827      41.960104      48.172514      48.538864      198.36315      87.287247      89.845909    
   7130000   299.56507      0.94626386     0.94626378     0.91661757     0.713          11.06539      -1.0484784      207            35.501653      10.484784      51.786001      44.234173      198.47901      86.792853      90.581132    
   7140000   300.5199       0.94694271     0.94694263     0.94318619     0.714         -7.5104104      4.8088817      213           -40.416279     -48.088817     -45.670137     -27.489882      198.59488      86.661959      90.600021    
   7150000   301.06029      0.94865144     0.94865136     0.9564705      0.715         -12.342838      3.5969154      216           -9.0013507     -35.969154      11.197994     -2.2328917      198.71075      86.773291      90.268133    
   7160000   300.73642      0.94671328     0.94671319     0.9564705      0.716         -50.327088      5.9524409      216            12.645096     -59.524409      84.175309      13.284388      198.82661      86.692506      90.484463    
   7170000   298.91976      0.94784844     0.94784836     0.99189534     0.717         -38.297104      5.1836913      224           -18.75737      -51.836913     -39.015532      34.580336      198.94248      86.99237       90.012115    
   7180000   300.58962      0.94754665     0.94754657     0.94761429     0.718          17.81244      -1.6692581      214            25.640319      16.692581      41.168807      19.05957       199.05834      86.632133      90.362566    
   7190000   298.13431      0.94408487     0.94408479     0.93432998     0.719          9.1998654      2.9675971      211           -20.53492      -29.675971     -36.916462      4.9876749      199.17421      86.880566      90.381962    
   7200000   300.387        0.94625684     0.94625676     0.92547377     0.72           26.33177      -2.2386902      209            6.7636141      22.386902     -38.47152       36.37546       199.29008      86.369713      90.655127    
   7210000   299.72374      0.94865056     0.94865048     0.92547377     0.721         -14.914636     -1.3779556      209           -14.857528      13.779556     -29.945582     -28.406557      199.40594      86.311629      90.434652    
   7220000   299.6502       0.94654397     0.94654388     0.9564705      0.722          25.565446      11.240615      216           -28.305007     -112.40615      34.968909     -7.4777833      199.52181      86.247539      90.650598    
   7230000   298.47045      0.94981674     0.94981665     0.92990188     0.723          36.174306     -4.1240857      210            45.068693      41.240857     -17.996885      111.96211      199.63768      85.956461      90.591553    
   7240000   300.51043      0.94623236     0.94623228     0.92104567     0.724          60.84032       1.2004573      208           -29.737645     -12.004573     -45.481446     -31.726915      199.75354      86.304571      90.515398    
   7250000   299.07982      0.94795739     0.94795731     0.92547377     0.725          38.022839      0.014692965    209           -13.292704     -0.14692965    -39.840202      0.10901856     199.86941      86.371197      90.228651    
   7260000   296.72578      0.95098998     0.9509899      0.94761429     0.726          14.018958     -2.2235817      214            32.619869      22.235817      70.674629      4.9491597      199.98527      85.860751      90.423207    
   7270000   301.17019      0.94693554     0.94693545     0.96975482     0.727         -22.92949       5.9729479      219           -30.32048      -59.729479     -47.863055      16.631093      200.10114      85.784015      90.83897     
   7280000   299.39385      0.94873403     0.94873395     0.94761429     0.728          18.638654     -0.35255322     214            16.915021      3.5255322      52.203467     -4.9839377      200.21701      85.562977      90.848387    
   7290000   299.7939       0.94503618     0.94503609     0.94318619     0.729         -34.179975      1.2488846      213           -12.148665     -12.488846     -4.0390825     -19.918066      200.33287      85.520498      91.196396    
   7300000   300.59189      0.94859276     0.94859268     0.9564705      0.73           49.326209     -0.051415832    216            27.707093      0.51415832     38.06687       44.540251      200.44874      85.383848      90.947275    
   7310000   299.34349      0.94872994     0.94872986     0.9564705      0.731         -77.833987      4.04772        216            15.714118     -40.4772        43.422776      44.196777      200.56461      85.944543      90.288688    
   7320000   300.51361      0.94491249     0.94491241     0.97418292     0.732         -2.9884916      0.67081272     220           -25.20945      -6.7081272     -43.667098     -25.253126      200.68047      86.152004      90.38294     
   7330000   298.96994      0.94764756     0.94764748     0.99632344     0.733         -55.22416       10.178773      225           -66.683559     -101.78773     -53.606338     -44.656613      200.79634      86.127837      90.095349    
   7340000   300.78127      0.94887987     0.94887978     0.92547377     0.734         -13.781526      1.8653436      209            15.743659     -18.653436      29.392109      36.492303      200.91221      86.292798      89.754545    
   7350000   299.07392      0.94628172     0.94628163     0.93432998     0.735         -3.7813016      6.5720793      211            2.308987      -65.720793      37.445585      35.20217       201.02807      86.277316      89.965246    
   7360000   300.41086      0.94736676     0.94736668     0.96975482     0.736          77.301712      15.148906      219           -75.007501     -151.48906     -55.750099     -17.783345      201.14394      86.08024       90.016058    
   7370000   299.49058      0.94648836     0.94648828     0.93432998     0.737          51.733377      6.8850557      211           -45.969451     -68.850557      17.21282      -86.270618      201.2598       86.034537      90.095563    
   7380000   298.36323      0.94722509     0.94722501     0.9564705      0.738         -14.514065      6.3047017      216           -38.64344      -63.047017     -41.325941     -11.557362      201.37567      86.53907       89.449133    
   7390000   299.14783      0.94981034     0.94981026     0.96532671     0.739         -31.359586     -2.388506       218            31.92868       23.88506       32.63428       39.2667        201.49154      86.13792       89.569565    
   7400000   299.74213      0.94575382     0.94575374     0.94318619     0.74          -14.340083      3.0069849      213           -35.460178     -30.069849     -17.109548     -59.201137      201.6074       85.947106      90.101644    
   7410000   300.05429      0.94564283     0.94564274     0.94761429     0.741         -56.270916      2.6841285      214           -23.601163     -26.841285     -26.240772     -17.721434      201.72327      85.67296       90.348646    
   7420000   301.07489      0.94726995     0.94726986     0.9564705      0.742          42.232452     -5.7485643      216           -5.7429242      57.485643     -61.061245     -13.65317       201.83914      85.890895      89.912958    
   7430000   301.48125      0.95065049     0.9506504      0.96975482     0.743         -19.038337      3.1203601      219            9.857097      -31.203601      46.241471      14.53342       201.955        85.48851       89.963286    
   7440000   297.92153      0.94763526     0.94763518     0.9564705      0.744          52.478483      7.0145401      216           -46.482869     -70.145401     -61.185872     -8.1173318      202.07087      85.85677       89.810907    
   7450000   298.00574      0.94732102     0.94732093     0.99189534     0.745          9.4940633      5.2520569      224            5.247546      -52.520569      17.867327      50.39588       202.18673      85.308352      90.366439    
   7460000   299.73691      0.95026861     0.95026853     0.94318619     0.746          18.456402      2.218258       213           -30.552895     -22.18258      -39.097322     -30.378784      202.3026       85.310853      90.0319      
   7470000   299.12836      0.94778155     0.94778147     0.96089861     0.747         -12.477468      0.6662053      217           -40.125867     -6.662053      -45.161802     -68.553746      202.41847      85.402869      90.119278    
   7480000   300.92125      0.94759286     0.94759277     0.97418292     0.748         -2.9995221      4.2705351      220           -31.497756     -42.705351      11.747439     -63.535355      202.53433      85.753776      89.717026    
   7490000   300.58599      0.94825406     0.94825398     0.99189534     0.749          8.3202649      2.2093527      224            12.288303     -22.093527      29.628818      29.329618      202.6502       85.655505      89.706006    
   7500000   299.94409      0.94727165     0.94727157     0.96532671     0.75          -23.525487      4.539812       218           -27.538573     -45.39812      -36.178439     -1.0391595      202.76607      85.670708      89.7318      
   7510000   300.5109       0.94565829     0.9456582      0.9564705      0.751         -7.8595939     -2.3915499      216            14.358292      23.915499      26.867598     -7.7082222      202.88193      85.227912      90.30028     
   7520000   301.034        0.9456931      0.94569301     0.94318619     0.752         -27.557989      8.460871       213           -26.367504     -84.60871      -11.659555      17.165755      202.9978       85.052284      90.431768    
   7530000   300.28647      0.94793703     0.94793695     0.99189534     0.753          2.280219       4.2312065      224           -0.740434      -42.312065      46.098442     -6.007679       203.11367      85.244772      89.962635    
   7540000   298.32752      0.94769112     0.94769104     0.93875809     0.754          37.855753      6.6255445      212           -60.708524     -66.255445     -114.81331     -1.0568186      203.22953      85.114988      90.071808    
   7550000   301.20648      0.94777853     0.94777845     0.92990188     0.755         -28.92038       4.1958572      210            7.3246165     -41.958572      82.858544     -18.926122      203.3454       84.894791      90.245653    
   7560000   301.61287      0.94784455     0.94784447     0.96975482     0.756          63.100459      4.4690794      219           -28.893548     -44.690794     -13.303402     -28.686448      203.46126      84.452581      90.66022     
   7570000   298.38784      0.94747018     0.94747009     0.96532671     0.757         -20.320054      3.5011098      218           -36.15071      -35.011098     -55.302276     -18.138756      203.57713      84.559077      90.530263    
   7580000   301.09683      0.9461876      0.94618752     0.92990188     0.758          61.358857      3.0989633      210            9.8708994     -30.989633      8.8674668      51.734865      203.693        84.543807      90.617776    
   7590000   298.5984       0.94829551     0.94829542     0.9520424      0.759          6.8874256      5.1382048      215           -40.842262     -51.382048     -25.592971     -45.551768      203.80886      85.019621      89.859216    
   7600000   300.66744      0.94705201     0.94705193     0.90333325     0.76          -2.2289322     -2.7373792      204            22.002656      27.373792      49.297617     -10.663439      203.92473      84.94558       90.004461    
   7610000   299.27072      0.94891108     0.948911       0.9564705      0.761          46.672866      2.178254       216           -20.010948     -21.78254       21.896513     -60.146817      204.0406       84.738918      89.996068    
   7620000   299.88455      0.9510922      0.95109212     0.97418292     0.762          9.672465       1.9354807      220           -43.675829     -19.354807     -105.98806     -5.6846201      204.15646      84.471314      90.023014    
   7630000   301.91617      0.94790059     0.9479005      0.92990188     0.763          6.1783368     -2.7338024      210            9.0510583      27.338024      5.0602684     -5.2451177      204.27233      84.231112      90.532327    
   7640000   299.41417      0.95114514     0.95114505     0.93875809     0.764          1.9983351     -2.2728999      212            19.882885      22.728999      6.7910151      30.12864       204.38819      84.681613      89.692645    
   7650000   299.74494      0.94658001     0.94657993     0.93875809     0.765          37.1178       -4.2469058      212            18.443751      42.469058      52.662707     -39.800512      204.50406      84.911868      89.829895    
   7660000   301.11106      0.94812964     0.94812955     0.96089861     0.766         -31.143917     -0.43163586     217            6.9082086      4.3163586     -37.399553      53.80782       204.61993      84.807966      89.742106    
   7670000   300.29608      0.95001013     0.95001005     0.97418292     0.767         -5.5851674      2.506443       220            4.4993831     -25.06443       45.849801     -7.2872214      204.73579      84.433427      89.910853    
   7680000   300.16535      0.9465815      0.94658142     0.92547377     0.768          43.407311      3.2164398      209           -33.232724     -32.164398     -50.113468     -17.420305      204.85166      85.012191      89.571499    
   7690000   298.98687      0.94515514     0.94515506     0.96089861     0.769          52.74935       11.859715      217           -96.332689     -118.59715     -71.639641     -98.761282      204.96753      84.777816      89.903825    
   7700000   301.2029       0.94737327     0.94737319     0.98303913     0.77           4.1981009      4.5607108      222           -14.428226     -45.607108      6.5434201     -4.2209888      205.08339      85.0394        89.36691     
   7710000   299.47869      0.94452748     0.9445274      0.9520424      0.771          4.2940641      5.4798934      215           -17.132287     -54.798934      38.511588     -35.109513      205.19926      85.054546      89.569599    
   7720000   299.32376      0.94774088     0.9477408      0.96089861     0.772          48.438743     -3.0899654      217            24.802103      30.899654     -5.4692967      48.975954      205.31513      85.063389      89.206255    
   7730000   301.67717      0.94761361     0.94761353     0.91661757     0.773          31.429731     -2.6188195      207            16.395669      26.188195      26.61522      -3.6164074      205.43099      84.896121      89.3436      
   7740000   299.73614      0.94740197     0.94740189     0.9564705      0.774          17.805962      2.9870678      216           -42.997252     -29.870678     -75.303155     -23.817923      205.54686      84.830642      89.382124    
   7750000   301.53581      0.94809047     0.94809038     0.96089861     0.775         -2.5476695      3.8575484      217           -42.496865     -38.575484     -85.330231     -3.5848795      205.66272      85.123047      88.960256    
   7760000   301.03472      0.94681974     0.94681966     0.93875809     0.776         -45.891664      3.5598146      212           -51.03779      -35.598146     -43.806421     -73.708803      205.77859      85.153526      88.997626    
   7770000   300.21007      0.9468199      0.94681981     0.94318619     0.777          5.1306703      2.3062532      213           -6.0670307     -23.062532     -7.6108927      12.472332      205.89446      85.025541      89.081417    
   7780000   299.78566      0.94678066     0.94678058     0.9520424      0.778          9.4731413      0.51706604     215            17.728825     -5.1706604      68.816075     -10.458941      206.01032      85.171089      88.882854    
   7790000   301.70043      0.94663082     0.94663073     0.9564705      0.779          33.424606      1.1263321      216            14.528619     -11.263321      1.9245153      52.924663      206.12619      85.23963       88.775511    
   7800000   301.52223      0.94870452     0.94870444     0.93432998     0.78           5.5511258      3.2630798      211            1.2158282     -32.630798     -3.2637084      39.541991      206.24206      84.811948      88.978138    
   7810000   300.15321      0.94662263     0.94662255     0.94318619     0.781          10.202624     -0.65310212     213           -5.9971121      6.5310212     -1.8957312     -22.626626      206.35792      85.283624      88.630842    
   7820000   299.76902      0.9473534      0.94735331     0.88119273     0.782          0.87189392    -3.7873482      199            58.085953      37.873482      53.093426      83.290952      206.47379      84.834621      88.981246    
   7830000   299.06627      0.94663155     0.94663147     0.90333325     0.783          2.7068015      1.7795695      204           -7.0831487     -17.795695      26.987224     -30.440975      206.58966      84.70308       89.137367    
   7840000   301.4065       0.94833413     0.94833405     0.91661757     0.784         -18.586844     -6.5631739      207            38.432081      65.631739      2.6621158      47.002388      206.70552      84.865719      88.757038    
   7850000   299.1902       0.94759165     0.94759157     0.89447704     0.785          12.181699      3.4197897      202           -5.6025007     -34.197897      58.203887     -40.813492      206.82139      85.187267      88.441723    
   7860000   300.78108      0.94713091     0.94713083     0.93875809     0.786         -53.665565      0.4858275      212           -1.5627774     -4.858275       47.209948     -47.040005      206.93725      84.828947      88.808755    
   7870000   300.4123       0.94919522     0.94919514     0.92547377     0.787          86.211031      0.67959327     209            0.30200907    -6.7959327      32.735071     -25.033111      207.05312      84.844292      88.550006    
   7880000   298.76073      0.95008709     0.95008701     0.9564705      0.788          16.442326     -2.8618754      216            19.501143      28.618754     -5.0300432      34.914719      207.16899      84.971114      88.285439    
   7890000   298.28671      0.94862627     0.94862619     0.9564705      0.789          38.539815      6.2373353      216           -27.686617     -62.373353      31.565211     -52.251708      207.28485      85.104488      88.233473    
   7900000   299.16347      0.9490582      0.94905812     0.99632344     0.79          -105.25586      3.4603558      225           -13.06227      -34.603558      0.63603107    -5.2192828      207.40072      85.131356      88.116228    
   7910000   300.43274      0.94943238     0.9494323      0.91661757     0.791         -33.14344       2.3350854      207            24.470487     -23.350854      77.057976      19.70434       207.51659      85.135382      88.028157    
   7920000   300.66077      0.9462054      0.94620532     0.94761429     0.792          2.3838752     -0.37646629     214            5.6305672      3.7646629      8.5357864      4.5912522      207.63245      85.197248      88.214978    
   7930000   300.56385      0.9479227      0.94792262     0.92547377     0.793         -9.7079908      5.0364885      209            1.8940693     -50.364885      21.241725      34.805368      207.74832      85.154211      88.050531    
   7940000   300.09343      0.94469358     0.9446935      0.96089861     0.794          25.394272      2.082451       217            9.5937002     -20.82451       18.17824       31.427371      207.86418      85.349457      88.100254    
   7950000   298.75987      0.94855806     0.94855798     0.9520424      0.795         -13.298602      7.1171172      215           -42.038233     -71.171172     -37.265419     -17.678107      207.98005      85.080726      87.969427    
   7960000   299.30555      0.94691601     0.94691592     0.93875809     0.796          13.518373      14.397722      212           -69.046988     -143.97722     -0.65100575    -62.512744      208.09592      85.215338      87.933784    
   7970000   298.67873      0.94953446     0.94953438     0.9564705      0.797         -50.137304      2.8956464      216            11.072084     -28.956464      12.782111      49.390607      208.21178      84.691441      88.18465     
   7980000   300.07498      0.94823777     0.94823769     0.92547377     0.798         -8.0581772     -2.4762978      209            16.869172      24.762978     -8.4708073      34.315345      208.32765      84.898451      88.040929    
   7990000   298.74094      0.94782695     0.94782686     0.93875809     0.799          12.501751      4.1226893      212            5.0468091     -41.226893      70.970441     -14.60312       208.44352      84.928131      87.999366    
   8000000   298.611        0.94768388     0.9476838      0.93432998     0.8            12.717728     -2.1445299      211            25.320176      21.445299      21.265403      33.249825      208.55938      84.434024      88.478517    
   8010000   302.344        0.94609532     0.94609523     0.94318619     0.801          9.8197121      6.1654235      213           -35.234572     -61.654235     -2.3531245     -41.696355      208.67525      84.620533      88.382639    
   8020000   299.19394      0.94707831     0.94707822     0.93432998     0.802         -48.506031      0.40318074     211           -13.761428     -4.0318074     -91.378641      54.126164      208.79112      84.477261      88.391565    
   8030000   298.92623      0.94828384     0.94828376     0.9520424      0.803         -47.938371      12.172267      215           -61.210112     -121.72267     -29.993094     -31.914573      208.90698      84.258172      88.45965     
   8040000   298.9776       0.9481241      0.94812401     0.97861102     0.804         -29.803139     -1.59991        221           -26.871588      15.9991       -48.912313     -47.701551      209.02285      83.974653      88.724056    
   8050000   297.43308      0.9491176      0.94911752     0.93432998     0.805          62.539733      0.44079064     211            10.601337     -4.4079064      35.555237      0.6566817      209.13871      83.910893      88.649389    
   8060000   301.9425       0.94720959     0.94720951     0.96089861     0.806          9.1163914      6.8365833      217           -4.7018905     -68.365833      31.253422      23.00674       209.25458      84.379645      88.285584    
   8070000   297.84262      0.94923838     0.9492383      0.94761429     0.807          33.878949      0.86822535     214           -10.608772     -8.6822535     -10.531326     -12.612737      209.37045      84.470531      87.953405    
   8080000   298.29021      0.94900034     0.94900026     0.97861102     0.808         -46.944208     -0.4768831      221            20.921399      4.768831       31.846162      26.149204      209.48631      84.126648      88.286224    
   8090000   298.50139      0.94769256     0.94769248     0.97418292     0.809         -5.7212206     -1.9285846      220            21.518742      19.285846      26.25372       19.016661      209.60218      83.983009      88.510309    
   8100000   300.38005      0.9499828      0.94998271     0.93432998     0.81           19.416531     -5.2535032      211            55.177241      52.535032      74.333679      38.663011      209.71805      83.608671      88.643254    
   8110000   300.2361       0.94463703     0.94463694     0.9520424      0.811         -22.520589      5.632569       215           -40.298539     -56.32569       1.4042584     -65.974185      209.83391      83.746686      88.948838    
   8120000   297.63583      0.94716362     0.94716354     0.92104567     0.812         -55.654552      9.6195785      208           -66.308263     -96.195785     -11.424831     -91.304173      209.94978      83.511003      88.912828    
   8130000   298.15518      0.94708748     0.94708739     0.96089861     0.813         -10.606717     -0.39957658     217           -15.548097      3.9957658     -38.978448     -11.661608      210.06564      83.748193      88.619232    
   8140000   299.41443      0.94478307     0.94478299     0.92990188     0.814          20.694016      8.5794607      210           -63.131509     -85.794607     -36.609246     -66.990675      210.18151      83.939711      88.583833    
   8150000   301.06986      0.94878994     0.94878985     0.94761429     0.815         -18.313636     -0.70256932     214            43.125591      7.0256932      57.55783       64.79325       210.29738      83.195628      88.949625    
   8160000   301.59587      0.94730797     0.94730789     0.96089861     0.816         -50.005213      5.4383148      217           -20.96786      -54.383148     -16.957333      8.4369013      210.41324      82.986632      89.26396     
   8170000   301.33315      0.94747383     0.94747375     0.96089861     0.817         -13.059777      2.4054159      217           -9.3113554     -24.054159      9.3905349     -13.270442      210.52911      83.499988      88.65082     
   8180000   299.01357      0.94522873     0.94522865     0.96089861     0.818         -8.3453218      3.9029292      217           -43.204325     -39.029292     -45.438141     -45.145542      210.64498      83.422458      88.895044    
   8190000   300.62335      0.94578622     0.94578614     0.96089861     0.819          23.967099      2.8114238      217           -10.757007     -28.114238     -23.278657      19.121874      210.76084      83.455117      88.759056    
   8200000   301.71272      0.94822827     0.94822819     0.93875809     0.82           18.123664      6.0439562      212            13.005163     -60.439562      20.13784       79.31721       210.87671      82.674753      89.317       
   8210000   299.46607      0.94700662     0.94700654     0.93875809     0.821         -15.64895       8.4934426      212           -27.529286     -84.934426      0.44943598     1.8971311      210.99258      82.678999      89.378518    
   8220000   298.72065      0.94667315     0.94667307     0.94761429     0.822          27.276285      8.9283254      214           -42.700634     -89.283254      0.1825815     -39.001229      211.10844      82.550887      89.49961     
   8230000   298.16336      0.94557231     0.94557222     0.96975482     0.823          21.61538      -1.6209736      219           -6.1491545      16.209736     -20.016297     -14.640903      211.22431      82.352181      89.77074     
   8240000   299.42008      0.94459514     0.94459506     0.96975482     0.824          4.0509288      5.0798556      219           -35.350618     -50.798556     -66.754279      11.50098       211.34017      82.698341      89.438393    
   8250000   298.60714      0.94584318     0.9458431      0.90776136     0.825         -28.940842      8.3879903      205           -36.074445     -83.879903     -2.4700965     -21.873335      211.45604      83.184302      88.749914    
   8260000   298.75922      0.94846506     0.94846498     0.87676463     0.826         -3.3630669     -4.3129995      198            34.59568       43.129995      44.293764      16.363282      211.57191      83.267898      88.367305    
   8270000   299.5266       0.94680155     0.94680147     0.94318619     0.827         -39.956286      4.7691636      213           -44.538629     -47.691636     -26.073849     -59.850403      211.68777      83.06237       88.693031    
   8280000   300.80547      0.94561494     0.94561485     0.93875809     0.828          22.303628      7.9617108      212           -42.123649     -79.617108     -40.087521     -6.6663174      211.80364      83.27587       88.528199    
   8290000   299.12015      0.9475528      0.94755272     0.94761429     0.829         -10.216135      3.1989634      214            0.17919392    -31.989634      31.076972      1.4502437      211.91951      83.123256      88.46096     
   8300000   299.47127      0.94869115     0.94869106     0.96089861     0.83          -22.113975      1.5441805      217           -16.909849     -15.441805     -6.5872623     -28.700479      212.03537      82.441085      89.03724     
   8310000   299.0966       0.94646365     0.94646357     0.94318619     0.831         -4.2056057      2.9474796      213           -5.1019926     -29.474796     -3.6401795      17.808998      212.15124      82.747445      88.867804    
   8320000   300.64425      0.94731588     0.9473158      0.96089861     0.832         -28.993579      1.6383038      217           -7.2049249     -16.383038     -42.68028       37.448543      212.2671       82.567507      88.932779    
   8330000   300.83863      0.94676407     0.94676398     0.94761429     0.833          7.6184966      7.7372012      214           -43.733773     -77.372012     -36.420338     -17.408969      212.38297      82.568366      88.935141    
   8340000   299.17052      0.94720826     0.94720817     0.94318619     0.834          17.081207      3.2705435      213           -2.221388      -32.705435      6.5645813      19.476689      212.49884      82.359732      89.070029    
   8350000   301.60262      0.94524404     0.94524396     0.94761429     0.835         -25.941149      12.000022      214           -66.566765     -120.00022     -17.034809     -62.665263      212.6147       82.277576      89.29555     
   8360000   300.26696      0.94827034     0.94827026     0.9520424      0.836          3.3869797      1.837824       215            41.91665      -18.37824       70.492084      73.636106      212.73057      81.849684      89.427167    
   8370000   301.01589      0.94728454     0.94728445     0.94761429     0.837          15.400279      2.0287784      214           -14.184445     -20.287784     -52.768401      30.50285       212.84644      82.000146      89.307327    
   8380000   299.81043      0.94580825     0.94580816     0.93432998     0.838          15.727444      10.743062      211           -59.70851      -107.43062     -48.917267     -22.777642      212.9623       82.162847      89.221032    
   8390000   301.82422      0.94899202     0.94899194     0.9520424      0.839         -34.502015      2.8051754      215            13.060902     -28.051754      9.9796245      57.254834      213.07817      82.19211       88.841709    
   8400000   298.09431      0.94712513     0.94712504     0.94761429     0.84          -32.448233      4.7499875      214           -39.347313     -47.499875     -15.13065      -55.411415      213.19404      82.30062       88.851146    
   8410000   300.40095      0.94926725     0.94926717     0.96532671     0.841          14.073561     -4.7901577      218            1.4580674      47.901577     -55.8019        12.274525      213.3099       82.56274       88.321195    
   8420000   298.86686      0.9469728      0.94697272     0.92547377     0.842         -22.762114      5.6519172      209           -27.747046     -56.519172     -4.0590056     -22.662959      213.42577      81.874164      89.23132     
   8430000   297.87259      0.94766889     0.94766881     0.96532671     0.843          35.519424      5.7061449      218           -18.328115     -57.061449     -47.031435      49.108541      213.54163      81.779451      89.220607    
   8440000   300.52162      0.94744057     0.94744048     0.92990188     0.844          2.3514332      1.2634062      210            20.021444     -12.634062      25.578058      47.120336      213.6575       81.686663      89.295027    
   8450000   297.97658      0.95008573     0.95008565     0.92547377     0.845         -57.224363     -4.3608241      209            32.524283      43.608241      29.314935      24.649674      213.77337      81.803885      88.870624    
   8460000   300.64798      0.94918375     0.94918366     0.9564705      0.846         -43.027645     -0.67078473     216            27.231863      6.7078473      42.632259      32.355482      213.88923      81.941805      88.757244    
   8470000   300.38153      0.95072945     0.95072937     0.9564705      0.847          47.84169      -2.3700624      216            29.351744      23.700624      30.824924      33.529684      214.0051       81.837515      88.677829    
   8480000   300.4423       0.94675026     0.94675017     0.9520424      0.848          38.73965      -3.7606309      215            49.544377      37.606309      60.184771      50.842052      214.12097      82.012545      88.812406    
   8490000   299.82316      0.94653548     0.94653539     0.92104567     0.849          6.2461355     -6.2938411      208            15.773876      62.938411     -30.548694      14.931912      214.23683      82.065632      88.727082    
   8500000   298.18032      0.94826636     0.94826628     0.9564705      0.85          -16.415598      0.36622303     216            17.952354     -3.6622303      9.3371704      48.182121      214.3527       81.625596      88.994443    
   8510000   300.07584      0.94767041     0.94767033     0.93875809     0.851         -27.965811     -4.8244936      212            58.23996       48.244936      76.281043      50.193902      214.46857      81.947192      88.653014    
   8520000   299.36224      0.94425794     0.94425786     0.92104567     0.852         -7.7674056      5.2494367      208           -34.676686     -52.494367     -54.690136      3.1544464      214.58443      82.13032       88.727078    
   8530000   303.18325      0.94733877     0.94733869     0.98746723     0.853         -19.219111      2.8538076      223           -50.141875     -28.538076     -84.644376     -37.243173      214.7003       81.879572      88.66149     
   8540000   300.39654      0.94574009     0.94574        0.92547377     0.854          25.366313      4.0224566      209           -35.732637     -40.224566     -36.13425      -30.839095      214.81616      81.936719      88.701554    
   8550000   298.25032      0.94682273     0.94682264     0.92990188     0.855          68.160527      2.5615818      210           -9.9493775     -25.615818     -2.5916088     -1.6407053      214.93203      81.794787      88.706024    
   8560000   299.20245      0.94632815     0.94632807     0.94318619     0.856          44.079125      4.179875       213            14.391423     -41.79875       80.714508      4.2585104      215.0479       81.673203      88.836616    
   8570000   300.73045      0.94626536     0.94626528     0.94761429     0.857         -47.03447       2.5155715      214           -7.3576252     -25.155715      11.688526     -8.6056868      215.16376      82.422491      87.987453    
   8580000   299.85529      0.94841703     0.94841695     0.92104567     0.858         -54.725696      2.5872784      208            20.979739     -25.872784      35.313347      53.498656      215.27963      82.445542      87.716056    
   8590000   299.10535      0.94764818     0.9476481      0.96532671     0.859         -29.904627      1.2666645      218           -36.271256     -12.666645     -27.123772     -69.023351      215.3955       81.88274       88.343059    
   8600000   300.98491      0.94720179     0.9472017      0.92104567     0.86           57.301308      1.8982928      208           -33.726761     -18.982928     -61.966978     -20.230376      215.51136      81.786188      88.44146     
   8610000   298.85829      0.94694765     0.94694756     0.94318619     0.861         -64.711081      5.4251658      213           -16.511503     -54.251658     -25.86539       30.582539      215.62723      82.564767      87.583888    
   8620000   300.18214      0.94913173     0.94913164     0.94761429     0.862         -3.8280749      0.052831653    214           -14.217816     -0.52831653    -38.646813     -3.4783194      215.74309      82.460174      87.446193    
   8630000   299.09992      0.94804212     0.94804204     0.92547377     0.863          1.4748667      15.537047      209           -32.096075     -155.37047     -15.87462       74.95687       215.85896      82.191436      87.785799    
   8640000   299.58805      0.94635388     0.9463538      0.9564705      0.864         -34.959409      3.3519973      216           -15.327338     -33.519973     -52.853895      40.391855      215.97483      82.543775      87.520043    
   8650000   303.17911      0.94758046     0.94758037     0.97418292     0.865         -34.472434      1.0992707      220           -0.16637674    -10.992707      9.6536268      0.83994958     216.09069      82.19197       87.733813    
   8660000   298.95818      0.94772819     0.94772811     0.9564705      0.866          14.953543     -2.001567       216            5.6435499      20.01567      -22.613657      19.528637      216.20656      82.306594      87.551029    
   8670000   298.2963       0.94710936     0.94710928     0.96532671     0.867         -22.741064      1.7857686      218           -38.029701     -17.857686     -47.584459     -48.646958      216.32243      82.229394      87.643515    
   8680000   298.66631      0.94580249     0.94580241     0.94761429     0.868         -41.2738       -0.8677486      214            15.543672      8.677486       13.732035      24.221496      216.43829      82.15966       87.792086    
   8690000   299.88604      0.9480787      0.94807861     0.94318619     0.869          29.880914      8.3761177      213           -39.742339     -83.761177      2.3550176     -37.820858      216.55416      81.594325      88.140941    
   8700000   299.96595      0.94721081     0.94721073     0.93875809     0.87           25.107859     -2.8675916      212            12.282238      28.675916     -0.42646125     8.5972577      216.67003      81.202946      88.599503    
   8710000   300.39923      0.94577619     0.94577611     0.91218946     0.871          31.784286      3.9615145      206           -39.137958     -39.615145     -52.066683     -25.732046      216.78589      81.218873      88.66908     
   8720000   299.92772      0.94790387     0.94790379     0.9564705      0.872         -77.872615     -6.6260135      216            42.340616      66.260135      0.1466119      60.6151        216.90176      80.908668      88.761806    
   8730000   299.4547       0.94575395     0.94575387     0.91661757     0.873          25.773177      5.001979       207           -33.279092     -50.01979      -22.070074     -27.74741       217.01762      80.811825      89.02264     
   8740000   300.33874      0.94438402     0.94438393     0.94761429     0.874         -15.917906      6.0422814      214           -28.517042     -60.422814     -15.616906     -9.5114062      217.13349      81.101355      88.786104    
   8750000   299.30882      0.94576644     0.94576636     0.92547377     0.875         -13.521114     -1.3173309      209           -11.181         13.173309     -20.135668     -26.580642      217.24936      80.991245      88.72951     
   8760000   300.33227      0.94702302     0.94702293     0.94318619     0.876         -14.218645      2.7844008      213           -10.88849      -27.844008      21.435937     -26.257399      217.36522      80.854806      88.713991    
   8770000   298.33844      0.94800239     0.94800231     0.9520424      0.877         -17.651029     -0.079245121    215           -20.094696      0.79245121    -7.9746744     -53.101866      217.48109      80.14395       89.360764    
   8780000   298.04941      0.94913315     0.94913307     0.92547377     0.878          26.320056     -8.3289435      209            55.457098      83.289435      37.550115      45.531744      217.59696      80.332243      88.997683    
   8790000   298.52374      0.94412396     0.94412388     0.93432998     0.879          90.1439        3.2412469      211           -35.893118     -32.412469     -27.925815     -47.341069      217.71282      81.140975      88.530987    
   8800000   299.34127      0.94744932     0.94744923     0.94761429     0.88           27.2913       -2.2130632      214            24.575703      22.130632      8.9511118      42.645366      217.82869      80.920397      88.413683    
   8810000   300.32176      0.94654751     0.94654743     0.96089861     0.881         -0.03402517     0.14157701     217            20.317231     -1.4157701      16.528446      45.839017      217.94455      81.297225      88.040884    
   8820000   299.7856       0.9457092      0.94570912     0.96532671     0.882          22.440724      10.064764      218           -72.071398     -100.64764     -10.84994      -104.71661      218.06042      81.138393      88.244508    
   8830000   299.95377      0.9482923      0.94829221     0.96532671     0.883         -37.054878     -2.3052134      218           -24.319477      23.052134     -21.470857     -74.539707      218.17629      81.330419      87.749727    
   8840000   300.08413      0.94740022     0.94740014     0.96089861     0.884          41.838063     -2.1834853      217            26.783044      21.834853      52.222738      6.2915409      218.29215      81.426367      87.682291    
   8850000   299.76781      0.94726379     0.94726371     0.94761429     0.885          19.876425      3.6562202      214            1.6399138     -36.562202      13.804987      27.676956      218.40802      81.316143      87.767204    
   8860000   302.01723      0.9478848      0.94788471     0.96975482     0.886         -18.372303      5.2914992      219           -45.768038     -52.914992     -78.357193     -6.0319282      218.52389      80.81053       88.211685    
   8870000   300.83811      0.94781414     0.94781406     0.96975482     0.887         -11.788077      6.971935       219           -32.600685     -69.71935       11.421954     -39.504657      218.63975      80.570639      88.434033    
   8880000   298.4899       0.94627384     0.94627375     0.92547377     0.888         -31.976502     -0.046256694    209           -16.42647       0.46256694     2.9758613     -52.717837      218.75562      80.41452       88.702943    
   8890000   300.82275      0.94817611     0.94817603     0.9564705      0.889         -46.319235      4.3249981      216           -6.358324      -43.249981      18.394745      5.7802644      218.87149      81.096574      87.733984    
   8900000   301.43712      0.94898368     0.94898359     0.93875809     0.89           42.51344       6.2948112      212           -5.437434      -62.948112      13.277059      33.358752      218.98735      80.868868      87.859639    
   8910000   298.90437      0.94910018     0.94910009     0.9520424      0.891          23.072383     -1.2014173      215            21.662969      12.014173      57.991078     -5.0163441      219.10322      81.022377      87.636043    
   8920000   302.2563       0.94782085     0.94782077     0.92990188     0.892          24.844132      8.4847056      210           -20.779563     -84.847056      31.290114     -8.7817479      219.21908      81.502268      87.191518    
   8930000   300.66513      0.949051       0.94905092     0.96089861     0.893          77.25709       0.78691874     217           -4.7570445     -7.8691874     -20.020078      13.618132      219.33495      81.72494       86.795368    
   8940000   298.93006      0.94799937     0.94799929     0.99632344     0.894          20.281293      7.8149963      225           -44.01867      -78.149963     -11.853193     -42.052855      219.45082      81.739361      86.830452    
   8950000   299.76934      0.94882593     0.94882585     0.91218946     0.895          4.8104409     -3.6159475      206            31.718833      36.159475      48.527392      10.469633      219.56668      81.202614      87.282173    
   8960000   299.49081      0.94982026     0.94982018     0.92547377     0.896          32.232295     -9.2548199      209            61.000714      92.548199      54.94514       35.508802      219.68255      81.461116      86.868277    
   8970000   299.86509      0.94752244     0.94752236     0.91661757     0.897          29.984295      0.14202667     207            2.407491      -1.4202667      9.1260531     -0.48331344     219.79842      82.011351      86.449109    
   8980000   298.21971      0.94649451     0.94649442     0.96532671     0.898         -63.470297      5.567667       218           -47.835056     -55.67667      -56.576968     -31.251529      219.91428      81.778765      86.743406    
   8990000   297.70242      0.94659975     0.94659967     0.93432998     0.899         -49.534627      3.7878108      211           -4.735525      -37.878108     -2.1709884      25.842521      220.03015      81.516789      86.966683    
   9000000   300.98731      0.94848987     0.94848978     0.94318619     0.9           -3.5195979      1.8009126      213           -20.655096     -18.009126      4.0479632     -48.004127      220.14601      81.345315      86.930561    
   9010000   299.87993      0.94690419     0.9469041      0.9520424      0.901         -14.559706      3.2133956      215           -6.6119106     -32.133956     -4.6679614      16.966185      220.26188      81.469548      86.897616    
   9020000   300.58685      0.94566388     0.9456638      0.94761429     0.902         -31.581409      4.7408317      214           -46.871023     -47.408317     -59.152165     -34.052586      220.37775      81.403204      87.036719    
   9030000   301.32696      0.94975926     0.94975918     0.9564705      0.903         -11.450774     -0.69598134     216           -17.3165        6.9598134     -7.6874153     -51.221898      220.49361      80.828869      87.23133     
   9040000   300.37264      0.94779307     0.94779298     0.94318619     0.904         -14.253422      0.38315143     213            1.8285236     -3.8315143     -9.1705138      18.487599      220.60948      81.54403       86.600157    
   9050000   302.42861      0.94690447     0.94690438     0.9564705      0.905         -14.821191      5.8567241      216           -58.390176     -58.567241     -83.230959     -33.372329      220.72535      81.325358      86.868874    
   9060000   297.76554      0.9494181      0.94941802     0.94761429     0.906          14.592676     -1.1708469      214           -8.9690074      11.708469     -33.591568     -5.0239235      220.84121      80.581108      87.393209    
   9070000   298.2801       0.94824694     0.94824686     0.9564705      0.907          61.089798      4.6327754      216            1.6950843     -46.327754      66.257288     -14.844281      220.95708      80.292517      87.769598    
   9080000   301.45973      0.94765781     0.94765773     0.97418292     0.908          41.725956      5.7169432      220           -53.213439     -57.169432     -90.532325     -11.938559      221.07295      80.376059      87.686896    
   9090000   299.02125      0.94792277     0.94792269     0.9520424      0.909          13.435023      2.895051       215           -25.502245     -28.95051      -28.80808      -18.748144      221.18881      80.313817      87.684367    
   9100000   300.05759      0.9450639      0.94506382     0.96532671     0.91          -16.089024      7.9567707      218           -41.187159     -79.567707     -15.548686     -28.445085      221.30468      80.328798      87.887176    
   9110000   299.0951       0.94648268     0.9464826      0.92990188     0.911         -20.494587      10.82017       210           -73.649768     -108.2017      -30.621144     -82.126466      221.42054      79.900961      88.179161    
   9120000   299.49015      0.94844936     0.94844928     0.94761429     0.912         -17.453304      2.5917925      214           -19.463091     -25.917925     -19.583217     -12.888131      221.53641      79.846439      88.010347    
   9130000   299.61507      0.94943364     0.94943356     0.92990188     0.913          73.486333      1.521148       210            39.071634     -15.21148       79.280472      53.145912      221.65228      79.912755      87.800226    
   9140000   301.17372      0.95033982     0.95033974     0.92104567     0.914          38.876238      2.671086       208            8.7851485     -26.71086       45.851666      7.2146388      221.76814      79.609466      88.004677    
   9150000   299.51803      0.94730411     0.94730403     0.93875809     0.915          26.960778     -0.75641161     212            32.852687      7.5641161      40.591808      50.402137      221.88401      79.131444      88.773641    
   9160000   301.22328      0.94776397     0.94776389     0.92104567     0.916          74.21637       0.66224085     208            17.164808     -6.6224085      27.141682      30.975151      221.99988      78.827816      89.02585     
   9170000   300.95439      0.94858907     0.94858899     0.96089861     0.917         -3.9606085      1.3076762      217            22.221287     -13.076762      26.026106      53.714518      222.11574      78.697391      89.049351    
   9180000   299.49547      0.94448773     0.94448764     0.91218946     0.918          49.176852      0.81237209     206           -1.3874091     -8.1237209      10.639883     -6.6783895      222.23161      79.07655       88.960802    
   9190000   298.61344      0.94982854     0.94982845     0.9520424      0.919          51.653177     -1.3964047      215            23.891653      13.964047      47.024643      10.68627       222.34748      79.1606        88.320609    
   9200000   302.51599      0.94822633     0.94822625     0.94761429     0.92          -8.7498057     -3.8676206      214            20.322521      38.676206     -5.956211       28.247568      222.46334      78.685619      88.95753     
   9210000   299.53631      0.94613349     0.94613341     0.89447704     0.921          51.872385      7.6813797      202           -35.365222     -76.813797     -20.272679     -9.0091883      222.57921      79.103156      88.637548    
   9220000   300.08554      0.9453111      0.94531101     0.97861102     0.922          55.387995      6.043821       221           -19.015088     -60.43821      -46.639769      50.032716      222.69507      79.139         88.628343    
   9230000   301.1157       0.94659289     0.94659281     0.92547377     0.923          15.616627     -1.4257747      209           -27.195992      14.257747     -52.369818     -43.475904      222.81094      78.580551      89.090979    
   9240000   300.96863      0.94727321     0.94727312     0.92990188     0.924          24.53581      -1.5782633      210           -15.641761      15.782633     -5.3272238     -57.380693      222.92681      78.48023       89.094468    
   9250000   300.89829      0.9473776      0.94737752     0.9520424      0.925         -0.54395171    -6.7729582      215            57.026716      67.729582     -12.247153      115.59772      223.04267      78.564907      88.942407    
   9260000   300.6042       0.94794654     0.94794646     0.96089861     0.926         -10.327706     -0.81553745     217            19.401022      8.1553745      38.077562      11.97013       223.15854      78.408532      89.020058    
   9270000   301.36584      0.94629157     0.94629148     0.93875809     0.927         -20.017657      1.8364774      212           -8.9396063     -18.364774      14.822632     -23.276677      223.27441      77.988966      89.608968    
   9280000   299.87581      0.94797584     0.94797576     0.92104567     0.928          4.1179092      4.1670176      208           -0.76313767    -41.670176      64.639182     -25.258419      223.39027      77.98909       89.403223    
   9290000   301.08188      0.94725056     0.94725048     0.96532671     0.929         -47.447552      0.29023007     218            7.4403792     -2.9023007      43.281892     -18.058454      223.50614      78.104785      89.29283     
   9300000   302.71295      0.95025808     0.95025799     0.93432998     0.93           1.2414246      0.71251453     211           -3.020087      -7.1251453     -3.3846577      1.4495419      223.622        78.452729      88.56954     
   9310000   301.24115      0.94592983     0.94592974     0.97861102     0.931          2.3323744     -2.8031356      221           -61.025015      28.031356     -68.983326     -142.12307      223.73787      78.150765      89.272336    
   9320000   301.56532      0.94792333     0.94792325     0.98303913     0.932         -23.262382      3.0769303      222           -35.419866     -30.769303     -62.139784     -13.350513      223.85374      78.168489      89.018296    
   9330000   298.87691      0.94773723     0.94773714     0.98303913     0.933         -73.212385      8.8744495      222           -36.940683     -88.744495      4.5094054     -26.586959      223.9696       77.916492      89.277525    
   9340000   300.01234      0.94704514     0.94704505     0.96089861     0.934          24.258336     -0.35326911     217            8.919949       3.5326911      9.5650349      13.662121      224.08547      78.174948      89.001346    
   9350000   299.02117      0.94982279     0.9498227      0.9564705      0.935         -36.758161     -2.2357491      216           -8.1624425      22.357491     -24.723089     -22.121729      224.20134      77.818004      89.102048    
   9360000   300.24733      0.94955094     0.94955086     0.9564705      0.936         -35.661743     -0.08045282     216            21.056386      0.8045282      50.014452      12.350178      224.3172       77.611489      89.318555    
   9370000   299.68568      0.94734588     0.9473458      0.9520424      0.937         -22.192768      1.7142499      215           -16.944356     -17.142499     -5.2731033     -28.417465      224.43307      78.156701      88.856031    
   9380000   300.1939       0.94611032     0.94611024     0.90776136     0.938         -23.418009      10.114657      205           -45.233465     -101.14657      8.2008291     -42.754651      224.54894      77.734817      89.408784    
   9390000   301.33795      0.94797572     0.94797564     0.9564705      0.939         -3.6145051     -1.5112875      216            10.656194      15.112875      34.22178      -17.366074      224.6648       77.955891      88.933904    
   9400000   301.2934       0.94747928     0.94747919     0.94761429     0.94           53.715659      6.6808297      214           -36.573254     -66.808297     -13.189552     -29.721913      224.78067      77.601554      89.340722    
   9410000   298.65625      0.94737195     0.94737187     0.94761429     0.941          33.028254      3.8888798      214            29.802133     -38.888798      47.542511      80.752687      224.89653      77.630977      89.270961    
   9420000   300.44275      0.94688417     0.94688409     0.96532671     0.942          35.378526      8.2311648      218           -31.043365     -82.311648      2.293136      -13.111583      225.0124       77.713431      89.17624     
   9430000   300.76338      0.94723443     0.94723435     0.92990188     0.943          37.467696     -1.6984754      210            17.729247      16.984754      21.464072      14.738914      225.12827      77.380543      89.48068     
   9440000   300.3941       0.94808068     0.94808059     0.92547377     0.944         -6.6480871      1.6667581      209           -13.812429     -16.667581      5.9041139     -30.673819      225.24413      77.149905      89.621947    
   9450000   302.41922      0.94678221     0.94678213     0.91661757     0.945          34.792243     -1.4876261      207            16.583424      14.876261      61.647218     -26.773207      225.36         77.194761      89.646595    
   9460000   301.9692       0.9479665      0.94796642     0.9520424      0.946          5.4822604      4.6336767      215           -26.813755     -46.336767     -3.0032238     -31.101273      225.47587      77.515451      89.118367    
   9470000   300.39548      0.94907554     0.94907545     0.92547377     0.947         -15.94847      -3.4396274      209            56.843464      34.396274      71.723089      64.411029      225.59173      77.847714      88.588782    
   9480000   299.59368      0.94913493     0.94913484     0.93875809     0.948          6.9723123      4.0887687      212           -12.69278      -40.887687      0.86871794     1.9406308      225.7076       77.879524      88.501601    
   9490000   300.75556      0.94705049     0.94705041     0.92547377     0.949          25.231809     -1.6035487      209            4.2176634      16.035487      12.009001     -15.391498      225.82346      78.1924        88.296158    
   9500000   299.79998      0.94753184     0.94753176     0.9564705      0.95           20.959829      6.9837565      216           -11.939573     -69.837565      26.17829       7.8405555      225.93933      77.50878       88.984015    
   9510000   301.93296      0.95032277     0.95032269     0.97418292     0.951         -26.293399      2.4578068      220            8.9823935     -24.578068      36.490899      15.03435       226.0552       77.417938      88.781263    
   9520000   300.80487      0.94664041     0.94664033     0.96975482     0.952          32.401992      4.2035113      219           -22.172683     -42.035113     -37.557757      13.07482       226.17106      77.897266      88.532811    
   9530000   301.8569       0.94835933     0.94835924     0.96532671     0.953         -73.932479      6.5164057      218           -1.3839928     -65.164057      22.197477      38.814601      226.28693      77.887008      88.338727    
   9540000   302.38606      0.94646717     0.94646709     0.9520424      0.954         -6.9744912      4.9790666      215           -7.4033602     -49.790666      10.137677      17.442908      226.4028       78.031102      88.306662    
   9550000   299.40298      0.94632135     0.94632126     0.96975482     0.955          12.553871      6.8478073      219           -34.668298     -68.478073      26.21655      -61.743369      226.51866      78.036321      88.26919     
   9560000   300.86003      0.94783971     0.94783963     0.94761429     0.956          7.1724732      0.048059854    214           -3.5341583     -0.48059854    -11.773354      1.6514776      226.63453      77.948875      88.181549    
   9570000   300.58332      0.95001089     0.95001081     0.91661757     0.957          17.107977     -8.3238395      207            47.971157      83.238395      8.5533247      52.12175       226.7504       78.04909       87.822152    
   9580000   297.77619      0.94560515     0.94560507     0.97418292     0.958          11.485513     -4.0014011      220            57.548922      40.014011      47.132189      85.500567      226.86626      77.951694      88.296451    
   9590000   300.40102      0.94823299     0.94823291     0.92547377     0.959         -1.0715466      4.9234589      209           -30.458212     -49.234589      3.5581896     -45.698237      226.98213      78.186473      87.74254     
   9600000   299.66137      0.94642114     0.94642105     0.91661757     0.96           14.68116      -1.4076655      207           -16.77071       14.076655     -25.123645     -39.26514       227.09799      78.256546      87.786988    
   9610000   300.93965      0.950098       0.95009791     0.91218946     0.961         -34.392248     -2.1292624      206            40.544743      21.292624      11.971536      88.37007       227.21386      78.290508      87.364746    
   9620000   300.03674      0.94793533     0.94793525     0.96089861     0.962         -15.184838      0.86853534     217            26.758887     -8.6853534      35.542415      53.419601      227.32973      77.689591      88.196382    
   9630000   299.61907      0.94511308     0.94511299     0.92104567     0.963          25.633392      5.0604575      208           -31.76753      -50.604575     -17.06422      -27.633794      227.44559      78.242105      87.790339    
   9640000   300.24053      0.94821061     0.94821053     0.96532671     0.964         -11.93733       1.323266       218           -28.624989     -13.23266      -41.843794     -30.798514      227.56146      78.264637      87.43382     
   9650000   297.10891      0.94894518     0.94894509     0.93875809     0.965          27.190818     -3.4121421      212           -16.55091       34.121421     -44.399558     -39.374592      227.67733      78.227497      87.363135    
   9660000   298.64019      0.94753864     0.94753856     0.9520424      0.966         -23.319607      2.1937672      215           -42.610107     -21.937672     -64.005471     -41.887178      227.79319      77.862114      87.858683    
   9670000   299.6279       0.94736609     0.94736601     0.97861102     0.967          78.657329      2.4157027      221           -6.3591991     -24.157027     -6.7304233      11.809853      227.90906      77.320013      88.4458      
   9680000   301.16858      0.94600791     0.94600783     0.9520424      0.968          39.716696      10.808412      215           -42.326816     -108.08412     -5.9042286     -12.992101      228.02492      77.474646      88.35108     
   9690000   299.39132      0.94676837     0.94676829     0.94761429     0.969          23.555377      7.9666613      214           -7.4908469     -79.666613      25.419229      31.774843      228.14079      77.773541      87.896179    
   9700000   298.15734      0.94644259     0.94644251     0.92990188     0.97           22.911402      2.556725       210            5.6678015     -25.56725       45.085607     -2.5149528      228.25666      77.480622      88.214042    
   9710000   299.64125      0.94684154     0.94684145     0.90333325     0.971          41.240197      1.8343219      204            3.7766874     -18.343219      52.03055      -22.357268      228.37252      77.627941      87.964883    
   9720000   297.98103      0.94757503     0.94757495     0.9564705      0.972          58.323494     -0.63754029     216            0.91338922     6.3754029      0.26728436    -3.9025196      228.48839      77.595069      87.889437    
   9730000   299.54661      0.94634677     0.94634669     0.96532671     0.973         -5.7096689      5.0106165      218           -44.029657     -50.106165     -70.734757     -11.248049      228.60426      77.382325      88.200726    
   9740000   300.22848      0.94677009     0.94677        0.98746723     0.974         -39.066953      7.5975731      223           -25.229017     -75.975731     -17.340933      17.629612      228.72012      77.272744      88.241588    
   9750000   299.74352      0.94708183     0.94708175     0.91661757     0.975          38.278546      2.3363282      207            36.457087     -23.363282      23.493044      109.2415       228.83599      76.903426      88.591291    
   9760000   301.23645      0.94638985     0.94638976     0.9564705      0.976          6.2463911     -3.0945057      216           -9.7211427      30.945057     -50.461795     -9.6466896      228.95186      77.071932      88.417467    
   9770000   298.70284      0.94688983     0.94688974     0.93875809     0.977          4.526165       4.2734         212           -60.767686     -42.734        -60.095346     -79.473713      229.06772      77.059498      88.340333    
   9780000   300.6364       0.94674476     0.94674468     0.93432998     0.978         -3.7620004      12.156095      211           -40.949414     -121.56095      43.708381     -44.995669      229.18359      77.322985      88.008277    
   9790000   301.30377      0.94757772     0.94757764     0.94761429     0.979          45.593226      0.95402254     214            3.7611828     -9.5402254      24.273398     -3.4496238      229.29945      77.367792      87.835583    
   9800000   299.42703      0.94743402     0.94743394     0.97418292     0.98           17.493964      0.035604557    220            14.45467      -0.35604557     13.68087       30.039185      229.41532      77.529919      87.620924    
   9810000   297.40347      0.947392       0.94739192     0.93875809     0.981         -11.072534      2.1314249      212           -28.051661     -21.314249     -44.034211     -18.806524      229.53119      77.263262      87.882843    
   9820000   298.97104      0.94925378     0.94925369     0.97861102     0.982         -27.619677     -1.7162855      221           -10.428025      17.162855     -6.0273153     -42.419616      229.64705      77.238081      87.694805    
   9830000   300.22622      0.95019152     0.95019143     0.92104567     0.983          103.80574      4.2032145      208            10.568575     -42.032145      54.057926      19.679944      229.76292      77.314355      87.477694    
   9840000   299.49501      0.94824917     0.94824909     0.98746723     0.984         -39.67529       1.2138199      223           -36.758145     -12.138199     -4.4534328     -93.682802      229.87879      77.697241      87.180947    
   9850000   298.94889      0.94659968     0.9465996      0.94761429     0.985         -8.345374       2.6992382      214           -19.95609      -26.992382     -37.020858      4.1449694      229.99465      77.639347      87.353957    
   9860000   298.94061      0.94463154     0.94463145     0.92990188     0.986          35.77379       3.8997499      210           -37.341067     -38.997499      4.1029667     -77.128668      230.11052      77.501269      87.647761    
   9870000   301.24613      0.94770506     0.94770498     0.9520424      0.987          25.238702      4.4282725      215            11.313604     -44.282725      59.310175      18.913362      230.22639      77.084821      87.791282    
   9880000   300.24707      0.94696938     0.94696929     0.96532671     0.988          29.833309      7.2708776      218           -14.754376     -72.708776      32.607845     -4.1621957      230.34225      77.154522      87.735958    
   9890000   300.91372      0.94587566     0.94587558     0.99189534     0.989          9.7253764      4.2097357      224           -28.807875     -42.097357     -22.205768     -22.1205        230.45812      77.228384      87.709279    
   9900000   297.93367      0.9456702      0.94567012     0.93875809     0.99          -10.268492      0.5756386      212           -22.544985     -5.756386       8.6057232     -70.484293      230.57398      76.942943      88.009539    
   9910000   298.62701      0.94980236     0.94980228     0.9520424      0.991         -10.928102      0.92556228     215            22.095096     -9.2556228      34.461035      41.079877      230.68985      76.614619      87.957965    
   9920000   302.06462      0.94792448     0.9479244      0.96975482     0.992         -38.014405      0.95377618     219            8.8995632     -9.5377618     -20.171134      56.407585      230.80572      76.767771      87.912235    
   9930000   300.68692      0.9471118      0.94711172     0.94318619     0.993          6.0379506      10.562631      213           -36.907846     -105.62631      15.263878     -20.361106      230.92158      76.645512      88.083801    
   9940000   299.42492      0.94594609     0.94594601     0.96975482     0.994          11.919086      5.0629228      219           -15.568523     -50.629228     -2.3079936      6.2316517      231.03745      76.791659      87.98036     
   9950000   298.76661      0.94813382     0.94813374     0.96532671     0.995         -22.860839     -2.7733903      218            31.707212      27.733903      52.054618      15.333115      231.15332      76.85845       87.657113    
   9960000   300.58101      0.94937104     0.94937096     0.96975482     0.996          6.0644594     -3.8639776      219           -10.313862      38.639776     -40.331919     -29.249443      231.26918      76.785933      87.581654    
   9970000   300.36879      0.94967996     0.94967987     0.9520424      0.997         -51.759973      3.486854       215            5.7758949     -34.86854       37.530011      14.666214      231.38505      76.647664      87.667185    
   9980000   300.17844      0.94753859     0.94753851     0.99632344     0.998          30.247899      4.8948647      225           -38.28039      -48.948647     -36.588866     -29.303656      231.50091      76.448115      88.050566    
   9990000   302.29269      0.94626659     0.9462665      0.92547377     0.999         -7.3947745      2.6773038      209           -6.6521869     -26.773038      18.873043     -12.056567      231.61678      76.528909      88.031784    
  10000000   302.57857      0.94820413     0.94820405     0.92104567     1              1.4143985      1.0399993      208            18.758154     -10.399993      16.818496      49.855959      231.73265      76.29778       88.073973    
  10010000   298.7441       0.94613066     0.94613058     0.9564705      1.001          20.347895      2.6477243      216           -14.064627     -26.477243     -27.776087      12.059448      231.84851      76.649014      87.818607    
  10020000   300.72705      0.94641535     0.94641527     0.97418292     1.002          30.351706      2.8442971      220            14.891075     -28.442971      28.785387      44.330809      231.96438      76.533397      87.880897    
  10030000   300.76607      0.94853131     0.94853122     0.96089861     1.003          26.489772     -3.0687869      217            38.065264      30.687869      38.917521      44.590401      232.08025      75.882617      88.392702    
  10040000   299.53728      0.94914265     0.94914257     0.93875809     1.004          11.254755     -3.1517393      212           -22.028752      31.517393     -87.692721     -9.9109285      232.19611      75.938406      88.226823    
  10050000   297.5045       0.9474659      0.94746582     0.9564705      1.005          32.745304     -4.4248832      216            12.815051      44.248832      4.6244476     -10.428125      232.31198      76.317423      87.900159    
  10060000   297.83021      0.9470324      0.94703231     0.9564705      1.006         -3.9918647      1.5881516      216            21.314061     -15.881516      56.813076      23.010623      232.42785      76.158579      88.079883    
  10070000   299.93302      0.94746629     0.94746621     0.91661757     1.007         -2.1402322      0.73073777     207            10.738321     -7.3073777      22.416246      17.106094      232.54371      75.640318      88.598596    
  10080000   301.48843      0.94609816     0.94609808     0.93875809     1.008         -27.237484      4.4037921      212           -39.96727      -44.037921     -54.76281      -21.101079      232.65958      75.973294      88.293851    
  10090000   300.02152      0.94834822     0.94834813     0.90333325     1.009          4.4138442      6.8615573      204           -18.071441     -68.615573      27.352607     -12.951355      232.77544      75.884771      88.143223    
  10100000   299.18624      0.94989438     0.9498943      0.9564705      1.01          -45.680521      1.1515931      216           -22.372076     -11.515931     -23.62394      -31.976355      232.89131      76.040931      87.77534     
  10110000   298.13203      0.94677142     0.94677134     0.97861102     1.011          70.576242      0.13701708     221            30.126461     -1.3701708      76.125596      15.623957      233.00718      76.188196      87.850942    
  10120000   300.8075       0.94782873     0.94782864     0.92990188     1.012         -3.3644788     -5.2044072      210            18.809271      52.044072     -11.347147      15.730887      233.12304      76.154563      87.748065    
  10130000   298.52336      0.94726147     0.94726138     0.9564705      1.013          65.907409      4.4257693      216           -4.94593       -44.257693      22.04188       7.3780225      233.23891      75.976647      87.962499    
  10140000   299.29759      0.94781007     0.94780998     0.96975482     1.014         -30.58984      -1.5894979      219            35.284995      15.894979      64.053605      25.906401      233.35478      76.314708      87.478694    
  10150000   299.6175       0.94799004     0.94798996     0.96089861     1.015          85.497182      3.583921       217           -9.97441       -35.83921      -0.21386069     6.1298404      233.47064      76.132703      87.627667    
  10160000   300.35404      0.94507741     0.94507733     0.96532671     1.016          35.082743      6.8021215      218           -78.773147     -68.021215     -90.81894      -77.479287      233.58651      76.595777      87.322988    
  10170000   300.44175      0.94665166     0.94665158     0.90776136     1.017          1.6690471      5.7898375      205           -17.86632      -57.898375      3.3111718      0.98824173     233.70237      76.825595      86.873895    
  10180000   301.65087      0.94661844     0.94661836     0.93875809     1.018          6.588245       9.5512036      212           -88.352999     -95.512036     -102.40563     -67.141329      233.81824      76.5606        87.134446    
  10190000   299.25137      0.94709795     0.94709786     0.9564705      1.019         -24.007692     -6.291706       216            14.791451      62.91706      -9.0255231     -9.5171858      233.93411      76.581679      87.023236    
  10200000   300.72696      0.94687723     0.94687714     0.9520424      1.02           33.244872      6.7801254      215           -45.254037     -67.801254     -52.796152     -15.164705      234.04997      76.180582      87.458494    
  10210000   300.14103      0.94689183     0.94689174     0.9520424      1.021         -48.021066      5.7908362      215           -22.210023     -57.908362      15.58916      -24.310867      234.16584      75.961909      87.665512    
  10220000   299.69027      0.94761449     0.9476144      0.92990188     1.022          33.995288     -7.5919525      210            39.074769      75.919525      2.6010911      38.703691      234.28171      75.833481      87.703614    
  10230000   301.457        0.9491812      0.94918111     0.96089861     1.023          38.395245      8.424543       217           -18.18901      -84.24543       7.1307804      22.54762       234.39757      76.11299       87.194187    
  10240000   299.36707      0.94953757     0.94953748     0.94318619     1.024         -40.451298      4.1439623      213           -25.244606     -41.439623     -67.137344      32.843151      234.51344      76.269813      86.939269    
  10250000   300.5562       0.94919366     0.94919358     0.97418292     1.025          7.8281632      6.0650871      220           -88.677481     -60.650871     -92.012453     -113.36912      234.62931      75.981224      87.257985    
  10260000   299.73003      0.94840138     0.9484013      0.94761429     1.026          0.66051601     5.5399888      214           -13.488366     -55.399888     -14.275351      29.210141      234.74517      76.638729      86.538909    
  10270000   299.79619      0.94727576     0.94727567     0.92104567     1.027          39.122139     -0.3641166      208           -4.1484266      3.641166      -9.5967486     -6.489697       234.86104      76.267419      87.020606    
  10280000   299.76716      0.94950937     0.94950928     0.94318619     1.028         -38.787763      7.0625326      213           -25.429323     -70.625326     -2.1528971     -3.509745       234.9769       76.705504      86.277509    
  10290000   298.67942      0.94432647     0.94432638     0.91661757     1.029          22.269993      7.0380433      207           -15.088956     -70.380433      7.537416       17.576149      235.09277      76.641526      86.780665    
  10300000   299.68225      0.94733348     0.9473334      0.93432998     1.03           41.872605      7.142065       211           -35.649697     -71.42065      -36.848274      1.3198327      235.20864      76.660165      86.441571    
  10310000   298.4932       0.94775249     0.94775241     0.93432998     1.031         -18.199037     -9.7169121      211            66.337821      97.169121      54.589786      47.254556      235.3245       76.303896      86.764038    
  10320000   300.20644      0.94839284     0.94839275     0.96975482     1.032         -23.95764       1.0277834      219            33.896163     -10.277834      81.746077      30.220245      235.44037      76.531873      86.40463     
  10330000   300.12693      0.94828962     0.94828954     0.93875809     1.033          12.359395      5.3724288      212           -7.290769      -53.724288      46.295521     -14.44354       235.55624      76.444001      86.470813    
  10340000   297.17822      0.94868363     0.94868354     0.9564705      1.034         -30.29356      -3.3327875      216            20.130932      33.327875      26.423514      0.64140668     235.6721       76.210557      86.657037    
  10350000   301.70655      0.94773527     0.94773519     0.91218946     1.035          14.309166      0.77228872     206            23.12412      -7.7228872      28.005694      49.089552      235.78797      76.168622      86.748858    
  10360000   300.02972      0.94717778     0.9471777      0.96532671     1.036          21.509325     -0.32906664     218            28.984851      3.2906664      15.502613      68.161275      235.90383      76.20479       86.716109    
  10370000   296.64629      0.94799482     0.94799474     0.92104567     1.037          6.6324826      3.3893353      208            0.16145578    -33.893353      28.95577       5.4219506      236.0197       75.821979      87.036059    
  10380000   298.96819      0.94760696     0.94760688     0.9564705      1.038          11.085687     -0.52463945     216           -16.809045      5.2463945     -25.022023     -30.651507      236.13557      75.942992      86.89028     
  10390000   301.16191      0.94769805     0.94769796     0.90333325     1.039         -58.121619      1.323243       204           -2.3316658     -13.23243      -9.1462678      15.3837        236.25143      76.243888      86.496609    
  10400000   301.86503      0.95092091     0.95092082     0.91218946     1.04           38.461331     -2.8332096      206            23.954335      28.332096      25.587033      17.943878      236.3673       75.990551      86.448442    
  10410000   299.08588      0.94730322     0.94730313     0.96532671     1.041          63.956755      6.5840138      218           -13.695882     -65.840138      54.778734     -30.026243      236.48317      75.878343      86.864329    
  10420000   302.11695      0.94722195     0.94722186     0.96532671     1.042          42.11774       7.124669       218           -23.715583     -71.24669       23.607319     -23.507378      236.59903      76.198979      86.463872    
  10430000   299.86478      0.94742476     0.94742468     0.93875809     1.043          22.272451      2.6733191      212           -4.6089701     -26.733191      6.8770536      6.0292276      236.7149       76.067387      86.552522    
  10440000   299.03637      0.94671147     0.94671138     0.9520424      1.044          31.168433      8.5006202      215            5.0510492     -85.006202      65.533971      34.625378      236.83077      76.40053       86.197848    
  10450000   300.34         0.94519271     0.94519263     0.9520424      1.045          4.465236       10.472799      215           -52.682207     -104.72799     -53.706291      0.38765553     236.94663      75.89123       86.873247    
  10460000   301.77545      0.9475458      0.94754571     0.93432998     1.046         -2.0391134     -1.020609       211           -22.788357      10.20609      -39.522772     -39.048387      237.0625       76.11869       86.356331    
  10470000   302.03371      0.94738626     0.94738617     0.96975482     1.047          75.278303      2.1503567      219           -30.883541     -21.503567     -56.884516     -14.262541      237.17836      75.857006      86.626487    
  10480000   301.5712       0.949711       0.94971092     0.96532671     1.048          13.788544     -5.2456204      218            66.815426      52.456204      28.03919       119.95089      237.29423      75.788505      86.450311    
  10490000   299.88427      0.94722278     0.94722269     0.93432998     1.049          10.124406      4.6426158      211           -33.180304     -46.426158      1.4698504     -54.584603      237.4101       75.98371       86.412533    
  10500000   299.39896      0.94677465     0.94677456     0.9564705      1.05           35.643781     -4.508573       216            5.561008       45.08573      -12.468439     -15.934267      237.52596      75.899981      86.506587    
  10510000   299.18856      0.94798645     0.94798637     0.94761429     1.051         -12.400651      5.4971139      214           -41.451097     -54.971139      8.6219298     -78.004081      237.64183      75.617981      86.675919    
  10520000   299.54135      0.94812343     0.94812334     0.96975482     1.052         -7.3692023      4.7733818      219           -35.6429       -47.733818     -22.409457     -36.785425      237.7577       75.666328      86.565816    
  10530000   300.98718      0.94953941     0.94953932     0.96975482     1.053         -23.887586      3.2121043      219           -10.374993     -32.121043      37.063057     -36.066993      237.87356      75.411288      86.68681     
  10540000   299.58011      0.94878759     0.94878751     0.9520424      1.054          54.392968      3.4990677      215           -9.9469798     -34.990677      8.0125133     -2.862776       237.98943      75.973677      86.071376    
  10550000   299.99519      0.9466258      0.94662572     0.92547377     1.055          57.008488      5.3852356      209           -42.217096     -53.852356     -69.801411     -2.9975193      238.1053       76.265172      85.896388    
  10560000   300.91927      0.94614917     0.94614909     0.93432998     1.056          46.700112      9.0253151      211           -58.845276     -90.253151     -30.723428     -55.559248      238.22116      75.926329      86.281204    
  10570000   301.20071      0.94722039     0.94722031     0.9564705      1.057          11.204135      7.7303313      216           -36.663978     -77.303313      6.943126      -39.631746      238.33703      75.945048      86.120498    
  10580000   300.29443      0.94931017     0.94931008     0.93875809     1.058         -9.1471446      1.9115529      212            11.079961     -19.115529      28.398938      23.956475      238.45289      75.836341      86.012278    
  10590000   299.92959      0.94881004     0.94880996     0.97418292     1.059         -2.1324498      4.0221773      220            4.07307       -40.221773      29.81364       22.627343      238.56876      75.886979      85.958423    
  10600000   299.80072      0.94939316     0.94939308     0.96089861     1.06          -27.425246     -5.9973333      217           -7.8925088      59.973333     -1.1574722     -82.493388      238.68463      76.012544      85.722088    
  10610000   301.1508       0.94805098     0.9480509      0.9564705      1.061         -24.801302      0.68375764     216           -5.441047      -6.8375764     -27.539169      18.053605      238.80049      75.796855      86.045955    
  10620000   301.95264      0.94735583     0.94735575     0.91218946     1.062         -13.446031      3.2713656      206           -11.977344     -32.713656      3.2591124     -6.4774884      238.91636      75.985005      85.854217    
  10630000   299.53252      0.94691989     0.94691981     0.93875809     1.063         -22.524618      3.5088962      212           -25.088341     -35.088962      21.418384     -61.594445      239.03223      75.794363      86.068047    
  10640000   300.57082      0.94748594     0.94748586     0.91661757     1.064         -25.494476     -0.1895715      207           -8.5382194      1.895715       22.554263     -50.064636      239.14809      75.564036      86.237014    
  10650000   300.82802      0.94885656     0.94885648     0.94761429     1.065          9.0195203     -10.330231      214            2.9409453      103.30231     -76.975208     -17.504269      239.26396      75.382467      86.278057    
  10660000   298.57165      0.94794188     0.9479418      0.94761429     1.066          42.969662      2.872976       214           -4.5566606     -28.72976       4.0945072      10.965271      239.37982      75.218277      86.507929    
  10670000   299.4161       0.94894852     0.94894844     0.92990188     1.067          27.230844      1.6793335      210            26.395029     -16.793335      37.319006      58.659417      239.49569      75.697624      85.827398    
  10680000   298.50893      0.94605969     0.94605961     0.92547377     1.068         -15.090149      6.5162634      209           -62.263524     -65.162634     -85.180195     -36.447742      239.61156      75.792269      85.940394    
  10690000   299.69538      0.94734019     0.94734011     0.93432998     1.069          7.4216051     -0.26051716     211            24.990283      2.6051716     -28.540671      100.90635      239.72742      75.65799       85.934998    
  10700000   299.64188      0.95002872     0.95002863     0.92104567     1.07          -28.472443      2.6212062      208           -17.407536     -26.212062      7.7259718     -33.736519      239.84329      75.609269      85.705602    
  10710000   300.18963      0.94863915     0.94863907     0.94761429     1.071          57.14054       5.1600985      214           -53.729165     -51.600985     -6.2144031     -103.37211      239.95916      75.343364      86.09247     
  10720000   299.32565      0.94825351     0.94825343     0.9564705      1.072          29.72569       3.3388092      216           -12.9881       -33.388092     -36.926443      31.350237      240.07502      75.546793      85.854109    
  10730000   299.83941      0.94549296     0.94549287     0.97861102     1.073         -39.362608      5.382746       221           -20.166957     -53.82746       2.1699121     -8.8433223      240.19089      75.632204      85.966049    
  10740000   300.79302      0.94596757     0.94596749     0.9564705      1.074          22.773846      0.65233053     216            5.8547581     -6.5233053      31.760888     -7.6733087      240.30676      75.379725      86.169143    
  10750000   300.5123       0.94862725     0.94862716     0.93432998     1.075          25.755931      5.4547349      211           -30.313625     -54.547349     -38.1357        1.7421741      240.42262      74.9794        86.344696    
  10760000   300.34796      0.94790677     0.94790668     0.9564705      1.076         -0.53129752     0.54821237     216            0.49111848    -5.4821237     -21.587306      28.542785      240.53849      75.056461      86.280026    
  10770000   301.10792      0.94804999     0.94804991     0.91218946     1.077         -1.4146808      7.8542361      206           -57.859195     -78.542361     -30.919771     -64.115453      240.65435      74.783848      86.539779    
  10780000   300.01024      0.94897063     0.94897054     0.99189534     1.078          9.6623511     -0.37071601     224           -14.36138       3.7071601     -35.655378     -11.135922      240.77022      74.910289      86.26836     
  10790000   300.10945      0.94964117     0.94964109     0.93432998     1.079         -46.795809      7.5131025      211           -30.001062     -75.131025     -22.842808      7.9706485      240.88609      74.673004      86.439785    
  10800000   297.98855      0.94532406     0.94532397     0.97418292     1.08           9.7023913      9.7004475      220           -56.489032     -97.004475     -46.435278     -26.027344      241.00195      75.074693      86.328404    
  10810000   299.04774      0.94525911     0.94525902     0.9564705      1.081          3.8843933      12.130335      216           -59.018153     -121.30335     -9.5297527     -46.221355      241.11782      74.990918      86.38925     
  10820000   303.78875      0.94844896     0.94844888     0.9520424      1.082          46.193303      0.12113762     215           -1.51218       -1.2113762     -5.6221118      2.2969481      241.23369      74.876052      86.189368    
  10830000   300.07156      0.94576523     0.94576515     0.92990188     1.083          26.616032      14.403988      210           -76.552724     -144.03988     -42.607826     -43.01047       241.34955      74.588021      86.726061    
  10840000   299.58266      0.94517784     0.94517776     0.97418292     1.084         -38.202368     -3.3227541      220            8.8942484      33.227541      11.297581     -17.842377      241.46542      74.35545       87.00962     
  10850000   299.28417      0.94538896     0.94538888     0.93432998     1.085         -5.1317008      7.7728392      211           -30.17048      -77.728392     -9.7266755     -3.056371       241.58128      74.823951      86.40405     
  10860000   300.59629      0.94627662     0.94627654     0.91661757     1.086          16.365614      2.6138684      207            6.5565776     -26.138684      31.224989      14.583427      241.69715      74.815789      86.291029    
  10870000   301.2691       0.94655177     0.94655169     0.97861102     1.087         -3.3145252      3.6787968      221           -24.026573     -36.787968      5.454765      -40.746514      241.81302      75.086062      85.914244    
  10880000   298.75675      0.94657124     0.94657116     0.94318619     1.088          41.230191      5.8195045      213           -43.346794     -58.195045     -34.98668      -36.858658      241.92888      74.905153      86.078725    
  10890000   302.68182      0.94680488     0.94680479     0.93875809     1.089         -31.714732      7.986109       212           -24.022181     -79.86109      -15.078479      22.873028      242.04475      74.701084      86.251269    
  10900000   301.08245      0.94676966     0.94676958     0.94318619     1.09           8.1157665      9.7970941      213           -23.553819     -97.970941      3.7969573      23.512528      242.16062      74.564753      86.370836    
  10910000   301.15237      0.94833853     0.94833844     0.89447704     1.091         -1.3693702      3.7120655      202            5.1057605     -37.120655      29.793314      22.644623      242.27648      74.568497      86.182385    
  10920000   298.99407      0.94651219     0.94651211     0.94318619     1.092          11.616131     -0.69131502     213            6.9581039      6.9131502      13.83209       0.12907183     242.39235      74.150775      86.793607    
  10930000   300.60446      0.94955952     0.94955943     0.96975482     1.093          11.589807     -0.073985575    219            41.839541      0.73985575     78.451874      46.326893      242.50822      73.796244      86.88917     
  10940000   300.00318      0.94773321     0.94773313     0.93875809     1.094          21.540734     -10.108804      212            42.132754      101.08804      76.608642     -51.29842       242.62408      73.792297      87.019687    
  10950000   299.81075      0.94771153     0.94771144     0.93875809     1.095         -9.6724401      10.201156      212           -15.990203     -102.01156      32.798308      21.242646      242.73995      74.05367       86.673143    
  10960000   300.03101      0.94738728     0.94738719     0.86790842     1.096          49.81048       2.4046647      196            9.2292072     -24.046647      57.116991     -5.3827217      242.85581      73.961349      86.769616    
  10970000   300.11456      0.94798842     0.94798834     0.91218946     1.097          0.54144054    -3.7378279      206            3.6356025      37.378279     -4.9295368     -21.541935      242.97168      73.840719      86.814836    
  10980000   298.80031      0.94615964     0.94615956     0.93875809     1.098         -47.565664     -5.1449023      212            30.774094      51.449023      34.983058      5.8902003      243.08755      74.053258      86.691646    
  10990000   299.76493      0.94720229     0.94720221     0.93875809     1.099          59.052285      6.8857011      212           -49.033007     -68.857011     -7.3864708     -70.855538      243.20341      74.043552      86.566309    
  11000000   300.07636      0.94774856     0.94774848     0.97861102     1.1           -22.346777      1.641866       221           -27.130014     -16.41866       1.4916652     -66.463045      243.31928      73.755971      86.81239     
  11010000   300.48488      0.94573402     0.94573394     0.93432998     1.101          22.294402      2.0492461      211           -3.8193201     -20.492461      38.504979     -29.470478      243.43515      74.068312      86.589217    
  11020000   299.64765      0.94698291     0.94698283     0.96975482     1.102         -33.041298      8.6635206      219           -40.159373     -86.635206      18.309        -52.151912      243.55101      73.984454      86.531852    
  11030000   300.11382      0.94524413     0.94524405     0.91661757     1.103         -13.529847     -8.3157542      207            47.846852      83.157542      9.8575601      50.525454      243.66688      74.06946       86.550361    
  11040000   299.68552      0.94893615     0.94893606     0.92990188     1.104         -16.268558     -1.2523738      210            16.692931      12.523738      7.6895128      29.865543      243.78274      74.150305      86.078692    
  11050000   300.26666      0.94764816     0.94764808     0.92547377     1.105          24.175008      7.2194263      209           -16.464435     -72.194263     -14.004673      36.80563       243.89861      74.434731      85.825527    
  11060000   300.48455      0.94651185     0.94651177     0.93875809     1.106         -26.766425      7.8045943      212           -60.224458     -78.045943     -50.350816     -52.276615      244.01448      74.009543      86.381189    
  11070000   299.2393       0.94598198     0.94598189     0.90776136     1.107         -2.8039245      2.9171997      205           -15.292886     -29.171997     -1.9099084     -14.796754      244.13034      74.082009      86.304049    
  11080000   300.75796      0.94691796     0.94691787     0.94761429     1.108          3.6603662      3.3274907      214           -7.4946037     -33.274907     -14.475923      25.26702       244.24621      74.378925      85.833826    
  11090000   302.36539      0.94572973     0.94572964     0.9520424      1.109         -1.2479049      6.6916376      215           -47.468325     -66.916376     -7.9214101     -67.567189      244.36208      73.769608      86.610437    
  11100000   298.98571      0.94759647     0.94759638     0.96532671     1.11          -13.20799      -1.9570983      218            19.846595      19.570983     -44.409927      84.378731      244.47794      73.943601      86.195549    
  11110000   298.52401      0.94520658     0.9452065      0.9564705      1.111          57.096048      2.6549877      216           -8.308085      -26.549877     -29.517481      31.143104      244.59381      74.369924      85.877426    
  11120000   299.74384      0.94603257     0.94603249     0.96975482     1.112         -50.808017      4.5805178      219           -42.856588     -45.805178     -37.159185     -45.605402      244.70968      74.677505      85.408585    
  11130000   300.32346      0.94826356     0.94826347     0.96975482     1.113         -20.806662      1.9260654      219            10.596763     -19.260654      13.50906       37.541883      244.82554      74.548397      85.314816    
  11140000   299.64989      0.94514717     0.94514709     0.94318619     1.114         -51.89989       1.1572431      213           -4.9136741     -11.572431     -7.4725303      4.3039392      244.94141      74.894313      85.160472    
  11150000   301.89858      0.9457258      0.94572572     0.93875809     1.115          10.875276      11.315223      212           -55.043099     -113.15223     -44.275776     -7.7012926      245.05727      74.887478      85.075891    
  11160000   298.97545      0.94767115     0.94767107     0.96089861     1.116          60.011497      6.8610672      217           -10.437941     -68.610672      15.902814      21.394035      245.17314      74.572545      85.21951     
  11170000   301.01556      0.94674022     0.94674014     0.9564705      1.117          23.509066      5.0053122      216            36.354357     -50.053122      97.476238      61.639955      245.28901      74.23733       85.648014    
  11180000   299.87082      0.94667234     0.94667226     0.93875809     1.118          3.6614037      3.2618938      212           -14.88634      -32.618938      23.520408     -35.560491      245.40487      74.694746      85.089433    
  11190000   301.26186      0.94958752     0.94958744     0.94318619     1.119          28.16072      -1.0701211      213           -30.943687      10.701211     -56.944105     -46.588168      245.52074      74.583378      84.914787    
  11200000   298.21829      0.95019863     0.95019854     0.96532671     1.12           8.420466       3.8956284      218            37.434928     -38.956284      83.2811        67.97997       245.63661      74.403567      85.02513     
  11210000   298.82777      0.94923766     0.94923758     0.9564705      1.121          36.918351      2.5153492      216           -5.648404      -25.153492      8.404807      -0.19652682     245.75247      74.312732      85.175063    
  11220000   299.14472      0.94788723     0.94788715     0.94761429     1.122         -22.212535     -1.7282651      214            27.70962       17.282651      51.406193      14.440017      245.86834      74.39726       85.159348    
  11230000   301.93159      0.94718382     0.94718374     0.94318619     1.123          3.6627356     -1.1608219      213            31.765614      11.608219      25.546321      58.142302      245.98421      74.280209      85.316678    
  11240000   300.26615      0.94834914     0.94834906     0.92990188     1.124         -24.935044     -8.9811984      210            44.623687      89.811984      31.953109      12.105969      246.10007      74.581284      84.827897    
  11250000   300.35802      0.94865143     0.94865135     0.98746723     1.125         -36.532975      0.19755856     223           -2.1436031     -1.9755856     -14.763854      10.30863       246.21594      74.587866      84.75348     
  11260000   298.77048      0.94354891     0.94354883     0.91661757     1.126         -41.335511      1.1943588      207           -17.920659     -11.943588      2.5549367     -44.373325      246.3318       74.665297      85.083403    
  11270000   300.71161      0.94630813     0.94630805     0.93432998     1.127          23.464555      2.8392333      211            11.823756     -28.392333      68.17888      -4.3152788      246.44767      74.496253      84.987848    
  11280000   300.0939       0.94698546     0.94698538     0.91218946     1.128          42.254123      2.9085203      206           -45.599215     -29.085203     -67.166803     -40.54564       246.56354      74.805056      84.536728    
  11290000   301.24216      0.9495246      0.94952452     0.9564705      1.129          15.741673     -2.0283864      216            64.569458      20.283864      102.3372       71.087314      246.6794       74.330418      84.80918     
  11300000   300.66498      0.94779044     0.94779035     0.9520424      1.13           31.034417      6.5925764      215           -33.831144     -65.925764     -2.3549617     -33.212708      246.79527      74.236691      85.031687    
  11310000   301.19066      0.94563466     0.94563458     0.93432998     1.131         -4.8128068     -0.038252344    211            11.78769       0.38252344     21.547865      13.432683      246.91114      74.166082      85.266641    
  11320000   299.8197       0.9464422      0.94644212     0.94318619     1.132          13.486225      5.074161       213           -58.496213     -50.74161      -57.335111     -67.411918      247.027        74.07006       85.264319    
  11330000   302.06394      0.94679586     0.94679578     0.94318619     1.133         -29.019939      1.2078475      213           -36.166314     -12.078475     -71.381391     -25.039076      247.14287      74.183737      85.061966    
  11340000   299.21811      0.94827874     0.94827865     0.94761429     1.134         -13.577995      5.0571317      214           -25.795175     -50.571317      1.6451942     -28.459403      247.25873      73.936785      85.172684    
  11350000   300.59368      0.94940454     0.94940446     0.9520424      1.135          8.0623332      6.0094883      215           -0.098378925   -60.094883     -25.42375       85.223497      247.3746       74.126045      84.814736    
  11360000   301.97867      0.95015443     0.95015435     0.98303913     1.136         -61.299469     -8.5366862      222            54.432021      85.366862      17.529089      60.400111      247.49047      74.187147      84.638354    
  11370000   301.2894       0.94768566     0.94768557     0.9520424      1.137          23.640018      10.231891      215           -58.415237     -102.31891     -79.764565      6.8377655      247.60633      74.228452      84.771934    
  11380000   299.20454      0.9469852      0.94698512     0.89004894     1.138          46.981936     -1.4361514      201            28.856779      14.361514      36.444953      35.76387       247.7222       74.320144      84.690343    
  11390000   300.70573      0.94664394     0.94664385     0.96532671     1.139          21.540505     -3.7589591      218            30.805635      37.589591      74.815286     -19.987971      247.83807      74.622148      84.338551    
  11400000   298.01703      0.9481129      0.94811281     0.99189534     1.14           17.281361     -0.065071837    224            2.9044721      0.65071837     29.691849     -21.629151      247.95393      74.465136      84.346003    
  11410000   299.82864      0.94653316     0.94653307     0.97861102     1.141         -4.1551102      9.2768542      221           -22.437209     -92.768542      7.5188524      17.938062      248.0698       73.934758      85.053105    
  11420000   299.72673      0.94841431     0.94841423     0.97418292     1.142         -7.7107977      0.40625397     220            36.918976     -4.0625397      27.811769      87.007697      248.18567      73.631393      85.19434     
  11430000   298.69278      0.94531783     0.94531774     0.94761429     1.143          25.638394      7.8871169      214           -32.800074     -78.871169     -44.493636      24.964584      248.30153      73.753213      85.292405    
  11440000   300.77548      0.94835715     0.94835707     0.96532671     1.144         -24.455693     -2.7946861      218            38.024189      27.946861      42.784634      43.341073      248.4174       73.567482      85.193945    
  11450000   300.90865      0.94714772     0.94714764     0.96532671     1.145          2.9563182      3.2459878      218           -4.4844388     -32.459878      4.5039941      14.502567      248.53326      73.670017      85.144292    
  11460000   298.71337      0.94742946     0.94742937     0.96975482     1.146          37.316658     -0.06564068     219            14.859643      0.6564068      9.4185853      34.503936      248.64913      73.789409      84.94165     
  11470000   300.15229      0.94889381     0.94889373     0.9564705      1.147          10.2651       -5.9733321      216            34.355342      59.733321      5.8522768      37.480428      248.765        73.817788      84.738473    
  11480000   299.21272      0.94940454     0.94940446     0.94761429     1.148         -77.703045      10.369525      214           -44.945592     -103.69525      3.1212902     -34.262813      248.88086      73.516627      85.000244    
  11490000   298.74988      0.94547184     0.94547175     0.96532671     1.149         -45.484418     -2.7134705      218            18.779992      27.134705      21.957715      7.2475565      248.99673      73.714269      85.085342    
  11500000   298.02511      0.94850876     0.94850867     0.96975482     1.15           34.802703     -1.4293155      219            23.47475       14.293155      31.672628      24.458468      249.1126       73.420051      85.113184    
  11510000   298.77853      0.94737993     0.94737985     0.92547377     1.151          37.237641      3.3123268      209           -11.502        -33.123268      26.206303     -27.589035      249.22846      73.559539      85.013468    
  11520000   302.69513      0.9464484      0.94644831     0.9564705      1.152          15.33188       2.728564       216            28.345104     -27.28564       50.675076      61.645874      249.34433      73.342602      85.309187    
  11530000   299.59799      0.94841244     0.94841236     0.93432998     1.153         -55.786885     -0.065165371    211            9.7162033      0.65165371     22.572759      5.9241968      249.46019      73.326189      85.112028    
  11540000   300.29091      0.94736201     0.94736192     0.96089861     1.154          4.3007253      4.1941221      217           -34.428742     -41.941221     -14.032453     -47.312552      249.57606      72.957566      85.597154    
  11550000   299.75949      0.94838489     0.94838481     1.0096078      1.155         -13.999938      0.9019906      228            2.0478559     -9.019906      -32.513125      47.676599      249.69193      72.784073      85.668877    
  11560000   296.92827      0.94679521     0.94679512     0.91218946     1.156          52.06641       5.4689524      206           -10.254653     -54.689524      41.676473     -17.750908      249.80779      73.039117      85.473405    
  11570000   299.37357      0.94548165     0.94548157     0.94761429     1.157         -2.3685655      14.304712      214           -49.935102     -143.04712     -14.25237       7.494186       249.92366      72.839311      85.787151    
  11580000   298.74306      0.94539527     0.94539518     0.96532671     1.158         -4.4568358     -0.4739098      218            13.799492      4.739098       41.651188     -4.9918087      250.03953      72.773695      85.832553    
  11590000   299.42643      0.9481304      0.94813032     0.96975482     1.159         -51.11301       3.9457774      219           -33.654068     -39.457774     -5.2503879     -56.254043      250.15539      72.975371      85.308891    
  11600000   302.554        0.94840085     0.94840076     0.92990188     1.16          -10.46403       3.9480146      210           -8.5193476     -39.480146      43.736839     -29.814735      250.27126      72.663876      85.610509    
  11610000   300.71871      0.94749424     0.94749416     0.94318619     1.161          21.566511      4.0082741      213           -55.86528      -40.082741     -62.200184     -65.312914      250.38713      72.955905      85.309919    
  11620000   298.54292      0.94851745     0.94851736     0.94318619     1.162          7.0992494      3.1213872      213           -34.360343     -31.213872     -70.027528     -1.8396285      250.50299      73.15221       84.949898    
  11630000   299.97961      0.94801501     0.94801493     0.92547377     1.163         -55.953044     -2.6395798      209           -2.7005687      26.395798     -21.008658     -13.488846      250.61886      73.240034      84.853752    
  11640000   299.53551      0.94770684     0.94770676     0.92990188     1.164          41.026863     -5.3405047      210            43.273501      53.405047      0.39829686     76.01716       250.73472      72.931838      85.200647    
  11650000   299.21399      0.94637033     0.94637025     0.92104567     1.165          55.238891      8.443894       208           -55.855016     -84.43894      -89.480795      6.354686       250.85059      73.160677      85.01481     
  11660000   299.84663      0.94925152     0.94925144     0.93875809     1.166          44.708014      0.29648172     212            17.359443     -2.9648172      65.452142     -10.408997      250.96646      72.80077       85.136462    
  11670000   298.26889      0.94530897     0.94530888     0.96532671     1.167          29.104416      0.51721668     218            1.9545829     -5.1721668      65.927022     -54.891106      251.08232      72.740313      85.523107    
  11680000   301.29518      0.94753584     0.94753575     0.98746723     1.168          2.2448327     -3.5896097      223            9.437133       35.896097      50.835227     -58.419925      251.19819      72.538973      85.519469    
  11690000   301.42318      0.94632403     0.94632395     0.9564705      1.169         -12.497194      3.1449482      216           -9.493215      -31.449482      26.813973     -23.844137      251.31406      72.681358      85.42183     
  11700000   298.49162      0.95067011     0.95067003     0.98746723     1.17          -40.406511     -0.92953945     223            10.285491      9.2953945      11.468355      10.092725      251.42992      72.25961       85.488193    
  11710000   298.84548      0.94836111     0.94836103     0.94318619     1.171          49.821669      3.738999       213            15.162364     -37.38999       61.576824      21.300258      251.54579      72.507807      85.363653    
  11720000   302.33025      0.94836217     0.94836208     0.96532671     1.172          8.4095629      3.297862       218            47.703883     -32.97862       23.066258      153.02401      251.66165      72.505822      85.326592    
  11730000   302.14497      0.94773253     0.94773245     0.94761429     1.173         -7.4080749      0.83426785     214           -19.517857     -8.3426785     -7.5396422     -42.671251      251.77752      72.440455      85.420998    
  11740000   300.90089      0.94764755     0.94764747     0.9564705      1.174          25.666736     -9.2095604      216            42.994102      92.095604      25.634565      11.252138      251.89339      72.556066      85.253303    
  11750000   298.79152      0.94775846     0.94775838     0.96975482     1.175         -8.3567785      3.4365038      219           -14.079139     -34.365038      12.202183     -20.07456       252.00925      72.706112      85.028295    
  11760000   298.37603      0.9479947      0.94799462     0.94318619     1.176         -13.62493      -0.24757843     213            18.440633      2.4757843      37.61566       15.230454      252.12512      72.494921      85.215568    
  11770000   300.95605      0.9482201      0.94822001     0.93875809     1.177          0.23930155     4.8450308      212           -22.681928     -48.450308      7.8053859     -27.40086       252.24099      72.314306      85.368867    
  11780000   297.11863      0.95150284     0.95150276     0.92990188     1.178          39.419049     -7.6727496      210            49.272175      76.727496      38.525289      32.563741      252.35685      72.357157      84.984919    
  11790000   300.29588      0.94476781     0.94476773     0.94761429     1.179         -40.534571      6.9377651      214           -53.12234      -69.377651     -1.4090535     -88.580317      252.47272      72.717855      85.127121    
  11800000   297.80705      0.94584921     0.94584912     0.92104567     1.18           79.884959      5.6745704      208           -27.806397     -56.745704      8.2811741     -34.954663      252.58859      72.384072      85.382707    
  11810000   299.65869      0.94950711     0.94950703     0.94761429     1.181          12.758181      9.0408324      214           -21.832125     -90.408324      4.8563933      20.055556      252.70445      72.439638      84.949566    
  11820000   300.04414      0.94798734     0.94798725     0.92547377     1.182          29.94448       0.35759007     209            17.956178     -3.5759007      1.7458377      55.698597      252.82032      72.513726      84.959867    
  11830000   299.39313      0.9474799      0.94747981     0.93432998     1.183          38.06315       4.5831917      211           -23.770011     -45.831917      9.7238349     -35.20195       252.93618      72.074558      85.48415     
  11840000   300.22648      0.94803912     0.94803903     0.90776136     1.184          57.341604      1.1468038      205           -28.463868     -11.468038      0.45546721    -74.379033      253.05205      72.060993      85.410682    
  11850000   299.47324      0.94677791     0.94677783     0.92547377     1.185         -2.240509      -1.0769802      209            19.171889      10.769802     -1.2002666      47.946133      253.16792      72.384398      85.103378    
  11860000   299.73612      0.94943257     0.94943249     0.96532671     1.186         -33.910696     -5.8683314      218            11.828615      58.683314     -17.240224     -5.9572451      253.28378      72.545853      84.637815    
  11870000   298.71765      0.94763554     0.94763545     0.92990188     1.187          1.2732152      6.2908087      210           -16.774696     -62.908087      38.468431     -25.884432      253.39965      72.41175       84.916515    
  11880000   302.03315      0.94813965     0.94813957     0.94318619     1.188          14.687095      5.0370817      213           -57.184675     -50.370817     -86.431993     -34.751215      253.51552      72.485459      84.746312    
  11890000   298.16398      0.94825037     0.94825029     0.96532671     1.189         -74.181123     -5.195614       218            25.246155      51.95614      -17.954541      41.736866      253.63138      72.02451       85.239762    
  11900000   299.78387      0.94617944     0.94617936     0.91661757     1.19          -16.799457      7.5012596      207           -49.170078     -75.012596     -19.189306     -53.30833       253.74725      72.49666       84.831218    
  11910000   300.41046      0.94637141     0.94637133     0.92547377     1.191          66.268436      5.1656593      209           -38.030122     -51.656593     -24.652735     -37.781037      253.86312      72.321046      84.981155    
  11920000   299.66014      0.94847106     0.94847098     0.94318619     1.192         -47.665535      2.1740992      213           -30.953991     -21.740992     -80.240744      9.1197641      253.97898      72.134602      84.973411    
  11930000   298.26491      0.94826644     0.94826636     0.94318619     1.193         -56.227751     -2.4865666      213            1.3148038      24.865666     -4.0762049     -16.84505       254.09485      71.969561      85.147806    
  11940000   299.65045      0.94641414     0.94641406     0.9564705      1.194          25.174374      3.8384069      216           -29.235466     -38.384069     -13.777289     -35.545041      254.21071      71.676697      85.623997    
  11950000   298.89292      0.94579299     0.94579291     0.93875809     1.195          9.5881573      1.1669475      212           -29.739815     -11.669475     -23.657937     -53.892032      254.32658      71.636285      85.689508    
  11960000   300.46041      0.94772559     0.94772551     0.90333325     1.196         -29.48765      -0.67384159     204            36.524266      6.7384159      58.66535       44.169031      254.44245      71.7071        85.391417    
  11970000   300.09401      0.94839724     0.94839715     0.92990188     1.197          28.905867      10.979191      210           -64.935361     -109.79191     -46.251944     -38.762231      254.55831      71.939039      85.017114    
  11980000   297.90367      0.94976837     0.94976829     0.9564705      1.198          21.91145       2.5012378      216            12.027787     -25.012378      27.077964      34.017774      254.67418      71.712412      85.123918    
  11990000   300.69403      0.94803115     0.94803106     0.9520424      1.199          64.64615       3.6763538      215            10.046161     -36.763538      61.719788      5.1822346      254.79005      71.485451      85.511756    
  12000000   300.94717      0.9459353      0.94593522     0.9520424      1.2            31.175297      7.7303073      215           -68.70561      -77.303073     -50.128102     -78.685655      254.90591      72.025254      85.020257    
  12010000   300.54599      0.94863918     0.94863909     0.9520424      1.201         -3.1862008      6.130433       215           -0.63979874    -61.30433       35.960927      23.424007      255.02178      71.937632      84.842623    
  12020000   299.81791      0.94727649     0.94727641     0.91661757     1.202          43.632132      2.9125601      207           -11.896839     -29.125601     -7.1283696      0.56345354     255.13764      71.899158      84.971532    
  12030000   296.65854      0.94854168     0.94854159     0.94761429     1.203         -21.345216      1.2679172      214            18.06755      -12.679172      47.040322      19.841501      255.25351      71.758661      84.985745    
  12040000   300.3736       0.95072023     0.95072014     0.94761429     1.204         -21.469686      1.5159773      214            23.766993     -15.159773      57.649492      28.811261      255.36938      71.676823      84.849297    
  12050000   300.95802      0.94541464     0.94541456     0.97418292     1.205          60.51846      -1.6042892      220            14.487309      16.042892      17.549696      9.8693408      255.48524      71.833139      85.101176    
  12060000   299.55687      0.94654925     0.94654917     0.92547377     1.206          47.526708     -0.3896837      209           -11.8385        3.896837      -45.280742      5.8684055      255.60111      71.337238      85.55124     
  12070000   300.35659      0.946268       0.94626792     0.92990188     1.207          26.053652     -0.73906045     210            16.132992      7.3906045     -34.593914      75.602286      255.71698      71.35092       85.521491    
  12080000   300.84804      0.95020741     0.95020733     0.96089861     1.208          18.902164      2.7042239      217           -7.8882895     -27.042239      47.063635     -43.686265      255.83284      70.997719      85.551857    
  12090000   300.4063       0.94692265     0.94692256     0.92104567     1.209         -55.414285     -0.96450921     208           -18.205897      9.6450921     -72.546024      8.2832405      255.94871      71.210938      85.552834    
  12100000   300.31809      0.94618499     0.94618491     0.96089861     1.21          -33.505335      7.7007902      217           -47.610064     -77.007902      9.4012419     -75.223531      256.06458      71.322138      85.447359    
  12110000   300.3793       0.94782968     0.9478296      0.96089861     1.211          38.513102      1.0267951      217            16.912742     -10.267951      29.642843      31.363333      256.18044      71.444946      85.113954    
  12120000   300.37724      0.9463222      0.94632212     0.96532671     1.212         -15.095285      3.3219896      218            19.191357     -33.219896      28.567363      62.226602      256.29631      71.316912      85.363978    
  12130000   298.56145      0.94596438     0.9459643      0.94318619     1.213         -18.25537       9.9672515      213           -16.661508     -99.672515      47.526497      2.1614949      256.41217      71.545424      85.085051    
  12140000   298.98289      0.95055199     0.95055191     0.96532671     1.214          2.0361372      1.2725167      218           -16.70558      -12.725167      2.6322115     -40.023784      256.52804      71.343233      84.876028    
  12150000   301.51179      0.94746586     0.94746577     0.94318619     1.215         -19.458925      10.27381       213           -25.954744     -102.7381       23.055862      1.8180015      256.64391      71.399838      85.046569    
  12160000   298.99382      0.94878184     0.94878176     0.92104567     1.216          14.181052      1.5742967      208            13.919481     -15.742967      22.890091      34.61132       256.75977      71.615129      84.635083    
  12170000   301.4179       0.95002632     0.95002624     0.96532671     1.217         -39.82718      -6.5030503      218            69.297511      65.030503      84.415756      58.446274      256.87564      71.360214      84.787894    
  12180000   301.12395      0.94626661     0.94626653     0.96532671     1.218          37.017508      3.2153971      218           -11.159975     -32.153971     -32.449598      31.123646      256.99151      71.676593      84.710826    
  12190000   298.11586      0.94984638     0.94984629     0.9520424      1.219          31.261031      5.6503546      215           -2.7368243     -56.503546      29.402902      18.890171      257.10737      71.093212      85.045731    
  12200000   299.47474      0.94742035     0.94742027     0.93432998     1.22           77.599752      10.082311      211           -48.641676     -100.82311     -1.3452745     -43.756639      257.22324      71.074676      85.247323    
  12210000   300.02727      0.94587775     0.94587766     0.92547377     1.221          22.902843      1.5947283      209            5.1733137     -15.947283      7.9997391      23.467485      257.3391       71.635303      84.679963    
  12220000   300.10667      0.94717583     0.94717575     0.92104567     1.222          12.203055      1.7666174      208           -18.533582     -17.666174     -84.736926      46.802356      257.45497      71.719563      84.426547    
  12230000   301.10724      0.94819552     0.94819543     0.99632344     1.223         -12.164235      9.8863868      225           -19.559799     -98.863868      28.505613      11.678859      257.57084      71.157231      84.963995    
  12240000   300.13997      0.9480755      0.94807542     0.93875809     1.224          19.572015     -4.1555474      212            8.746714       41.555474      10.010412     -25.325744      257.6867       71.232423      84.846885    
  12250000   298.44196      0.94803494     0.94803486     0.93432998     1.225         -12.427723      1.5283016      211            8.2004529     -15.283016      32.794532      7.0898432      257.80257      71.010794      85.077084    
  12260000   299.7216       0.94681463     0.94681455     0.92990188     1.226          10.884685      0.65675261     210            78.696777     -6.5675261      100.41568      142.24218      257.91844      71.168454      84.959837    
  12270000   298.80265      0.94780485     0.94780476     0.92547377     1.227         -11.253901      4.3018311      209            1.8072216     -43.018311      41.379963      7.0600121      258.0343       71.082455      84.935601    
  12280000   299.88347      0.94668276     0.94668267     0.91661757     1.228         -41.944797      14.628973      207           -66.199577     -146.28973     -37.551457     -14.757547      258.15017      70.85797       85.267389    
  12290000   300.6097       0.9487854      0.94878531     0.89004894     1.229          67.764437      2.3325939      201            20.509005     -23.325939      25.487157      59.365798      258.26604      70.785568      85.127238    
  12300000   300.746        0.94901436     0.94901427     0.93875809     1.23          -2.8706025     -3.0400772      212           -5.094011       30.400772     -51.848186      6.1653803      258.3819       70.78282       85.071839    
  12310000   298.99375      0.94819792     0.94819784     0.96532671     1.231         -37.606932      0.20954189     218            28.614199     -2.0954189      50.194863      37.743152      258.49777      70.423382      85.541307    
  12320000   300.41381      0.94750221     0.94750212     0.9520424      1.232          36.893906      6.8160993      215           -2.3970567     -68.160993      18.220745      42.749078      258.61363      70.647245      85.294627    
  12330000   300.67222      0.94740746     0.94740738     0.98746723     1.233          34.062286     -1.5237397      223           -14.004253      15.237397     -19.468349     -37.781806      258.7295       70.831167      85.043555    
  12340000   299.72616      0.94734335     0.94734327     0.94761429     1.234          19.945173      7.0575066      214           -33.256399     -70.575066     -30.272444      1.0783122      258.84537      70.838938      85.001914    
  12350000   298.79541      0.94803306     0.94803298     0.96532671     1.235          33.37794       1.5866662      218           -6.0803867     -15.866662      41.819324     -44.193822      258.96123      70.809624      84.937217    
  12360000   300.47667      0.94765807     0.94765799     0.93432998     1.236          35.189862      6.8868255      211           -31.452154     -68.868255     -11.655361     -13.832846      259.0771       70.642854      85.13333     
  12370000   299.23359      0.94831386     0.94831377     0.97861102     1.237         -37.633841      4.3900058      221           -8.0225319     -43.900058      12.691971      7.1404916      259.19297      70.747395      84.910772    
  12380000   299.85764      0.94535413     0.94535405     0.96089861     1.238          7.1543152      3.6958383      217           -8.8258343     -36.958383     -11.608719      22.089599      259.30883      70.659635      85.244296    
  12390000   299.7326       0.95031502     0.95031493     0.9520424      1.239         -55.665413      6.4385308      215            19.539623     -64.385308      68.170423      54.833754      259.4247       70.60627       84.825489    
  12400000   301.81857      0.94582294     0.94582286     0.94318619     1.24           1.2347427      5.4120185      213           -19.50876      -54.120185      32.833094     -37.23919       259.54057      70.87375       84.868798    
  12410000   301.00436      0.94903669     0.94903661     0.97418292     1.241         -14.869249      0.45936309     220           -24.912389     -4.5936309     -73.394932      3.2513974      259.65643      71.264983      84.07953     
  12420000   300.00507      0.94890918     0.94890909     1.0096078      1.242         -24.057085      0.24857419     228            7.8977795     -2.4857419      39.509813     -13.330732      259.7723       71.20447       84.124754    
  12430000   301.03824      0.94769344     0.94769336     1.0228921      1.243         -77.637252      1.6555916      231            26.606898     -16.555916      22.525972      73.850638      259.88816      71.495451      83.852451    
  12440000   300.60862      0.94494762     0.94494754     0.97418292     1.244          23.19601       17.23606       220           -119.94994     -172.3606      -98.977395     -88.511813      260.00403      71.436696      84.12777     
  12450000   301.55651      0.94547327     0.94547319     0.93432998     1.245          2.5689225      8.4221514      211           -62.911615     -84.221514     -31.807182     -72.70615       260.1199       70.920003      84.65585     
  12460000   300.59243      0.94807769     0.94807761     0.92104567     1.246          44.23453      -0.1667002      208            26.433298      1.667002       5.1295984      72.503294      260.23576      70.951223      84.348577    
  12470000   299.32687      0.94671495     0.94671487     0.96532671     1.247          32.391543      0.831176       218            12.821947     -8.31176        18.14226       28.635341      260.35163      71.100938      84.254612    
  12480000   299.97708      0.94943282     0.94943273     0.94318619     1.248          42.668425      2.1888329      213           -24.403149     -21.888329     -12.858889     -38.462231      260.4675       71.000598      84.094728    
  12490000   300.39602      0.94746323     0.94746314     0.94761429     1.249          8.0640894      5.9186241      214           -15.013889     -59.186241      4.9961746      9.1484007      260.58336      71.280051      83.901843    
  12500000   300.62336      0.94779373     0.94779365     0.93432998     1.25          -23.577799     -0.91408953     211            34.814861      9.1408953      36.355788      58.9479        260.69923      70.871518      84.318571    
  12510000   298.59778      0.9464167      0.94641661     0.92547377     1.251          18.759245      2.6171397      209           -23.138158     -26.171397     -24.418956     -18.82412       260.81509      71.009104      84.240203    
  12520000   300.25836      0.94605668     0.9460566      0.96089861     1.252         -2.4509003     -0.43541887     217           -7.5726926      4.3541887     -9.3422247     -17.730042      260.93096      70.587692      84.737725    
  12530000   300.09689      0.9482797      0.94827961     0.94761429     1.253         -20.684367      2.9994455      214           -3.4788095     -29.994455      18.551086      1.006941       261.04683      70.384626      84.745349    
  12540000   300.04184      0.94767717     0.94767708     0.92990188     1.254          32.19138       5.3245137      210            0.36989717    -53.245137      41.920036      12.434793      261.16269      70.906294      84.138004    
  12550000   300.91931      0.94671564     0.94671556     0.96532671     1.255         -17.034773     -3.9654263      218            16.81532       39.654263      4.7130074      6.0786903      261.27856      70.478284      84.697366    
  12560000   299.3147       0.9474058      0.94740571     0.93432998     1.256          17.185242      8.6632299      211           -37.948178     -86.632299     -33.342544      6.1303091      261.39443      70.15743       84.985047    
  12570000   302.46054      0.94484798     0.94484789     0.97418292     1.257          8.1341985      3.9451713      220           -23.403917     -39.451713     -60.795128      30.035089      261.51029      70.780671      84.427349    
  12580000   300.30072      0.94750331     0.94750322     0.9564705      1.258          21.485205      2.3392764      216            10.694564     -23.392764      45.613234      9.8632221      261.62616      70.706796      84.241384    
  12590000   301.82552      0.94725639     0.94725631     0.94318619     1.259          38.590845      5.7289618      213           -53.103726     -57.289618     -85.281199     -16.74036       261.74203      70.408366      84.583038    
  12600000   300.02657      0.94848856     0.94848848     0.94761429     1.26          -12.749375      3.7383351      214           -38.236386     -37.383351      10.355445     -87.681254      261.85789      70.158867      84.73605     
  12610000   298.82588      0.95098542     0.95098533     0.96089861     1.261         -80.42688      -8.5679845      217            42.898957      85.679845      33.998863      9.0181635      261.97376      69.862628      84.834399    
  12620000   301.23362      0.94708276     0.94708268     0.96089861     1.262          15.595231      5.3455873      217           -30.069959     -53.455873      6.0591216     -42.813127      262.08962      69.773872      85.254628    
  12630000   300.1778       0.94845978     0.9484597      0.96089861     1.263          5.186797       2.9734885      217           -25.233687     -29.734885      30.357312     -76.323487      262.20549      70.070021      84.733589    
  12640000   299.88497      0.94957266     0.94957258     0.98303913     1.264          9.1947068     -4.2633793      222            49.98388       42.633793      66.911159      40.406686      262.32136      70.106919      84.552377    
  12650000   299.70224      0.95026856     0.95026848     0.96532671     1.265          0.52114416    -0.41399963     218            26.435314      4.1399963      53.301556      21.864391      262.43722      70.271671      84.255154    
  12660000   301.49777      0.94800299     0.9480029      0.99189534     1.266         -34.279487     -3.2942473      224            25.468987      32.942473      16.355558      27.108932      262.55309      70.414551      84.247942    
  12670000   299.52328      0.9461413      0.94614122     0.92547377     1.267          19.386783      5.2021147      209           -8.2662802     -52.021147      35.484437     -8.2621303      262.66896      70.911543      83.785115    
  12680000   299.67129      0.94781905     0.94781897     0.96089861     1.268          14.929228     -2.8335558      217           -17.575643      28.335558     -23.624018     -57.438469      262.78482      70.694893      83.856127    
  12690000   300.25138      0.94954355     0.94954347     0.99632344     1.269         -54.991133      0.0047396349   225            15.086964     -0.047396349    14.326777      30.981511      262.90069      70.389565      84.029864    
  12700000   299.814        0.94540623     0.94540614     0.9520424      1.27          -17.680209     -1.2674152      215           -29.393146      12.674152     -13.622065     -87.231526      263.01655      70.456527      84.280243    
  12710000   299.07505      0.94463197     0.94463188     0.97861102     1.271          9.4903878      8.4964042      221           -27.299119     -84.964042     -5.8300184      8.8967041      263.13242      70.421436      84.354194    
  12720000   301.44178      0.94745763     0.94745755     0.94761429     1.272          5.9634091      8.9618932      214           -40.8284       -89.618932     -47.822975      14.956705      263.24829      70.030975      84.534313    
  12730000   300.73163      0.94863527     0.94863519     0.93432998     1.273          26.99954      -1.2674452      211            17.359213      12.674452     -4.8028251      44.206012      263.36415      70.234446      84.14774     
  12740000   300.64848      0.94985985     0.94985977     0.97861102     1.274         -31.479635     -1.4158768      221            29.048024      14.158768      13.294058      59.691246      263.48002      70.201673      84.041514    
  12750000   299.52667      0.94752328     0.9475232      0.94761429     1.275          24.969993     -3.2895363      214            26.735266      32.895363      38.950858      8.359577       263.59589      70.07519       84.363725    
  12760000   299.57109      0.94466543     0.94466534     0.96975482     1.276          3.2131423      6.3985722      219           -7.9020113     -63.985722      26.101394      14.178294      263.71175      70.014202      84.655446    
  12770000   301.11401      0.9476408      0.94764072     0.92990188     1.277         -4.5875673      8.673137       210           -19.366004     -86.73137       25.194833      3.438525       263.82762      69.958298      84.419992    
  12780000   299.40339      0.94633303     0.94633294     0.94318619     1.278          20.433015      5.3962238      213           -36.821697     -53.962238      5.9165196     -62.419371      263.94349      70.629364      83.696695    
  12790000   299.81175      0.94656515     0.94656506     0.90333325     1.279          11.91062       8.0540684      204           -63.680499     -80.540684     -67.10801      -43.392804      264.05935      70.450905      83.851322    
  12800000   300.10089      0.94728051     0.94728043     0.92990188     1.28          -1.734725      -0.39671524     210            7.0621421      3.9671524      4.7488737      12.4704        264.17522      69.811953      84.517782    
  12810000   299.81294      0.94984406     0.94984397     0.92547377     1.281         -2.0391215     -2.7572188      209            14.208843      27.572188     -30.419016      45.473358      264.29108      69.780216      84.291041    
  12820000   298.72208      0.9475727      0.94757262     0.93432998     1.282          35.65892       3.9627834      211           -18.494705     -39.627834     -11.151359     -4.7049211      264.40695      69.668931      84.590969    
  12830000   298.66378      0.94811326     0.94811318     0.91218946     1.283         -9.2994476      6.1273848      206           -30.053743     -61.273848     -6.7205678     -22.166813      264.52282      69.797988      84.349457    
  12840000   300.40284      0.95008833     0.95008824     0.92990188     1.284          33.915031      0.35638526     210            4.4330441     -3.5638526      18.031007     -1.1680221      264.63868      70.140883      83.725936    
  12850000   300.13001      0.94753211     0.94753203     0.93875809     1.285          29.833959      3.1373416      212           -18.796465     -31.373416     -54.555805      29.539827      264.75455      69.834925      84.282715    
  12860000   301.63807      0.94864295     0.94864286     0.93875809     1.286         -68.597519      3.772173       212           -55.734786     -37.72173      -91.21788      -38.264749      264.87042      69.856851      84.120784    
  12870000   300.57161      0.94899133     0.94899124     0.93875809     1.287         -18.177829      4.6339971      212            14.201076     -46.339971      47.75305       41.19015       264.98628      70.020765      83.856372    
  12880000   299.3045       0.94882227     0.94882219     0.93432998     1.288          52.312263      7.4915978      211           -49.611208     -74.915978     -22.240575     -51.677071      265.10215      69.944085      83.926564    
  12890000   299.80406      0.94629737     0.94629729     0.94318619     1.289         -5.8646386     -5.8759695      213            10.570994      58.759695     -31.530416      4.4837025      265.21801      69.937865      84.121213    
  12900000   300.5133       0.94666454     0.94666446     0.92547377     1.29          -26.35806       3.745692       209           -15.923917     -37.45692      -12.935079      2.6202494      265.33388      70.327934      83.585678    
  12910000   301.40388      0.94580215     0.94580207     0.96975482     1.291         -20.27289       8.4178426      219           -38.033008     -84.178426     -6.1881704     -23.732429      265.44975      70.377771      83.566157    
  12920000   301.23855      0.94926519     0.94926511     0.97861102     1.292          7.7291364     -0.61401051     221            57.215605      6.1401051      67.868547      97.638162      265.56561      70.660607      82.891842    
  12930000   300.23456      0.94626577     0.94626569     0.93875809     1.293          20.127863      2.6125424      212           -10.012689     -26.125424     -41.676566      37.763923      265.68148      70.623767      83.161681    
  12940000   300.50968      0.94732826     0.94732817     0.94318619     1.294         -8.9915303      5.06782        213           -32.529414     -50.6782        13.292608     -60.202648      265.79735      70.388674      83.309521    
  12950000   299.72991      0.9490064      0.94900632     0.92547377     1.295          6.7717171      0.46841486     209            22.971        -4.6841486      11.7989        61.798249      265.91321      70.146062      83.413472    
  12960000   300.98425      0.94781189     0.9478118      0.93875809     1.296         -0.67335923     10.063172      212           -71.796401     -100.63172     -59.956783     -54.800698      266.02908      70.709409      82.817113    
  12970000   300.05545      0.94994616     0.94994608     0.94318619     1.297         -28.980687      6.2516848      213           -5.3834838     -62.516848     -20.383888      66.750285      266.14495      70.636294      82.680564    
  12980000   301.52944      0.94684631     0.94684622     0.9564705      1.298          32.199812      8.8888165      216           -20.236485     -88.888165      9.0009743      19.177736      266.26081      70.889882      82.618548    
  12990000   299.76429      0.94754601     0.94754593     0.93875809     1.299          0.20362496    -3.4405341      212            46.058867      34.405341      69.817695      33.953565      266.37668      70.534631      82.937252    
  13000000   300.40839      0.94625741     0.94625733     0.9520424      1.3            21.581135      7.1660272      215           -56.287734     -71.660272     -82.216396     -14.986534      266.49254      70.49677       83.05867     
  13010000   300.69987      0.94741401     0.94741393     0.94318619     1.301          25.983835      2.1354216      213           -25.441188     -21.354216     -62.849579      7.8802307      266.60841      70.221272      83.246544    
  13020000   301.64195      0.94568929     0.94568921     0.92104567     1.302          5.6581203      6.0055599      208           -33.931848     -60.055599     -8.3846278     -33.355319      266.72428      70.330835      83.232274    
  13030000   300.53978      0.95067621     0.95067613     0.97418292     1.303          19.848744     -3.4130893      220            56.541647      34.130893      68.706229      66.787819      266.84014      70.127575      82.999588    
  13040000   300.4136       0.94610826     0.94610818     0.96975482     1.304          31.091355      6.4259552      219           -47.621131     -64.259552     -17.172353     -61.431489      266.95601      70.459605      82.971284    
  13050000   300.17504      0.94824599     0.94824591     1.0140359      1.305          4.5722864     -8.5914067      229            27.263717      85.914067     -25.498769      21.375853      267.07188      70.650977      82.524178    
  13060000   303.24485      0.94780748     0.94780739     0.9520424      1.306          21.301951      9.4986825      215           -68.484531     -94.986825     -70.282583     -40.184185      267.18774      70.173703      83.087845    
  13070000   300.61264      0.9467173      0.94671722     0.94318619     1.307          44.909537      9.0107994      213           -14.27151      -90.107994      31.421171      15.872292      267.30361      70.299525      82.99865     
  13080000   300.14328      0.94740518     0.9474051      0.94318619     1.308         -9.1869659      0.97655186     213            0.15513595    -9.7655186      10.46359      -0.23266306     267.41948      70.451317      82.723833    
  13090000   301.33149      0.94817821     0.94817813     0.91218946     1.309          19.080692     -1.7069828      206            24.933537      17.069828      50.380884      7.3498999      267.53534      70.30718       82.789973    
  13100000   299.3789       0.94599175     0.94599166     0.94761429     1.31           31.849302     -0.83231239     214           -6.890332       8.3231239     -38.499371      9.5052511      267.65121      70.154418      83.126017    
  13110000   299.78181      0.94667178     0.94667169     0.93432998     1.311         -5.3602587     -0.86035013     211            2.6563946      8.6035013     -17.435353      16.801035      267.76707      70.064621      83.136775    
  13120000   300.19342      0.94582641     0.94582633     0.96089861     1.312          10.532542      6.2660701      217           -38.296832     -62.660701     -0.90173922    -51.328054      267.88294      70.552571      82.599841    
  13130000   302.06634      0.94817524     0.94817515     0.99632344     1.313         -79.179121     -4.6694663      225            31.246044      46.694663      21.000244      26.043224      267.99881      70.089679      82.903528    
  13140000   300.65437      0.948414       0.94841392     0.97861102     1.314         -38.302269      6.8274245      221           -4.8882402     -68.274245      62.958555     -9.3490304      268.11467      69.990472      82.964269    
  13150000   299.40914      0.94824282     0.94824273     0.92990188     1.315         -22.887932      3.3997281      210           -35.973101     -33.997281     -94.31319       20.39117       268.23054      70.218558      82.673983    
  13160000   299.93503      0.94621656     0.94621648     0.92990188     1.316          13.580846      0.23524215     210            26.63838      -2.3524215      30.531798      51.735764      268.34641      70.273652      82.750324    
  13170000   298.07258      0.94654738     0.9465473      0.97861102     1.317         -10.257991      3.5473379      221           -18.278052     -35.473379     -4.6753995     -14.685376      268.46227      70.184594      82.790621    
  13180000   299.7222       0.94646221     0.94646213     0.91218946     1.318          8.1294145     -1.0001027      206           -55.991672      10.001027     -112.47356     -65.502483      268.57814      70.096934      82.865851    
  13190000   298.60574      0.94780401     0.94780393     0.94318619     1.319         -7.7366452      6.5957014      213           -40.586212     -65.957014     -31.968034     -23.833589      268.694        69.786528      83.080756    
  13200000   298.71724      0.94905718     0.9490571      0.94318619     1.32           61.292179     -5.0326548      213            37.100684      50.326548     -8.3319106      69.307416      268.80987      69.927941      82.767572    
  13210000   299.96497      0.94569044     0.94569036     0.96089861     1.321          14.598647      7.5546438      217           -44.655499     -75.546438     -24.273843     -34.146216      268.92574      69.856531      83.111317    
  13220000   300.80733      0.94785397     0.94785389     0.92547377     1.322          19.865519      4.3122606      209           -41.805992     -43.122606     -69.177239     -13.118132      269.0416       69.997357      82.719144    
  13230000   301.10793      0.9459043      0.94590422     0.9520424      1.323         -41.819451      6.0167593      215           -47.020941     -60.167593     -51.562289     -29.332941      269.15747      69.989608      82.863133    
  13240000   300.19353      0.9467324      0.94673232     1.0140359      1.324         -45.13998      -0.85283114     229           -8.4558368      8.5283114     -37.658192      3.7623701      269.27334      70.101473      82.622973    
  13250000   298.73743      0.94901462     0.94901453     0.96975482     1.325         -46.523847      6.8434569      219           -23.896265     -68.434569      9.2674119     -12.521638      269.3892       70.135327      82.349058    
  13260000   302.35764      0.95102786     0.95102778     1.0007515      1.326         -24.75923      -1.5333052      226            22.989749      15.333052     -58.79954       112.43574      269.50507      69.968874      82.33481     
  13270000   301.89254      0.94700942     0.94700933     0.97418292     1.327         -14.848459      1.8606713      220            14.743295     -18.606713      85.988422     -23.151823      269.62094      70.21624       82.357485    
  13280000   300.59418      0.94565189     0.94565181     0.92104567     1.328         -22.870727      6.2693964      208           -76.321151     -62.693964     -63.83914      -102.43035      269.7368       70.225898      82.428947    
  13290000   301.04293      0.9475405      0.94754041     0.93432998     1.329         -37.725536      0.22923069     211           -25.863885     -2.2923069     -50.90855      -24.390797      269.85267      70.061219      82.422611    
  13300000   298.37785      0.94793126     0.94793117     0.93432998     1.33           30.369429      6.6100641      211           -32.538957     -66.100641     -18.905326     -12.610904      269.96853      70.354208      82.010315    
  13310000   300.86196      0.947016       0.94701592     0.94761429     1.331          15.091249      1.2771882      214           -32.11524      -12.771882     -22.320098     -61.253739      270.0844       70.289399      82.130016    
  13320000   297.56245      0.94547994     0.94547985     0.94761429     1.332         -51.463683      4.3303145      214           -25.803844     -43.303145     -14.534026     -19.574361      270.20027      70.219374      82.310172    
  13330000   300.50204      0.9466435      0.94664342     0.97861102     1.333          25.376839      0.52068277     221            24.076175     -5.2068277      73.683599      3.751754       270.31613      70.128918      82.279755    
  13340000   298.38454      0.94674642     0.94674633     0.98303913     1.334         -14.495436      1.3298797      222            0.38254277    -13.298797     -50.017906      64.464331      270.432        70.058819      82.317845    
  13350000   300.8891       0.94858306     0.94858297     0.9520424      1.335         -44.217063     -3.6380119      215            10.219251      36.380119     -17.538719      11.816353      270.54787      70.067955      82.112568    
  13360000   299.59354      0.94600141     0.94600133     0.9564705      1.336          3.2740573      9.0241076      216           -49.372889     -90.241076      3.1914845     -61.069074      270.66373      70.146688      82.209031    
  13370000   302.04687      0.94825298     0.94825289     0.93432998     1.337         -12.320472      7.8499177      211           -30.519165     -78.499177      28.97075      -42.029067      270.7796       70.050218      82.091635    
  13380000   302.07818      0.94697033     0.94697024     0.9564705      1.338         -27.273011      5.5420054      216           -34.139901     -55.420054     -23.035338     -23.964312      270.89546      70.095957      82.11405     
  13390000   301.67569      0.94626591     0.94626583     0.94761429     1.339          37.908329      6.6389471      214           -36.310214     -66.389471      22.606923     -65.148094      271.01133      70.142609      82.085413    
  13400000   301.12626      0.9497412      0.94974111     0.96532671     1.34          -6.9428948     -3.7201323      218            13.37756       37.201323      11.155371     -8.224014       271.1272       69.797205      82.154652    
  13410000   299.47504      0.94566891     0.94566883     0.93432998     1.341          12.100347     -6.0115164      211            16.147749      60.115164      4.4171721     -16.089088      271.24306      70.005153      82.228201    
  13420000   301.11056      0.94708661     0.94708653     0.92104567     1.342          8.6604999      6.7234135      208           -57.009568     -67.234135      1.9655362     -105.76011      271.35893      69.663593      82.472444    
  13430000   301.07806      0.94697767     0.94697759     0.96532671     1.343         -38.809167      4.5037032      218           -54.816452     -45.037032     -45.07918      -74.333143      271.4748       69.5082        82.631047    
  13440000   301.65771      0.94583469     0.94583461     0.96089861     1.344         -15.226588      2.2167411      217           -41.202029     -22.167411     -66.829601     -34.609076      271.59066      69.521709      82.679537    
  13450000   299.45477      0.94983363     0.94983355     0.94761429     1.345         -27.394099     -4.31899        214            37.716974      43.1899        39.219644      30.74138       271.70653      69.097444      82.801642    
  13460000   299.93609      0.9486545      0.94865441     0.98746723     1.346         -10.715383      0.57787821     223           -11.127066     -5.7787821     -49.555312      21.952896      271.8224       69.10655       82.858302    
  13470000   300.22855      0.94696146     0.94696138     0.94761429     1.347         -10.463632      2.4405762      214           -13.481929     -24.405762     -32.019156      15.97913       271.93826      68.841715      83.290265    
  13480000   301.30801      0.9501021      0.95010202     0.94761429     1.348         -65.337293     -6.2860365      214            30.517496      62.860365      16.893183      11.798942      272.05413      68.888032      82.923796    
  13490000   301.80002      0.94863325     0.94863316     0.9564705      1.349         -33.28819      -3.6116546      216            31.098147      36.116546      29.787844      27.390051      272.16999      69.415956      82.385477    
  13500000   301.22678      0.94767267     0.94767259     0.98746723     1.35           53.020405      1.4604055      223            3.1561627     -14.604055      29.501179     -5.4286357      272.28586      69.26575       82.612652    
  13510000   298.589        0.94668624     0.94668616     0.96532671     1.351         -16.554624      10.878176      218           -52.601067     -108.78176     -33.565005     -15.456438      272.40173      69.16195       82.78762     
  13520000   300.4278       0.94729071     0.94729063     0.96532671     1.352         -22.544849     -0.34175067     218            12.074955      3.4175067      26.911401      5.8959561      272.51759      69.329201      82.500111    
  13530000   299.40361      0.94690543     0.94690535     0.97418292     1.353          16.956698      0.54703838     220           -0.68635442    -5.4703838      16.98171      -13.57039       272.63346      69.820064      81.918604    
  13540000   298.73101      0.94578669     0.94578661     0.97418292     1.354          8.2387192      4.2463448      220           -47.45248      -42.463448     -60.895443     -38.998547      272.74933      69.671573      82.155389    
  13550000   299.88014      0.95078702     0.95078694     0.92104567     1.355          17.821441      4.3339298      208           -23.315274     -43.339298     -18.871971     -7.7345528      272.86519      69.682204      81.676156    
  13560000   298.61345      0.94874748     0.94874739     0.93432998     1.356         -48.377094      1.6661867      211           -6.6000333     -16.661867      5.7770304     -8.915263       272.98106      69.555512      81.966021    
  13570000   299.52201      0.9442729      0.94427281     0.90333325     1.357          57.266611      4.9921674      204           -36.136261     -49.921674      4.839128      -63.326236      273.09692      69.908338      81.904024    
  13580000   299.60973      0.94814255     0.94814246     0.93432998     1.358          8.7941082      10.215709      211           -23.456895     -102.15709      18.376934      13.409472      273.21279      69.824474      81.633086    
  13590000   298.98574      0.94675255     0.94675246     0.92104567     1.359          29.204157      6.8071107      208           -21.826835     -68.071107     -1.4143234      4.0049256      273.32866      69.755095      81.79956     
  13600000   298.99704      0.94795398     0.9479539      0.92990188     1.36           32.165629      4.0726846      210           -25.945699     -40.726846     -22.860913     -14.249339      273.44452      69.927016      81.460499    
  13610000   299.34595      0.94694384     0.94694376     0.96089861     1.361         -21.032124      5.4213058      217           -57.035512     -54.213058     -85.3713       -31.522178      273.56039      70.043545      81.377247    
  13620000   298.42238      0.94900253     0.94900245     0.94318619     1.362          5.3449767     -4.7998153      213            61.347481      47.998153      86.298051      49.746238      273.67626      69.642941      81.633226    
  13630000   300.25511      0.94796544     0.94796536     0.91661757     1.363          20.766819      1.9286499      207           -8.9331159     -19.286499     -3.6930753     -3.8197737      273.79212      69.709041      81.610491    
  13640000   299.81038      0.94734644     0.94734636     0.90776136     1.364          41.40822       0.99210921     205           -30.910538     -9.9210921     -54.620227     -28.190294      273.90799      69.793495      81.530495    
  13650000   298.43295      0.94747182     0.94747173     0.96089861     1.365         -8.6193815      1.1792762      217           -9.7114779     -11.792762      1.0142434     -18.355915      274.02386      70.04734       81.189942    
  13660000   299.8158       0.948957       0.94895692     0.97418292     1.366          37.115952      2.7385421      220           -2.7479037     -27.385421      18.08274       1.0589697      274.13972      70.178489      80.877187    
  13670000   298.6206       0.94579864     0.94579856     0.94318619     1.367         -12.611204      4.8532022      213           -43.657253     -48.532022     -60.005168     -22.434568      274.25559      69.957594      81.369101    
  13680000   299.48072      0.94666011     0.94666003     0.9520424      1.368         -30.951947      11.786843      215           -64.226722     -117.86843     -69.19935      -5.6123804      274.37145      70.379312      80.773803    
  13690000   299.63269      0.94867719     0.94867711     0.91661757     1.369          40.964139      3.7869994      207           -6.9544154     -37.869994      7.6955608      9.3111872      274.48732      70.245328      80.721712    
  13700000   301.17575      0.94702104     0.94702096     0.90333325     1.37           8.9013645     -0.73981965     204            1.5412437      7.3981965     -20.912321      18.137856      274.60319      70.338836      80.721305    
  13710000   302.67152      0.94524397     0.94524389     0.91661757     1.371         -6.6111908     -1.5334812      207           -19.307836      15.334812     -46.12521      -27.133111      274.71905      70.202127      80.996375    
  13720000   300.54478      0.9467106      0.94671052     0.96089861     1.372         -10.683536      11.304222      217           -99.02229      -113.04222     -56.194556     -127.83009      274.83492      70.235247      80.798683    
  13730000   298.91499      0.95019966     0.95019958     0.94761429     1.373         -14.735608     -3.6648134      214            11.171883      36.648134      20.547325     -23.679811      274.95079      70.387064      80.294512    
  13740000   300.58097      0.94774327     0.94774319     0.9520424      1.374          17.576593      6.2361926      215            5.2448095     -62.361926      38.592765      39.50359       275.06665      70.406222      80.446816    
  13750000   299.41659      0.94556107     0.94556099     0.99632344     1.375         -42.813958     -0.30563111     225           -18.135125      3.0563111     -36.218534     -21.243153      275.18252      70.495693      80.49623     
  13760000   300.27357      0.94473825     0.94473817     0.91218946     1.376         -8.0438797     -0.16107859     206           -29.362138      1.6107859     -41.143985     -48.553215      275.29839      70.312287      80.742495    
  13770000   302.27517      0.94608487     0.94608479     0.9564705      1.377         -24.760955      2.2531168      216           -4.2381981     -22.531168      39.026065     -29.209492      275.41425      70.021171      80.928721    
  13780000   299.66291      0.94663706     0.94663698     0.96975482     1.378         -31.806323     -0.46691842     219            6.2169769      4.6691842      10.130616      3.8511305      275.53012      70.413262      80.397308    
  13790000   298.00364      0.94963645     0.94963636     0.94318619     1.379         -0.64333144    -8.519729       213            72.93472       85.19729       74.055181      59.551688      275.64598      69.976273      80.609959    
  13800000   297.38769      0.94849398     0.9484939      0.96089861     1.38           22.465631      3.76174        217           -11.366763     -37.6174       -16.551057      20.068168      275.76185      69.698364      80.994813    
  13810000   301.96594      0.94621099     0.94621091     0.91661757     1.381          57.347412      2.5602529      207            3.1478519     -25.602529      21.30179       13.744295      275.87772      69.735281      81.113172    
  13820000   299.60383      0.94738091     0.94738083     0.96089861     1.382         -33.084921     -0.46933534     217            1.5048034      4.6933534      24.01487      -24.193813      275.99358      69.530831      81.217108    
  13830000   298.38197      0.94358605     0.94358597     0.96089861     1.383          42.287752      12.091024      217           -74.068214     -120.91024     -39.369117     -61.925289      276.10945      69.929764      81.04453     
  13840000   302.34087      0.94751533     0.94751525     0.96532671     1.384         -21.632454      1.8643125      218            12.717322     -18.643125      37.460725      19.334366      276.22532      69.460279      81.219873    
  13850000   302.34991      0.94857599     0.94857591     0.93875809     1.385          3.3720346      2.2250463      212            12.662135     -22.250463      68.466507     -8.2296397      276.34118      69.228673      81.366344    
  13860000   300.50567      0.94578377     0.94578369     0.96975482     1.386         -40.446229      5.8299149      219           -34.970152     -58.299149     -16.619173     -29.992133      276.45705      69.240966      81.557876    
  13870000   299.0351       0.94632563     0.94632554     0.93432998     1.387          3.908008       5.7639733      211           -39.064087     -57.639733     -41.725349     -17.827179      276.57291      68.952636      81.817731    
  13880000   300.62226      0.94599729     0.94599721     0.90333325     1.388         -18.048449      2.7637496      204           -49.30164      -27.637496     -40.459239     -79.808186      276.68878      69.385075      81.301965    
  13890000   299.7976       0.94513365     0.94513357     0.94761429     1.389          3.9680791      3.0980851      214           -18.442328     -30.980851     -16.105771     -8.2403612      276.80465      69.339105      81.396123    
  13900000   300.636        0.94601958     0.9460195      0.94318619     1.39          -5.0278371      2.175822       213            1.2435386     -21.75822       17.450954      8.0378821      276.92051      69.23735       81.405334    
  13910000   299.09155      0.94811732     0.94811723     0.9520424      1.391          7.422318       0.76697526     215           -24.987243     -7.6697526     -27.00897      -40.283007      277.03638      69.296656      81.121764    
  13920000   302.02335      0.94576508     0.945765       0.94761429     1.392         -57.635         10.646742      214           -45.940347     -106.46742     -40.62715       9.2735259      277.15225      69.580322      80.958125    
  13930000   299.36073      0.94816024     0.94816016     0.93875809     1.393          1.499927      -3.7090002      212            42.510791      37.090002      69.967178      20.475192      277.26811      69.547672      80.757765    
  13940000   301.93331      0.94555061     0.94555052     0.97418292     1.394         -52.937133      10.572774      220           -86.866703     -105.72774     -49.38713      -105.48524      277.38398      69.630287      80.850781    
  13950000   301.51807      0.94833133     0.94833125     0.92990188     1.395          14.132354      2.795132       210           -30.103634     -27.95132      -41.279902     -21.07968       277.49985      69.548498      80.67481     
  13960000   300.64461      0.94647716     0.94647708     0.92547377     1.396          42.4082        8.3736831      209            0.10976746    -83.736831      38.985019      45.081115      277.61571      69.436448      80.929503    
  13970000   300.31215      0.94887118     0.9488711      0.94761429     1.397         -13.454332      2.5414416      214           -20.466261     -25.414416      25.715745     -61.700113      277.73158      69.432716      80.695976    
  13980000   298.92583      0.94706135     0.94706127     0.9520424      1.398         -16.644713      6.1794222      215           -11.117222     -61.794222      8.9795675      19.462988      277.84744      69.59799       80.624556    
  13990000   298.22364      0.94751224     0.94751216     0.94761429     1.399         -55.646654      6.4643051      214           -24.929011     -64.643051      1.8372659     -11.981247      277.96331      69.507815      80.657101    
  14000000   300.84018      0.94778868     0.9477886      0.97418292     1.4            12.06704       4.7098542      220           -64.008687     -47.098542     -87.738585     -57.188934      278.07918      69.310569      80.829352    
  14010000   298.56947      0.94651295     0.94651287     0.97861102     1.401         -36.536742      1.4939142      221            0.31899075    -14.939142     -3.5472409      19.443355      278.19504      69.087704      81.16557     
  14020000   299.76224      0.94604223     0.94604214     1.0007515      1.402          27.322202      5.0772944      226           -43.55564      -50.772944     -8.8894376     -71.00454       278.31091      69.405195      80.800829    
  14030000   301.73491      0.94839629     0.9483962      0.94318619     1.403          54.245887     -0.21946025     213            17.986457      2.1946025      6.3928449      45.371922      278.42678      69.592807      80.349533    
  14040000   299.19819      0.94688115     0.94688107     0.9520424      1.404         -18.829511      4.9362382      215           -27.368585     -49.362382      9.9477475     -42.691121      278.54264      69.553092      80.49056     
  14050000   299.75514      0.94764854     0.94764846     0.9520424      1.405         -37.55686      -2.2266412      215            35.790697      22.266412      74.831869      10.273811      278.65851      69.383046      80.588965    
  14060000   300.94108      0.94644577     0.94644568     0.92547377     1.406         -31.141775      1.5803173      209            4.0189233     -15.803173      13.463868      14.396075      278.77437      69.2482        80.814907    
  14070000   299.93314      0.94588067     0.94588059     0.94318619     1.407         -12.292909      2.9515843      213            1.9058822     -29.515843     -5.4649489      40.698439      278.89024      69.013061      81.104993    
  14080000   301.73772      0.94560108     0.94560099     0.92547377     1.408          77.547968      10.354716      209           -39.941967     -103.54716     -11.405001     -4.8737396      279.00611      68.974916      81.140131    
  14090000   299.16864      0.94479811     0.94479803     0.90776136     1.409         -4.779004      -0.52685193     205            31.829303      5.2685193      29.901417      60.317973      279.12197      69.261153      80.839905    
  14100000   299.06509      0.94722626     0.94722618     0.92104567     1.41           43.429982      11.615508      208           -67.121168     -116.15508     -54.71851      -30.489915      279.23784      69.31436       80.53735     
  14110000   298.17065      0.94696208     0.946962       0.93432998     1.411          0.047692412   -4.7844958      211            31.11048       47.844958      6.0073914      39.47909       279.35371      69.314453      80.526296    
  14120000   299.10243      0.94809138     0.9480913      0.98746723     1.412          22.365759     -4.8482501      223            23.145087      48.482501      34.167189     -13.214431      279.46957      69.173062      80.561365    
  14130000   299.22012      0.94781571     0.94781563     0.92104567     1.413          47.542467     -1.2243961      208            24.261938      12.243961      53.020113      7.5217386      279.58544      69.266603      80.442621    
  14140000   301.53286      0.94816055     0.94816047     0.9520424      1.414         -3.1138068      2.3185034      215           -31.054326     -23.185034     -42.448552     -27.529391      279.70131      68.913163      80.792304    
  14150000   298.49309      0.9468096      0.94680951     0.96532671     1.415         -41.934288      4.2977516      218            2.8665733     -42.977516      41.323818      10.253418      279.81717      69.117093      80.635461    
  14160000   299.31237      0.94540999     0.9454099      0.93432998     1.416          46.894548      10.050106      211           -34.63316      -100.50106      15.743065     -19.141483      279.93304      69.21944       80.602057    
  14170000   299.79953      0.94835394     0.94835385     0.96089861     1.417          14.644334      1.489854       217            1.2164703     -14.89854      -4.0229766      22.570928      280.0489       69.08186       80.47856     
  14180000   299.82506      0.94842452     0.94842444     0.93432998     1.418          16.022753      0.44922793     211            16.185142     -4.4922793      26.4943        26.553407      280.16477      68.885683      80.66837     
  14190000   301.4492       0.94903574     0.94903565     0.92547377     1.419         -22.399529     -3.2178262      209            39.262234      32.178262      48.702705      36.905737      280.28064      69.056227      80.384079    
  14200000   299.67909      0.94802461     0.94802452     0.90776136     1.42          -23.890965      3.8559076      205           -19.969182     -38.559076      6.5639712     -27.912442      280.3965       68.844003      80.684522    
  14210000   299.27223      0.94759488     0.9475948      0.92547377     1.421          9.2196847     -0.64077562     209           -15.474109      6.4077562     -17.156399     -35.673684      280.51237      68.952381      80.560947    
  14220000   299.364        0.94999957     0.94999949     0.96975482     1.422         -69.261445     -3.2579073      219            80.352374      32.579073      136.75399      71.724058      280.62824      68.930685      80.34913     
  14230000   299.64289      0.94588647     0.94588638     0.96089861     1.423          76.784627      6.0303252      217           -18.870311     -60.303252      5.7728787     -2.0805595      280.7441       69.196098      80.355812    
  14240000   301.88508      0.94793326     0.94793317     0.97861102     1.424         -31.341174     -2.4278001      221            15.955932      24.278001      46.890647     -23.300851      280.85997      68.926588      80.462619    
  14250000   301.1839       0.94756725     0.94756716     0.94318619     1.425         -45.226781      4.1136716      213           -28.06201      -41.136716     -41.461563     -1.5877516      280.97583      68.920336      80.467805    
  14260000   299.29785      0.94751677     0.94751669     0.92547377     1.426          1.1748506      5.5615711      209           -6.8469812     -55.615711      28.948709      6.1260586      281.0917       68.648888      80.756988    
  14270000   298.95892      0.94546791     0.94546782     0.94318619     1.427          27.038387      7.8623663      213           -79.962446     -78.623663     -57.291641     -103.97203      281.20757      68.520455      81.05028     
  14280000   300.65048      0.94659449     0.9465944      0.91218946     1.428         -38.599244      9.3534884      206           -29.233407     -93.534884      14.250562     -8.4159002      281.32343      68.351436      81.120577    
  14290000   300.08114      0.94912299     0.9491229      0.9564705      1.429         -10.823352      2.1941468      216           -7.8405922     -21.941468     -0.92429717    -0.65601107     281.4393       68.180838      81.073511    
  14300000   300.01398      0.94540825     0.94540817     0.96089861     1.43           9.9291099      0.64778108     217           -39.224917     -6.4778108     -65.639328     -45.557613      281.55517      68.535034      80.938104    
  14310000   298.65541      0.94628061     0.94628052     0.93432998     1.431          64.621704      2.6781972      211            10.733563     -26.781972     -8.593647       67.576309      281.67103      68.56153       80.798988    
  14320000   301.01073      0.9482857      0.94828561     0.92990188     1.432         -0.092238397    5.5761788      210            45.835491     -55.761788      89.867211      103.40105      281.7869       68.556564      80.600829    
  14330000   298.74053      0.94881095     0.94881087     0.98303913     1.433         -28.845734      1.0272144      222            7.3937303     -10.272144      29.569523      2.8838116      281.90277      68.259614      80.8734      
  14340000   300.10806      0.94782331     0.94782323     0.94318619     1.434          40.560612      0.64382378     213            31.244579     -6.4382378      85.000095      15.17188       282.01863      68.246288      80.940211    
  14350000   298.73474      0.94776828     0.94776819     0.93875809     1.435          29.779147     -3.2654828      212            28.416498      32.654828      11.588845      41.00582       282.1345       68.248752      80.908748    
  14360000   299.28567      0.94798367     0.94798358     0.92990188     1.436          61.120556     -1.6537907      210            36.111032      16.537907      57.243715      34.551474      282.25036      68.403888      80.673779    
  14370000   300.1877       0.94816572     0.94816563     0.90776136     1.437          4.105513      -3.1515688      205            28.003309      31.515688      36.190056      16.304182      282.36623      68.460964      80.557975    
  14380000   301.75962      0.94926087     0.94926079     0.96089861     1.438          23.200286     -2.4395632      217           -24.966058      24.395632     -71.950311     -27.343495      282.4821       68.240867      80.691447    
  14390000   299.51411      0.94677219     0.9467721      0.94761429     1.439          54.691864      4.6270741      214           -19.237138     -46.270741     -25.749923      14.309251      282.59796      68.508617      80.55432     
  14400000   300.55182      0.94730223     0.94730214     0.94761429     1.44           7.4917979     -2.7696351      214            34.790323      27.696351      20.292076      56.382543      282.71383      68.656074      80.303407    
  14410000   302.06255      0.94658672     0.94658664     0.9520424      1.441         -8.9747763      10.070716      215           -85.185707     -100.70716     -69.558952     -85.291012      282.8297       68.783236      80.182674    
  14420000   299.01222      0.94847818     0.9484781      0.93875809     1.442          45.154813     -0.17104681     212           -1.8423826      1.7104681      2.5471372     -9.7847531      282.94556      68.691077      80.097321    
  14430000   300.31851      0.94951696     0.94951688     0.99632344     1.443         -76.670235      6.1449662      225           -44.280577     -61.449662     -51.660982     -19.731088      283.06143      68.80325       79.846554    
  14440000   301.30737      0.94684272     0.94684263     0.94761429     1.444         -36.99307      -0.69819313     214            27.150748      6.9819313     -18.086228      92.556542      283.1773       68.996009      79.815697    
  14450000   299.05869      0.94637822     0.94637814     0.9564705      1.445         -8.6594117     -4.704642       216            31.940883      47.04642       10.811638      37.964589      283.29316      68.914884      79.916175    
  14460000   301.22238      0.9462201      0.94622002     0.94318619     1.446          19.635008      4.2521951      213           -15.216336     -42.521951     -17.687489      14.560431      283.40903      68.932866      79.876011    
  14470000   298.89061      0.94756074     0.94756066     0.94318619     1.447         -36.262445      2.8053362      213            11.639879     -28.053362      16.847851      46.125147      283.52489      68.941499      79.720419    
  14480000   301.68056      0.94728304     0.94728296     0.99189534     1.448          8.4293241      0.13912095     224            18.616808     -1.3912095      44.66186       12.579774      283.64076      68.67602       80.019352    
  14490000   300.14955      0.94704539     0.94704531     0.9520424      1.449         -11.293095      10.594864      215           -41.437053     -105.94864     -20.664429      2.3019113      283.75663      69.149059      79.459434    
  14500000   298.0451       0.94737269     0.94737261     0.93875809     1.45           34.401073     -3.5339237      212           -0.80673643     35.339237     -25.991831     -11.767616      283.87249      69.001827      79.56898     
  14510000   299.3243       0.94896489     0.94896481     0.97861102     1.451          40.72833       0.86416788     221           -5.5817257     -8.6416788      16.35917      -24.462669      283.98836      69.154127      79.228196    
  14520000   300.94484      0.94953331     0.94953322     0.96532671     1.452         -37.995351     -0.23770868     218            22.111868      2.3770868      25.021762      38.936756      284.10423      68.941508      79.392573    
  14530000   298.1914       0.94671854     0.94671846     0.89447704     1.453          35.000496      7.3312763      202           -7.6674937     -73.312763      16.04046       34.269822      284.22009      68.472057      80.141879    
  14540000   300.5657       0.94805694     0.94805686     0.94318619     1.454         -10.223701      2.2774675      213           -20.298478     -22.774675      25.914743     -64.035503      284.33596      68.687994      79.744642    
  14550000   300.66116      0.94774876     0.94774868     0.97861102     1.455          32.756361      7.0631252      221           -54.647086     -70.631252     -53.286643     -40.023362      284.45182      68.675252      79.752873    
  14560000   300.65024      0.94665092     0.94665083     0.9520424      1.456          37.226872      4.3214669      215           -30.30807      -43.214669     -45.721757     -1.987784       284.56769      68.444021      80.082493    
  14570000   301.9067       0.9464002      0.94640012     0.9520424      1.457          2.6308461      9.7668304      215           -62.25373      -97.668304     -49.922003     -39.170884      284.68356      68.78233       79.677272    
  14580000   299.8242       0.94914705     0.94914697     0.94318619     1.458          26.106304     -3.6147448      213            39.257935      36.147448      33.666018      47.96034       284.79942      68.747128      79.455028    
  14590000   299.52674      0.94749655     0.94749646     0.96532671     1.459          1.6650012     -6.3219789      218            45.905837      63.219789     -16.337995      90.835718      284.91529      68.559179      79.779177    
  14600000   301.09847      0.94910922     0.94910914     0.94761429     1.46          -30.441802      5.5706531      214           -39.166472     -55.706531     -14.58522      -47.207666      285.03116      68.669265      79.483618    
  14610000   300.596        0.94704408     0.94704399     0.93432998     1.461         -52.532144     -1.0388881      211           -20.92069       10.388881     -57.01795      -16.133001      285.14702      68.654551      79.641638    
  14620000   299.62889      0.94695259     0.94695251     0.9520424      1.462          22.521395     -4.5494233      215            5.9031226      45.494233     -29.568675      1.7838098      285.26289      68.604867      79.674641    
  14630000   299.73405      0.94508221     0.94508213     0.97861102     1.463         -39.606492      5.0293368      221            12.987603     -50.293368      57.397414      31.858764      285.37876      68.670686      79.723423    
  14640000   299.49008      0.94692323     0.94692315     0.97418292     1.464          20.525616      8.2148357      220           -41.366772     -82.148357     -54.753295      12.801338      285.49462      68.327406      79.935725    
  14650000   300.386        0.94817634     0.94817626     0.97861102     1.465         -28.558698      3.5807069      221           -18.697997     -35.807069      14.071432     -34.358354      285.61049      68.202249      79.944132    
  14660000   300.94012      0.95004517     0.95004509     0.93432998     1.466         -29.13136       3.1431988      211            18.42799      -31.431988      16.182462      70.533495      285.72635      68.242876      79.707038    
  14670000   300.3797       0.94616913     0.94616905     0.93432998     1.467          30.832578      14.900271      211           -82.534452     -149.00271     -40.536805     -58.063845      285.84222      68.208764      80.041132    
  14680000   299.77214      0.94735136     0.94735127     0.92547377     1.468          9.3642498     -0.55445752     209           -13.368471      5.5445752     -14.598375     -31.051612      285.95809      68.153902      79.97318     
  14690000   300.00522      0.9470124      0.94701232     0.93432998     1.469         -34.418511      3.9820862      211            28.772629     -39.820862      47.272199      78.86655       286.07395      68.437694      79.63779     
  14700000   300.90141      0.94812469     0.9481246      0.94318619     1.47           2.9031611      4.0252054      213            4.1003636     -40.252054      19.405328      33.147817      286.18982      68.315678      79.654174    
  14710000   300.10799      0.9470715      0.94707141     0.96975482     1.471          31.380349     -0.48787519     219            21.352696      4.8787519      31.834589      27.344747      286.30569      68.548498      79.43975     
  14720000   301.19474      0.94851363     0.94851355     0.96089861     1.472          36.49854       4.5740611      217           -46.232256     -45.740611     -18.751544     -74.204614      286.42155      68.316467      79.556172    
  14730000   301.01484      0.94748684     0.94748676     0.96089861     1.473          31.641851     -3.6233992      217            21.537999      36.233992      24.052427      4.3275792      286.53742      67.959386      80.028481    
  14740000   300.35481      0.9471446      0.94714451     0.92990188     1.474          5.7781379      1.9724203      210           -11.784102     -19.724203     -44.936961      29.308857      286.65328      68.162531      79.78654     
  14750000   299.03059      0.94669824     0.94669816     0.92990188     1.475          20.253153      4.5175684      210           -21.174384     -45.175684     -13.194435     -5.1530341      286.76915      68.271718      79.664295    
  14760000   301.73277      0.94929957     0.94929949     0.94318619     1.476         -26.846442      2.8885682      213           -0.52253723    -28.885682     -5.0868951      32.404966      286.88502      67.703309      80.080635    
  14770000   300.15322      0.9462109      0.94621081     0.94761429     1.477         -11.35804       7.1032892      214           -31.375887     -71.032892     -31.726831      8.6320606      287.00088      68.378264      79.516874    
  14780000   300.20237      0.94733287     0.94733279     0.94318619     1.478          16.748375      12.372018      213           -72.121787     -123.72018     -84.254493     -8.3906919      287.11675      67.81739       80.047237    
  14790000   300.91156      0.94768739     0.94768731     0.91661757     1.479          39.81476       0.34228856     207           -21.351885     -3.4228856     -13.025169     -47.6076        287.23262      67.723033      80.096455    
  14800000   300.19554      0.94605229     0.94605221     0.92104567     1.48           8.9713758      11.931435      208           -16.907731     -119.31435     -2.2390815      70.83024       287.34848      67.848065      80.054737    
  14810000   299.50031      0.94704711     0.94704703     0.94761429     1.481         -37.373595      6.7688852      214           -40.384882     -67.688852     -9.967868      -43.497925      287.46435      67.815659      79.97661     
  14820000   299.59229      0.94737836     0.94737827     0.9520424      1.482          12.654306     -0.14246904     215            22.086658      1.4246904      50.395905      14.439379      287.58022      68.0764        79.610345    
  14830000   299.88734      0.9456694      0.94566931     0.92990188     1.483          19.182859      5.5172794      210           -29.581555     -55.172794     -48.86289       15.291018      287.69608      68.431215      79.308734    
  14840000   302.13859      0.94907945     0.94907936     0.98303913     1.484         -6.4642242      11.537179      222           -36.113644     -115.37179     -11.291255      18.322116      287.81195      68.464123      78.953996    
  14850000   301.49637      0.94985575     0.94985567     0.96975482     1.485         -11.967854      5.7200714      219            1.0225965     -57.200714      69.386856     -9.1183518      287.92781      68.273268      79.078165    
  14860000   301.69066      0.94647812     0.94647803     0.90333325     1.486          10.7058        11.215494      204           -43.265085     -112.15494     -20.623864      2.9835486      288.04368      68.094466      79.536743    
  14870000   298.04112      0.94855404     0.94855395     0.93432998     1.487          9.8552611      1.1094351      211           -42.082127     -11.094351     -26.774036     -88.377994      288.15955      67.815253      79.657391    
  14880000   301.55986      0.94743865     0.94743856     0.94761429     1.488         -14.077067      3.9914485      214           -16.643836     -39.914485      13.035112     -23.052134      288.27541      67.905775      79.612844    
  14890000   299.23474      0.94824581     0.94824573     0.98303913     1.489          8.6967844     -1.6718171      222            31.140749      16.718171      26.260967      50.443109      288.39128      68.058703      79.334452    
  14900000   299.94345      0.94850086     0.94850077     0.97418292     1.49          -13.046108      4.1251955      220           -9.567747      -41.251955      29.308095     -16.759381      288.50715      67.828632      79.550184    
  14910000   301.9458       0.94752071     0.94752063     0.9520424      1.491         -35.060106      3.409827       215           -28.328464     -34.09827      -32.950658     -17.936464      288.62301      68.061558      79.328091    
  14920000   300.12329      0.9483061      0.94830601     0.93875809     1.492          8.7318135     -0.40235298     212           -3.6157259      4.0235298     -0.46425544    -14.406452      288.73888      67.763846      79.578674    
  14930000   299.97275      0.94808209     0.94808201     0.90776136     1.493         -4.558968       0.8292903      205           -34.600508     -8.292903      -16.819549     -78.689074      288.85474      67.824557      79.494327    
  14940000   301.20672      0.94844661     0.94844653     0.9564705      1.494          9.8390276     -8.3736434      216            68.180999      83.736434      85.565786      35.240777      288.97061      67.961073      79.272355    
  14950000   300.27948      0.94659612     0.94659604     0.93432998     1.495          109.70492      13.426107      211           -41.247216     -134.26107     -8.4722792      18.991696      289.08648      67.977431      79.376383    
  14960000   300.82365      0.94780049     0.94780041     0.94318619     1.496          73.75589       9.4838727      213           -52.012677     -94.838727     -25.416998     -35.782304      289.20234      67.994808      79.223506    
  14970000   299.7729       0.94758614     0.94758606     0.97418292     1.497          27.105159      6.2353609      220           -24.480084     -62.353609     -1.3431201     -9.7435235      289.31821      67.985101      79.221002    
  14980000   299.50624      0.94542772     0.94542764     0.93875809     1.498         -28.628638     -4.4088544      212            19.861955      44.088544     -29.4583        44.955622      289.43408      68.05494       79.288628    
  14990000   301.54904      0.94719149     0.9471914      0.9520424      1.499          20.619294      9.150789       215           -25.684748     -91.50789       11.939318      2.5143293      289.54994      68.16376       78.983021    
  15000000   301.88809      0.94572089     0.94572081     0.94318619     1.5           -23.778603      5.1809744      213           -70.414506     -51.809744     -61.427947     -98.005829      289.66581      68.273161      78.947489    
  15010000   298.41589      0.9495753      0.94957521     0.9520424      1.501          15.011904     -1.8023964      215            27.71927       18.023964      7.9573908      57.176455      289.78168      68.06979       78.830416    
  15020000   300.6399       0.94913307     0.94913298     0.94761429     1.502          3.3090269      1.5592755      214           -5.2333666     -15.592755      38.101805     -38.20915       289.89754      67.837877      79.105133    
  15030000   301.05448      0.94809889     0.94809881     0.92104567     1.503         -12.693393      3.2156261      208           -1.2099455     -32.156261      35.829658     -7.3032336      290.01341      67.590654      79.44932     
  15040000   301.3745       0.94635298     0.94635289     0.9520424      1.504          15.523923      11.14892       215           -40.937079     -111.4892       27.959071     -39.281108      290.12927      67.266193      79.947889    
  15050000   298.00459      0.94826338     0.9482633      0.97861102     1.505          21.390062      5.1117569      221            4.6509645     -51.117569     -26.637082      91.707544      290.24514      67.379278      79.621116    
  15060000   301.52902      0.94688228     0.9468822      0.91661757     1.506          9.3151203      4.2516465      207            2.2037221     -42.516465      30.503659      18.623973      290.36101      66.979143      80.181593    
  15070000   298.70131      0.94641198     0.9464119      0.94318619     1.507          34.488671      5.3847507      213           -58.429538     -53.847507     -70.432482     -51.008627      290.47687      66.708189      80.515151    
  15080000   300.28194      0.9463316      0.94633152     0.93875809     1.508         -4.3133196      0.57079284     212            0.51791639    -5.7079284      6.0346977      1.2269799      290.59274      66.936506      80.215337    
  15090000   300.10531      0.94845484     0.94845475     0.91661757     1.509         -26.10824       1.6482928      207           -5.0922192     -16.482928      6.8890535     -5.6827827      290.70861      67.126368      79.77758     
  15100000   298.45227      0.94662082     0.94662073     0.9564705      1.51          -10.065871     -1.7787893      216           -7.9193551      17.787893      14.540536     -56.086494      290.82447      67.177556      79.839416    
  15110000   300.46655      0.94792925     0.94792917     0.93875809     1.511          7.5403714     -3.2144356      212           -7.5785588      32.144356     -43.02117      -11.858863      290.94034      67.06427       79.832088    
  15120000   298.75544      0.94786254     0.94786246     0.93875809     1.512          2.4602737      7.5827338      212           -7.8030081     -75.827338      59.913479     -7.4951652      291.05621      67.158698      79.693713    
  15130000   299.03996      0.94675903     0.94675895     0.94318619     1.513          18.74967       2.2805837      213           -38.385425     -22.805837      4.0281315     -96.378569      291.17207      66.713006      80.287673    
  15140000   300.30849      0.94848947     0.94848938     0.96089861     1.514         -49.946115      3.9557437      217            10.406179     -39.557437     -1.0262707      71.802245      291.28794      67.035237      79.724241    
  15150000   297.43157      0.94851638     0.94851629     0.91661757     1.515          11.984697     -0.72425996     207            14.150243      7.2425996     -28.088089      63.296218      291.4038       66.655984      80.143694    
  15160000   298.63817      0.94834575     0.94834567     0.9520424      1.516          28.140554     -2.0999583      215            32.831638      20.999583      38.902723      38.592608      291.51967      66.600267      80.193287    
  15170000   299.73833      0.94604114     0.94604106     0.93432998     1.517         -42.222747      4.5076903      211            9.7270125     -45.076903     -12.501284      86.759224      291.63554      66.33666       80.676023    
  15180000   298.76467      0.94825733     0.94825724     0.97418292     1.518         -13.170431      5.4369465      220           -3.8865245     -54.369465      64.102899     -21.393008      291.7514       66.52157       80.231867    
  15190000   299.45104      0.9457824      0.94578232     0.94318619     1.519         -28.435949     -2.2567654      213           -28.23765       22.567654     -73.041128     -34.239476      291.86727      66.572496      80.348373    
  15200000   301.22028      0.94799381     0.94799373     0.96089861     1.52          -8.7494894     -3.7840633      217            10.115181      37.840633      22.920269     -30.415361      291.98314      66.249493      80.519807    
  15210000   297.56021      0.94885707     0.94885698     0.98746723     1.521         -42.121259      4.0718356      223           -42.763627     -40.718356     -56.646357     -30.926168      292.099        66.362611      80.27757     
  15220000   298.29051      0.94899249     0.94899241     0.9520424      1.522          59.80294       7.5415092      215           -19.419819     -75.415092      8.8074204      8.3482159      292.21487      66.546818      80.012193    
  15230000   299.959        0.94835098     0.94835089     0.93432998     1.523          1.8805755     -0.67834133     211            2.5002304      6.7834133      31.866582     -31.149304      292.33073      66.827209      79.698777    
  15240000   298.93735      0.9468125      0.94681241     0.92990188     1.524          15.364796      2.8212898      210           -6.8882934     -28.212898      14.465616     -6.9175974      292.4466       66.935685      79.667334    
  15250000   300.41185      0.94837045     0.94837037     0.93875809     1.525          43.741787      14.394507      212           -106.86769     -143.94507     -61.776575     -114.88141      292.56247      66.394176      80.153399    
  15260000   302.661        0.94690043     0.94690035     0.92990188     1.526         -38.648181      1.7340422      210           -17.523195     -17.340422     -50.31601       15.086845      292.67833      66.503427      80.114225    
  15270000   301.85075      0.94758289     0.94758281     0.9520424      1.527         -29.35415       6.8572114      215           -54.563965     -68.572114     -62.546698     -32.573082      292.7942       66.446185      80.093786    
  15280000   299.35218      0.9463965      0.94639641     0.94761429     1.528          20.15554       1.5320439      214           -14.414031     -15.320439     -11.557889     -16.363764      292.91007      66.461038      80.144554    
  15290000   300.16947      0.94670137     0.94670129     0.96532671     1.529         -33.779784      8.0059596      218           -35.676932     -80.059596     -14.990402     -11.980797      293.02593      66.327163      80.248711    
  15300000   299.50418      0.947148       0.94714792     0.93875809     1.53          -14.506634     -0.65464416     212            28.754899      6.5464416      28.77524       50.943016      293.1418       66.193864      80.340627    
  15310000   299.34428      0.94669433     0.94669424     0.94318619     1.531          6.013374       3.8523206      213           -8.977685      -38.523206      14.041384     -2.4512332      293.25767      66.026757      80.550723    
  15320000   299.47372      0.94723979     0.94723971     0.9520424      1.532         -29.974876      1.9482087      215           -43.920405     -19.482087     -67.171732     -45.107394      293.37353      66.092777      80.392158    
  15330000   300.52078      0.948895       0.94889492     0.96532671     1.533          12.934968      3.1789413      218           -10.02929      -31.789413      22.364554     -20.663009      293.4894       65.978065      80.359718    
  15340000   301.11354      0.94485851     0.94485843     0.93875809     1.534         -7.1164888      9.2352263      212           -24.78169      -92.352263     -8.8209107      26.828104      293.60526      66.213826      80.383933    
  15350000   300.89596      0.94648796     0.94648787     0.96532671     1.535         -19.126528      4.7152981      218            15.853397     -47.152981      3.7034598      91.009712      293.72113      66.08797       80.366649    
  15360000   300.85812      0.94848657     0.94848649     0.97418292     1.536         -9.9572854      1.4883749      220           -10.205132     -14.883749      34.277137     -50.008782      293.837        66.092112      80.160655    
  15370000   300.68234      0.94830343     0.94830334     0.96089861     1.537         -33.82146       9.4650457      217           -13.151591     -94.650457      21.529825      33.665859      293.95286      66.236656      79.96964     
  15380000   300.16426      0.9478147      0.94781461     0.94761429     1.538          33.094739      5.0598807      214           -20.301532     -50.598807      15.584544     -25.890333      294.06873      65.899849      80.388116    
  15390000   299.00049      0.94746884     0.94746875     0.94761429     1.539         -11.383414      8.8462799      214           -33.154649     -88.462799     -24.381672      13.380525      294.1846       66.275837      79.929753    
  15400000   302.47777      0.9481841      0.94818402     0.94318619     1.54           6.3884681      0.49700168     213            19.264762     -4.9700168      44.545352      18.21895       294.30046      66.078934      80.075916    
  15410000   299.74361      0.94730839     0.94730831     0.96532671     1.541          18.431326      3.5603894      218           -12.260604     -35.603894     -6.7402299      5.562311       294.41633      66.07234       80.126392    
  15420000   299.06501      0.94927284     0.94927275     0.94318619     1.542          19.854867     -2.9875387      213           -3.076398       29.875387      16.644253     -55.748833      294.53219      65.80224       80.257208    
  15430000   298.35059      0.94694633     0.94694625     0.96532671     1.543         -28.469319     -1.1768771      218            18.862323      11.768771      67.751538     -22.933339      294.64806      65.736224      80.503515    
  15440000   299.7254       0.94802274     0.94802265     0.96532671     1.544         -53.75214      -1.3263224      218           -11.818263      13.263224     -28.174314     -20.543698      294.76393      65.574295      80.578993    
  15450000   300.17786      0.94710192     0.94710184     0.9564705      1.545         -32.918864     -2.8945875      216            17.845053      28.945875     -13.102814      37.692098      294.87979      65.831355      80.310813    
  15460000   299.52007      0.94732788     0.9473278      0.93875809     1.546          39.251409      8.9062645      212           -23.877604     -89.062645      31.622033     -14.192201      294.99566      65.778368      80.324773    
  15470000   299.62565      0.94774955     0.94774946     0.9520424      1.547         -14.749853     -1.9362154      215            6.9045894      19.362154     -3.7632251      5.1148393      295.11153      66.116169      79.847462    
  15480000   300.57859      0.94630859     0.94630851     0.94761429     1.548          69.347982      3.1168652      214           -22.702847     -31.168652     -36.060726     -0.87916449     295.22739      66.572957      79.389171    
  15490000   300.69287      0.94658549     0.94658541     0.9564705      1.549         -57.27356       2.549412       216            8.4724258     -25.49412       39.888711      11.022686      295.34326      66.111116      79.889032    
  15500000   300.56471      0.94706436     0.94706427     0.98746723     1.55          -67.131717     -3.8113207      223            29.214388      38.113207     -18.120571      67.650527      295.45913      66.341535      79.5401      
  15510000   298.87529      0.94852737     0.94852729     0.97861102     1.551         -49.932813      0.49134317     221            19.686097     -4.9134317      28.007418      35.964304      295.57499      66.509006      79.186389    
  15520000   299.65253      0.94633066     0.94633058     0.92990188     1.552         -9.3191765      1.9625335      210           -6.8938317     -19.625335     -35.58942       34.53326       295.69086      66.483851      79.369121    
  15530000   299.75723      0.94798164     0.94798155     0.92547377     1.553         -35.306508      2.236691       209           -13.573929     -22.36691       9.4220416     -27.77692       295.80672      66.421982      79.273631    
  15540000   299.29383      0.94909498     0.9490949      0.90333325     1.554          68.201349     -0.16495823     204            7.6690986      1.6495823      39.647051     -18.289337      295.92259      66.446491      79.120442    
  15550000   299.25911      0.94791137     0.94791129     0.91218946     1.555         -11.879341      4.9310461      206           -21.286774     -49.310461     -26.382998      11.833137      296.03846      65.848506      79.907356    
  15560000   297.79923      0.94449333     0.94449325     0.94318619     1.556          14.953524      6.8111676      213           -34.649029     -68.111676     -54.496603      18.661193      296.15432      65.990196      79.993032    
  15570000   299.02524      0.94971816     0.94971808     0.96089861     1.557         -50.239245      2.8896513      217            11.603211     -28.896513      44.822027      18.884118      296.27019      66.173139      79.301996    
  15580000   300.25386      0.94683881     0.94683873     0.94761429     1.558         -18.07294       1.011874       214           -3.9743629     -10.11874      -57.679259      55.874911      296.38606      66.358089      79.290446    
  15590000   299.34069      0.94692938     0.94692929     0.9564705      1.559         -9.5463676     -0.62625819     216           -20.694594      6.2625819      8.6909574     -77.037321      296.50192      66.142105      79.510675    
  15600000   302.6418       0.94690125     0.94690116     0.96089861     1.56           47.030401      0.95119159     217            5.2093624     -9.5119159      6.9172192      18.222784      296.61779      66.396815      79.177069    
  15610000   299.25361      0.94819687     0.94819679     0.94761429     1.561          26.121965      4.2596811      214           -21.077865     -42.596811      35.122422     -55.759205      296.73365      65.911462      79.62002     
  15620000   301.44377      0.94709697     0.94709689     0.97418292     1.562          13.479769      8.0072459      220           -31.89332      -80.072459      9.7502812     -25.357784      296.84952      66.36966       79.131274    
  15630000   300.19436      0.94481454     0.94481446     0.9564705      1.563          14.748426      14.241259      216           -68.171364     -142.41259     -43.340456     -18.761047      296.96539      66.503164      79.132309    
  15640000   299.25089      0.94636316     0.94636307     0.98746723     1.564          94.012092      22.144559      223           -108.83202     -221.44559     -89.632837     -15.417639      297.08125      66.554358      78.91126     
  15650000   300.36835      0.94611417     0.94611409     0.93432998     1.565         -51.531296      12.74605       211           -88.592453     -127.4605      -39.035364     -99.281498      297.19712      66.199962      79.323646    
  15660000   300.81996      0.94834542     0.94834533     0.96975482     1.566         -55.88273       2.0649015      219           -8.2514741     -20.649015      3.8249675     -7.9303752      297.31299      66.115274      79.207502    
  15670000   300.87159      0.94724466     0.94724458     0.97418292     1.567         -3.2738474      7.6827335      220           -39.685186     -76.827335      0.6458394     -42.874062      297.42885      66.201816      79.165031    
  15680000   300.15808      0.94780117     0.94780108     0.96975482     1.568          29.670377      6.1331356      219           -24.569213     -61.331356     -8.9564376     -3.4198449      297.54472      66.245268      79.035864    
  15690000   301.47445      0.94644884     0.94644876     0.94318619     1.569          24.351782      5.7462863      213           -53.581273     -57.462863     -64.884175     -38.396782      297.66059      66.223857      79.143564    
  15700000   297.7344       0.94664132     0.94664124     0.92990188     1.57          -25.638684      4.351544       210           -37.712794     -43.51544      -44.765512     -24.85743       297.77645      66.503959      78.763543    
  15710000   301.15484      0.94708974     0.94708966     0.92547377     1.571          61.581657      9.74956        209           -81.630737     -97.4956       -92.550872     -54.845741      297.89232      66.810197      78.334913    
  15720000   299.38572      0.94858441     0.94858433     0.92990188     1.572         -43.077651     -3.2726432      210           -13.794962      32.726432     -50.34355      -23.767768      298.00818      66.557757      78.477598    
  15730000   300.39019      0.94907393     0.94907384     0.91661757     1.573          17.589763      5.2892176      207            14.374703     -52.892176      63.983534      32.032752      298.12405      66.484263      78.493308    
  15740000   299.71241      0.94762822     0.94762813     0.94318619     1.574         -43.608627      9.6488398      213           -38.740956     -96.488398      19.129036     -38.863508      298.23992      66.367861      78.720343    
  15750000   300.11872      0.94751155     0.94751147     0.92990188     1.575         -0.91720148     3.4431178      210            0.43353614    -34.431178     -22.473797      58.205583      298.35578      66.205821      78.892079    
  15760000   300.61893      0.94838834     0.94838825     0.89890515     1.576          10.181287      10.627445      203           -28.44823      -106.27445     -24.798183      45.727944      298.47165      65.709821      79.383268    
  15770000   300.30981      0.94529304     0.94529296     0.9564705      1.577          17.556132      11.837591      216           -84.754137     -118.37591     -78.492567     -57.39393       298.58752      65.44883       79.929769    
  15780000   300.72777      0.94820536     0.94820528     0.94318619     1.578         -13.377936      2.6426312      213            5.4253803     -26.426312      45.956261     -3.2538078      298.70338      65.536354      79.546986    
  15790000   298.83024      0.94681924     0.94681915     0.93875809     1.579          6.3234514      5.7485998      212           -25.431032     -57.485998     -11.727974     -7.0791243      298.81925      65.504602      79.671153    
  15800000   300.41897      0.94858416     0.94858408     0.94318619     1.58           19.161091      3.1449801      213            13.635474     -31.449801      92.477359     -20.121136      298.93512      65.465722      79.539304    
  15810000   298.59489      0.94657226     0.94657217     0.96532671     1.581         -35.91867       3.3805982      218            6.0565582     -33.805982      9.4791956      42.49646       299.05098      65.407698      79.748162    
  15820000   298.98319      0.94825228     0.9482522      0.93875809     1.582         -19.793319      2.06863        212           -15.012183     -20.6863       -5.7792478     -18.571001      299.16685      65.361408      79.632397    
  15830000   299.73997      0.94548347     0.94548339     0.92990188     1.583          0.7791468     -0.94132062     210           -18.54344       9.4132062     -71.760479      6.7169519      299.28271      65.407661      79.778223    
  15840000   299.62846      0.94646149     0.94646141     0.91661757     1.584          8.4256421      1.4196431      207           -69.636344     -14.196431     -145.90789     -48.804706      299.39858      65.489715      79.565128    
  15850000   301.25111      0.94726696     0.94726687     0.93432998     1.585          41.087403      8.4687998      211           -39.81506      -84.687998     -36.636463      1.8792821      299.51445      65.379925      79.600166    
  15860000   298.80264      0.94863227     0.94863218     0.90333325     1.586          36.307724     -10.663806      204            74.239898      106.63806      64.580044      51.50159       299.63031      65.696576      79.0719      
  15870000   299.43849      0.94879151     0.94879142     0.97861102     1.587         -23.519909     -3.6864728      221            24.081901      36.864728      53.575925     -18.194949      299.74618      65.791918      78.913547    
  15880000   301.83234      0.94959229     0.9495922      0.97418292     1.588          12.96478      -4.3047313      220            4.5695216      43.047313     -1.5338404     -27.804908      299.86205      65.666053      78.967604    
  15890000   300.8124       0.94825834     0.94825826     0.94761429     1.589          28.569776     -2.101648       214            5.8798729      21.01648       25.328853     -28.705715      299.97791      65.616087      79.108341    
  15900000   296.49742      0.94832095     0.94832087     0.92547377     1.59          -16.460188     -1.9191445      209           -4.3552277      19.191445     -15.588817     -16.668311      300.09378      65.667011      79.011256    
  15910000   299.01256      0.94658575     0.94658567     0.9564705      1.591          24.657562      2.328314       216           -32.748413     -23.28314      -28.584626     -46.377472      300.20964      65.675002      79.115915    
  15920000   299.2598       0.94660016     0.94660008     0.94318619     1.592         -10.859608      10.470386      213           -44.959366     -104.70386     -25.574807     -4.5994339      300.32551      65.510648      79.282595    
  15930000   300.28273      0.95081127     0.95081118     0.93875809     1.593          38.901405      0.43075826     212            13.631565     -4.3075826      16.800181      28.402098      300.44138      65.515658      78.894982    
  15940000   300.28646      0.94724335     0.94724327     0.94318619     1.594          67.241443      7.0448508      213            9.0234295     -70.448508      129.69284     -32.174048      300.55724      65.524093      79.151431    
  15950000   299.51022      0.94870316     0.94870307     0.92990188     1.595          30.524821      2.7256811      210           -17.043211     -27.256811     -0.64151556    -23.231307      300.67311      65.419467      79.125527    
  15960000   300.04242      0.94988189     0.9498818      0.93875809     1.596         -33.492738     -3.3902379      212            31.187733      33.902379      2.0319614      57.628859      300.78898      65.416796      79.000122    
  15970000   300.46451      0.94970594     0.94970586     0.90776136     1.597          73.800702     -1.6465902      205           -1.2871312      16.465902     -48.680021      28.352725      300.90484      65.469746      78.920452    
  15980000   299.90654      0.94484221     0.94484213     0.94761429     1.598          27.411441      10.589412      214           -0.37569895    -105.89412      40.45816       64.308864      301.02071      65.865194      78.820087    
  15990000   297.89397      0.94636683     0.94636675     0.92104567     1.599         -18.772874      1.56729        208           -33.405318     -15.6729       -18.058657     -66.484396      301.13658      65.663359      78.904621    
  16000000   299.62668      0.94695009     0.94695001     0.96089861     1.6           -31.9184        3.2594209      217            38.030399     -32.594209      105.93586      40.749547      301.25244      65.635256      78.859443    
  16010000   301.90391      0.94870824     0.94870816     0.9520424      1.601          11.808277      9.6185838      215           -34.961448     -96.185838     -21.975085      13.27658       301.36831      65.764259      78.528693    
  16020000   299.94401      0.94625016     0.94625008     0.9564705      1.602          36.880886     -2.1644917      216           -2.6138073      21.644917     -17.037905     -12.448435      301.48417      65.639751      78.851715    
  16030000   298.68804      0.94816419     0.94816411     0.96532671     1.603         -29.25006       2.6426488      218            9.0317688     -26.426488     -6.6323671      60.154161      301.60004      65.32839       79.03722     
  16040000   301.64035      0.9469852      0.94698512     0.97418292     1.604          72.19632      -1.374012       220            13.151946      13.74012       51.883129     -26.167411      301.71591      65.260977      79.186943    
  16050000   299.77408      0.94702548     0.9470254      0.91661757     1.605          15.615911     -2.2665065      207            3.968748       22.665065      13.239557     -23.998378      301.83177      65.220635      79.202138    
  16060000   300.82671      0.95042143     0.95042135     0.94761429     1.606         -4.3726676     -2.6332591      214            33.207154      26.332591      41.827602      31.46127       301.94764      65.62404       78.403911    
  16070000   298.83179      0.94813291     0.94813282     0.91661757     1.607          4.8824103      6.9141261      207           -24.151887     -69.141261     -32.910436      29.596035      302.06351      65.817269      78.332361    
  16080000   300.75061      0.94757077     0.94757069     0.94761429     1.608         -53.752708     -0.55517144     214            13.254981      5.5517144      19.426695      14.786532      302.17937      65.802647      78.366186    
  16090000   298.44604      0.94782882     0.94782874     0.94761429     1.609         -19.229154     -0.15463541     214            31.930379      1.5463541      84.510489      9.7342943      302.29524      65.462978      78.721177    
  16100000   299.61373      0.9471051      0.94710502     0.9564705      1.61           30.781163      5.472452       216           -15.998434     -54.72452      -3.455095       10.184313      302.4111       65.302792      78.944321    
  16110000   300.05961      0.9478402      0.94784011     0.94761429     1.611          40.932174     -0.24738865     214            9.3829325      2.4738865      8.5155436      17.159367      302.52697      65.051936      79.156959    
  16120000   299.73173      0.94844164     0.94844155     0.96975482     1.612         -56.180752     -2.1297163      219            8.4663134      21.297163     -23.238303      27.34008       302.64284      64.889008      79.275029    
  16130000   300.20402      0.94681292     0.94681284     0.92990188     1.613         -8.8840549      2.5745996      210           -27.437406     -25.745996     -29.833112     -26.73311       302.7587       64.94264       79.315452    
  16140000   301.22306      0.9480118      0.94801171     0.96089861     1.614          24.15116       2.5269687      217           -1.9058297     -25.269687     -7.1312028      26.683401      302.87457      65.177869      78.899062    
  16150000   300.63313      0.95085859     0.9508585      0.96089861     1.615         -21.46118      -3.6131394      217            38.813375      36.131394      54.936419      25.372311      302.99044      64.958986      78.897722    
  16160000   299.86061      0.94740762     0.94740754     0.9564705      1.616         -58.411843      11.387862      216           -30.568029     -113.87862      1.9848498      20.189682      303.1063       64.568907      79.633037    
  16170000   300.42157      0.94646889     0.94646881     0.92990188     1.617          32.919615      4.2990003      210           -6.2330424     -42.990003      29.126159     -4.8352828      303.22217      64.915226      79.256463    
  16180000   299.61913      0.94957622     0.94957614     0.96089861     1.618          8.4684433      4.8030033      217            12.183172     -48.030033      45.055739      39.523812      303.33804      64.922031      78.958657    
  16190000   303.48066      0.94852609     0.94852601     0.97861102     1.619         -5.4102694      3.3634708      221           -9.4954196     -33.634708      30.981482     -25.833033      303.4539       64.788883      79.178278    
  16200000   299.75877      0.947496       0.94749592     0.93432998     1.62           27.219243     -1.4595712      211            1.4992022      14.595712      33.459583     -43.557689      303.56977      64.898882      79.099809    
  16210000   299.18541      0.94806158     0.9480615      0.9520424      1.621          35.252706      3.9107553      215           -16.183247     -39.107553     -37.737372      28.295183      303.68563      65.04948       78.839511    
  16220000   300.99476      0.94553706     0.94553697     0.93432998     1.622          21.043709      7.207242       211           -50.944414     -72.07242      -46.052751     -34.708071      303.8015       64.725405      79.415505    
  16230000   300.82222      0.94523177     0.94523169     0.92990188     1.623          16.095888     -0.51131962     210           -14.171581      5.1131962     -60.622648      12.994708      303.91737      64.918593      79.174554    
  16240000   301.19048      0.94709025     0.94709016     0.94761429     1.624         -20.929568      3.0685096      214           -64.422621     -30.685096     -79.506225     -83.076542      304.03323      64.339388      79.700162    
  16250000   301.47267      0.9513106      0.95131052     0.96532671     1.625          49.515181     -6.1206152      218            63.166194      61.206152     -19.668244      147.96067      304.1491       64.219316      79.464655    
  16260000   300.92391      0.94687906     0.94687898     0.93432998     1.626          8.1463247      2.5250737      211            4.3288716     -25.250737      21.43133       16.806022      304.26497      64.201951      79.827745    
  16270000   298.73384      0.94771482     0.94771474     0.96532671     1.627         -24.27873       8.810788       218           -39.129065     -88.10788       4.9591097     -34.238424      304.38083      64.276919      79.633999    
  16280000   299.36253      0.94821332     0.94821323     0.96975482     1.628         -25.832519     -1.6405322      219            27.503163      16.405322     -25.765638      91.869807      304.4967       64.135673      79.737067    
  16290000   298.36093      0.94834153     0.94834145     0.93432998     1.629         -29.449497     -2.2195259      211            19.297879      22.195259      28.419234      7.2791458      304.61256      64.316588      79.471785    
  16300000   299.05884      0.94678865     0.94678857     0.96532671     1.63           34.305911      4.8308946      218           -22.350523     -48.308946     -42.424513      23.68189       304.72843      64.519361      79.321783    
  16310000   299.30274      0.94995775     0.94995766     0.96089861     1.631         -33.683365     -0.78176677     217            28.430669      7.8176677      52.887516      24.586824      304.8443       64.332079      79.257178    
  16320000   299.77619      0.94671715     0.94671706     0.9520424      1.632         -16.348451      8.4124943      215           -48.989573     -84.124943     -37.879782     -24.963994      304.96016      64.969541      78.718245    
  16330000   300.98402      0.94798659     0.9479865      0.9564705      1.633         -36.820324     -2.4598408      216            41.109263      24.598408      52.439341      46.29004       305.07603      65.115917      78.406327    
  16340000   300.26737      0.94877455     0.94877447     0.94318619     1.634          37.196325     -0.7535669      213           -24.502435      7.535669      -35.227617     -45.815357      305.1919       64.739742      78.766502    
  16350000   299.57696      0.94862284     0.94862275     0.93875809     1.635          49.496314      8.1288183      212           -62.128713     -81.288183     -95.49612      -9.6018372      305.30776      64.544853      78.986981    
  16360000   300.00073      0.9478428      0.94784271     0.94761429     1.636         -17.525977     -0.51188009     214            23.905865      5.1188009      34.37056       32.228233      305.42363      64.506428      79.069067    
  16370000   301.42669      0.94727089     0.94727081     0.9520424      1.637          8.6525401      6.0597176      215           -8.4399698     -60.597176     -17.779573      53.056839      305.5395       64.919474      78.583616    
  16380000   299.68662      0.94703565     0.94703557     0.9564705      1.638         -0.35513045     1.991981       216            10.71299      -19.91981       22.417243      29.641537      305.65536      64.46598       79.126073    
  16390000   301.13877      0.94793204     0.94793196     0.96532671     1.639          8.9077584      0.29442621     218            7.1282206     -2.9442621     -7.4671376      31.796062      305.77123      64.609883      78.845294    
  16400000   298.61643      0.94747424     0.94747416     0.9520424      1.64           19.864616      5.737835       215           -3.4676126     -57.37835       42.274999      4.7005129      305.88709      64.782498      78.643402    
  16410000   299.52813      0.94694849     0.94694841     0.93432998     1.641          34.732679      12.440087      211           -61.939476     -124.40087      0.052003883   -61.469563      306.00296      65.17404       78.184727    
  16420000   299.46127      0.94685491     0.94685483     0.94761429     1.642         -20.617547      3.1906627      214            60.298732     -31.906627      132.0291       80.773729      306.11883      65.05354       78.307641    
  16430000   301.66118      0.94942854     0.94942846     0.93875809     1.643          26.545507      3.3240991      212           -8.4140016     -33.240991      19.349334     -11.350348      306.23469      64.961269      78.176708    
  16440000   300.03581      0.95007686     0.95007678     0.96089861     1.644         -37.012202      4.5854605      217           -12.572249     -45.854605      18.837238     -10.699381      306.35056      65.199522      77.808443    
  16450000   300.10714      0.94355285     0.94355277     0.91661757     1.645          20.266268      11.89337       207           -72.533896     -118.9337      -70.813892     -27.854091      306.46643      65.370739      78.111688    
  16460000   298.75791      0.94831024     0.94831016     0.93875809     1.646         -75.532083      4.4631138      212           -29.843393     -44.631138     -35.061813     -9.8372285      306.58229      64.970105      78.169525    
  16470000   299.0297       0.95030149     0.95030141     0.94318619     1.647         -81.851238      1.3380309      213            24.498268     -13.380309      46.298653      40.576459      306.69816      64.635571      78.379841    
  16480000   297.925        0.94713596     0.94713588     0.96532671     1.648          33.348958      8.3831326      218           -25.980926     -83.831326     -13.598666      19.487215      306.81403      64.61745       78.634151    
  16490000   300.48472      0.94780159     0.94780151     0.94761429     1.649         -26.539268     -2.0908808      214            43.824641      20.908808      49.702107      60.863009      306.92989      64.597139      78.573961    
  16500000   299.69165      0.95033041     0.95033032     0.97861102     1.65          -9.9348438      0.3183514      221            10.55783      -3.183514       21.213427      13.643577      307.04576      64.713723      78.194182    
  16510000   299.20468      0.94848335     0.94848327     0.9564705      1.651          31.919056      2.7874173      216           -24.744352     -27.874173     -23.488589     -22.870294      307.16162      64.658882      78.383327    
  16520000   300.82091      0.94647067     0.94647059     0.94761429     1.652          47.118637      1.7423627      214            11.476346     -17.423627      21.478143      30.374521      307.27749      64.933018      78.188891    
  16530000   299.98841      0.94703013     0.94703005     0.93432998     1.653         -18.954266      2.4893419      211           -4.887727      -24.893419     -21.739741      31.969978      307.39336      64.568163      78.554641    
  16540000   297.96357      0.94618263     0.94618255     0.93875809     1.654          61.724703      10.4637        212           -56.40951      -104.637       -29.086731     -35.504799      307.50922      64.563214      78.601402    
  16550000   300.18516      0.94864386     0.94864377     0.88562084     1.655         -12.263071      3.8782483      200           -20.300137     -38.782483     -1.8042281     -20.313699      307.62509      64.847053      78.024924    
  16560000   300.13814      0.94527894     0.94527886     0.96975482     1.656         -6.7087187      6.6533123      219           -47.813151     -66.533123     -25.295587     -51.610744      307.74096      64.592825      78.581261    
  16570000   303.24627      0.94582597     0.94582589     0.96089861     1.657         -23.867712      4.054541       217           -41.648403     -40.54541      -28.986404     -55.413393      307.85682      64.667409      78.415709    
  16580000   301.24178      0.94656795     0.94656787     0.97861102     1.658          19.447423      9.27065        221           -21.251506     -92.7065        19.154167      9.7978158      307.97269      64.350392      78.710624    
  16590000   303.60164      0.94695664     0.94695656     0.94761429     1.659          8.3348345      7.2429564      214           -40.954562     -72.429564     -32.004349     -18.429774      308.08855      64.144863      78.900728    
  16600000   299.26175      0.94480576     0.94480568     0.91661757     1.66           2.7430704      1.8779846      207            0.98281197    -18.779846      38.966416     -17.238134      308.20442      64.055092      79.161405    
  16610000   299.27483      0.94666311     0.94666302     0.96089861     1.661          20.732489      6.1286596      217           -2.7849201     -61.286596      41.870404      11.061431      308.32029      63.995661      79.049745    
  16620000   299.44331      0.94399148     0.9439914      0.94318619     1.662         -21.954393      6.3152646      213           -63.327291     -63.152646     -7.3627428     -119.46649      308.43615      64.157916      79.04328     
  16630000   300.66813      0.94641344     0.94641336     0.96975482     1.663         -3.2541253      7.1521606      219           -25.507131     -71.521606     -31.672755      26.672967      308.55202      64.215798      78.740356    
  16640000   300.89224      0.94774992     0.94774983     0.93432998     1.664          66.528361      4.8785711      211           -26.230838     -48.785711      17.464903     -47.371708      308.66789      64.700924      78.010464    
  16650000   299.84804      0.94761725     0.94761717     0.92104567     1.665          27.945355      5.9840461      208           -29.749647     -59.840461     -65.825731      36.417251      308.78375      64.60955       78.10241     
  16660000   300.23893      0.94715866     0.94715858     0.94318619     1.666         -38.101642     -5.0299729      213            41.529891      50.299729      4.718461       69.571481      308.89962      64.208204      78.599163    
  16670000   297.99479      0.94710043     0.94710034     0.96089861     1.667         -29.668972     -1.3851929      217            6.4021649      13.851929      10.837204     -5.4826383      309.01549      64.042663      78.777627    
  16680000   298.96594      0.94962004     0.94961996     0.9520424      1.668          12.29764       12.169497      215           -21.203698     -121.69497      12.64212       45.441753      309.13135      63.972906      78.624799    
  16690000   298.76162      0.94817438     0.9481743      0.93432998     1.669         -19.9398       -1.7175421      211            29.587294      17.175421      34.490793      37.095668      309.24722      64.076209      78.588269    
  16700000   300.56825      0.94785521     0.94785513     0.92104567     1.67           18.886757      0.23211863     208           -13.009635     -2.3211863     -18.936883     -17.770836      309.36308      64.105742      78.549085    
  16710000   300.82339      0.95061546     0.95061538     0.92104567     1.671         -17.651445      1.803157       208           -0.48608992    -18.03157       40.342381     -23.76908       309.47895      63.907939      78.534006    
  16720000   300.76527      0.94785426     0.94785417     0.96532671     1.672          15.752837      11.861289      218           -63.27398      -118.61289     -23.435689     -47.773358      309.59482      64.013308      78.603708    
  16730000   299.24751      0.94820328     0.9482032      0.94318619     1.673          78.805433      4.8593457      213           -38.726394     -48.593457     -56.390843     -11.194884      309.71068      64.275504      78.224973    
  16740000   300.42185      0.94780817     0.94780809     0.90333325     1.674          22.05003       6.3702451      204            22.320061     -63.702451      75.976625      54.68601       309.82655      64.3764        78.10571     
  16750000   300.23274      0.94519176     0.94519168     0.9564705      1.675         -49.407057      3.1340632      216            4.9027677     -31.340632      6.6403593      39.408576      309.94242      64.158957      78.557981    
  16760000   300.76381      0.94890628     0.94890619     0.93875809     1.676          4.6472956      4.1714283      212           -2.252572      -41.714283      21.985985      12.970583      310.05828      64.034263      78.373543    
  16770000   298.88565      0.95051429     0.9505142      0.92547377     1.677          81.045808      4.1144361      209           -14.527232     -41.144361      36.890002     -39.327337      310.17415      63.968499      78.292136    
  16780000   302.70716      0.9450424      0.94504232     0.94318619     1.678          37.243545      10.776625      213           -72.253763     -107.76625     -65.9573       -43.037738      310.29001      64.05979       78.603873    
  16790000   299.29352      0.9438923      0.94389222     0.96089861     1.679         -36.127625      6.0864448      217           -35.537367     -60.864448     -40.806505     -4.9411467      310.40588      64.333191      78.335942    
  16800000   299.03886      0.94896678     0.94896669     0.94761429     1.68           9.3305801     -0.68490569     214           -0.47714074     6.8490569      11.958026     -20.238505      310.52175      64.195284      78.0553      
  16810000   301.63191      0.94769835     0.94769827     0.92990188     1.681         -9.6225583      2.4685585      210            11.261255     -24.685585      13.638421      44.830927      310.63761      64.509773      77.749726    
  16820000   299.52994      0.94603148     0.9460314      0.96975482     1.682          37.693407      0.98192913     219            9.9714393     -9.8192913     -19.722306      59.455915      310.75348      64.856302      77.441683    
  16830000   298.82668      0.94801841     0.94801832     0.97861102     1.683         -18.318743     -1.3220102      221           -9.056675       13.220102      16.660734     -57.050861      310.86935      64.636973      77.512702    
  16840000   299.31634      0.94758024     0.94758016     0.92547377     1.684         -51.970249      1.5753874      209           -3.6353554     -15.753874      8.0743644     -3.226557       310.98521      64.26684       77.96611     
  16850000   300.19446      0.94860666     0.94860658     0.96532671     1.685         -9.335112       8.7779785      218            14.172071     -87.779785      29.955356      100.34064      311.10108      64.23421       77.892291    
  16860000   298.19666      0.94582982     0.94582974     0.9564705      1.686         -35.454552      1.5896634      216           -0.15699291    -15.896634      38.347216     -22.921561      311.21695      64.495908      77.775024    
  16870000   301.28562      0.94911877     0.94911869     0.94761429     1.687         -39.09643      -2.4978103      214            52.654342      24.978103      147.66312     -14.678195      311.33281      64.515801      77.452778    
  16880000   301.24064      0.94563258     0.9456325      0.9564705      1.688          32.475472      5.9033316      216           -39.592354     -59.033316      1.4390438     -61.18279       311.44868      64.6808        77.511162    
  16890000   299.74508      0.94877656     0.94877648     0.9564705      1.689         -74.01459      -2.038428       216           -7.7703649      20.38428       13.499718     -57.195093      311.56454      64.430845      77.525174    
  16900000   300.91898      0.94898739     0.9489873      0.9564705      1.69           48.352187      7.9791237      216           -33.444903     -79.791237     -16.561021     -3.9824514      311.68041      64.678905      77.181985    
  16910000   302.03212      0.9493419      0.94934181     0.96089861     1.691          15.361329      0.92853732     217            27.519286     -9.2853732      30.396094      61.447138      311.79628      64.632947      77.179333    
  16920000   298.88875      0.94935562     0.94935553     0.94761429     1.692         -13.329172      4.2370347      214           -1.6436198     -42.370347      58.208521     -20.769034      311.91214      64.318857      77.526294    
  16930000   298.61856      0.94855347     0.94855339     0.93875809     1.693         -14.832858     -1.9883336      212            9.5538164      19.883336      11.018705     -2.2405917      312.02801      64.39849       77.467131    
  16940000   299.30507      0.94784634     0.94784626     0.96532671     1.694         -41.414909      0.40499589     218            19.581314     -4.0499589      41.808788      20.985113      312.14388      64.583787      77.273802    
  16950000   299.65148      0.94902139     0.94902131     0.93875809     1.695         -15.594066     -3.2749324      212            24.610362      32.749324     -8.839763       49.921524      312.25974      64.423302      77.341675    
  16960000   301.78532      0.94680389     0.94680381     0.96089861     1.696         -33.12058       3.9210542      217           -29.726288     -39.210542     -7.5830362     -42.385286      312.37561      64.553588      77.337658    
  16970000   299.39245      0.94638059     0.94638051     0.94318619     1.697         -3.6012449      3.4026448      213           -25.547036     -34.026448     -34.026358     -8.5883027      312.49147      64.380356      77.551675    
  16980000   299.92009      0.94822076     0.94822068     0.96089861     1.698          10.115605      11.744784      217           -83.721477     -117.44784     -35.024107     -98.692479      312.60734      64.528461      77.1949      
  16990000   298.05458      0.9469199      0.94691981     0.93432998     1.699         -38.956281      3.0079876      211           -8.8644328     -30.079876      3.7785223     -0.29194486     312.72321      64.618277      77.164905    
  17000000   301.69261      0.94870187     0.94870179     0.97418292     1.7           -36.294135      8.2608553      220           -34.215721     -82.608553     -3.9854311     -16.053179      312.83907      64.238776      77.446278    
  17010000   300.49615      0.94999195     0.94999187     0.94318619     1.701          51.216673      3.965818       213           -50.961477     -39.65818      -26.103001     -87.12325       312.95494      64.692917      76.769742    
  17020000   298.92058      0.94904247     0.94904239     0.94318619     1.702         -44.278887     -0.49737107     213            33.477304      4.9737107      34.76199       60.696211      313.07081      64.455172      77.101452    
  17030000   299.75882      0.9474235      0.94742342     0.93875809     1.703          58.740163      2.0649941      212            16.318481     -20.649941      24.076781      45.528603      313.18667      64.361637      77.316831    
  17040000   299.87213      0.94730453     0.94730445     0.96975482     1.704         -19.977668      1.0683876      219            25.711545     -10.683876      60.339135      27.479375      313.30254      64.562606      77.057332    
  17050000   298.45397      0.94737971     0.94737963     0.96532671     1.705          39.682703      3.5373271      218           -1.5335695     -35.373271     -21.975853      52.748416      313.41841      64.309892      77.325404    
  17060000   301.82784      0.94532662     0.94532653     0.96089861     1.706          32.80063       7.9425468      217           -41.864696     -79.425468      3.998335      -50.166954      313.53427      64.478407      77.262249    
  17070000   300.36593      0.94824763     0.94824754     0.9564705      1.707         -0.056166595    6.9765636      216           -32.728942     -69.765636     -51.54486       23.12367       313.65014      64.601552      76.849023    
  17080000   300.97245      0.94883553     0.94883544     0.9520424      1.708          0.93419023     4.7856394      215           -41.489623     -47.856394      3.2240369     -79.836512      313.766        64.655277      76.709252    
  17090000   301.25699      0.94851096     0.94851088     0.94761429     1.709          1.2011461      1.1606234      214            44.163279     -11.606234      61.643386      82.452685      313.88187      64.313757      77.114506    
  17100000   300.23298      0.94795392     0.94795383     0.91661757     1.71          -18.561103      0.48716017     207           -8.0140272     -4.8716017     -7.2176145     -11.952865      313.99774      64.177065      77.295632    
  17110000   299.76736      0.94802142     0.94802134     0.93875809     1.711          67.253221      8.1429544      212           -33.311848     -81.429544     -30.255593      11.749593      314.1136       64.316606      77.093993    
  17120000   302.19576      0.94786452     0.94786443     0.9520424      1.712          26.212856      6.6169432      215           -17.242731     -66.169432      7.5212339      6.9200048      314.22947      64.246488      77.162445    
  17130000   301.42273      0.9487691      0.94876901     0.96532671     1.713         -23.331773     -2.7515867      218            8.8471351      27.515867     -27.483856      26.509394      314.34534      63.942161      77.427225    
  17140000   298.6378       0.94778801     0.94778792     0.94318619     1.714         -13.344476      4.1401591      213           -17.583162     -41.401591     -8.0710279     -3.2768657      314.4612       64.025971      77.377394    
  17150000   301.02009      0.94933972     0.94933964     0.93875809     1.715         -16.066794     -0.5202347      212            30.455916      5.202347       7.7922122      78.373188      314.57707      64.339737      76.845875    
  17160000   301.72884      0.9478382      0.94783812     0.9520424      1.716          73.500939      1.1546936      215            2.3320885     -11.546936      2.1322947      16.410907      314.69294      63.886036      77.485673    
  17170000   299.73238      0.949199       0.94919892     0.92990188     1.717          5.8014435      2.2057612      210           -1.5445887     -22.057612     -1.6323214      19.056167      314.8088       64.308594      76.837885    
  17180000   300.12266      0.94583295     0.94583287     0.97861102     1.718         -1.7341915      9.4677962      221           -39.758362     -94.677962      1.2944115     -25.891536      314.92467      64.466472      76.89419     
  17190000   301.01191      0.94787727     0.94787719     0.93875809     1.719         -32.098034      2.4545034      212            14.119562     -24.545034      33.562645      33.341074      315.04053      64.295257      76.90438     
  17200000   300.75874      0.9473166      0.94731651     0.96975482     1.72          -6.0075921      5.0111606      219           -18.313508     -50.111606     -35.852655      31.023737      315.1564       64.039713      77.228553    
  17210000   298.22273      0.94730461     0.94730452     0.96975482     1.721          43.741178      8.14351        219           -44.554847     -81.4351       -18.626218     -33.603223      315.27227      64.062497      77.173691    
  17220000   298.99282      0.94598375     0.94598367     0.94761429     1.722          11.842317      1.7161148      214            4.9507193     -17.161148      52.473852     -20.460545      315.38813      63.892536      77.458557    
  17230000   299.69736      0.94792459     0.9479245      0.9520424      1.723         -21.718837      0.68889774     215           -29.30824      -6.8889774     -53.533009     -27.502733      315.504        64.216555      76.881685    
  17240000   301.02598      0.94647834     0.94647825     0.9520424      1.724          71.57087       10.11723       215           -28.257326     -101.1723       24.0707       -7.6703807      315.61987      64.107286      77.10209     
  17250000   300.31891      0.94862874     0.94862866     0.97861102     1.725         -10.387402      0.56667812     221            9.9225262     -5.6667812      21.511399      13.92296       315.73573      64.185536      76.805332    
  17260000   300.07703      0.9496974      0.94969732     0.94318619     1.726          16.465148     -0.2406024      213            3.1199477      2.406024      -34.204397      41.158216      315.8516       63.886102      77.050211    
  17270000   301.17342      0.94828494     0.94828485     0.94761429     1.727          13.973051      2.4834767      214            3.2078805     -24.834767      55.488877     -21.030468      315.96746      63.949179      77.060595    
  17280000   298.22676      0.94881244     0.94881236     0.9520424      1.728          29.622757      0.68448002     215           -1.3704896     -6.8448002     -9.8599219      12.593253      316.08333      64.100692      76.807542    
  17290000   301.92045      0.94728788     0.9472878      0.92990188     1.729          55.027995      3.256903       210           -37.341591     -32.56903      -29.653298     -49.802446      316.1992       64.107204      76.895154    
  17300000   299.43531      0.94729147     0.94729138     0.97418292     1.73           11.844576      3.1013124      220            5.6054088     -31.013124      62.59239      -14.76304       316.31506      63.934636      77.07417     
  17310000   301.45431      0.94606048     0.9460604      0.93432998     1.731          47.32782       6.670071       211           -23.057665     -66.70071      -31.296334      28.82405       316.43093      64.293815      76.715218    
  17320000   300.12558      0.94874933     0.94874925     0.97418292     1.732         -2.4245631      1.0037185      220            17.260412     -10.037185      15.863497      45.954923      316.5468       63.9359        76.89788     
  17330000   302.36681      0.94798864     0.94798855     0.99632344     1.733         -3.1392626      5.2867879      225           -28.574089     -52.867879      41.425033     -74.279421      316.66266      63.770496      77.130965    
  17340000   298.22371      0.94825076     0.94825068     0.93875809     1.734          14.29012      -0.54230685     212           -3.9401598      5.4230685     -17.830053      0.58650458     316.77853      63.626544      77.255832    
  17350000   296.96628      0.94904002     0.94903993     0.99632344     1.735          6.8411143      2.8547006      225            0.24344083    -28.547006      32.60989      -3.3325618      316.8944       63.788946      76.966909    
  17360000   302.58198      0.94657692     0.94657683     0.94318619     1.736          1.5524479      5.0677974      213           -9.3166597     -50.677974     -6.7220515      29.450046      317.01026      64.332421      76.487317    
  17370000   302.78904      0.94699418     0.9469941      0.92104567     1.737         -9.5270728      9.1882043      208           -69.739171     -91.882043     -87.854358     -29.481111      317.12613      64.258388      76.513733    
  17380000   298.04597      0.94917498     0.94917489     0.9520424      1.738         -20.181159     -8.6780142      215            37.287158      86.780142      0.85710045     24.224232      317.24199      63.933845      76.697424    
  17390000   300.84314      0.94798797     0.94798789     0.94318619     1.739         -28.730489     -1.5101073      213            28.482163      15.101073      69.441975      0.90344092     317.35786      64.09279       76.57505     
  17400000   299.92399      0.94806101     0.94806092     0.94761429     1.74           49.321868      4.5668377      214           -46.474172     -45.668377     -40.132009     -53.622131      317.47373      64.123868      76.504109    
  17410000   298.98389      0.94620461     0.94620453     0.92547377     1.741          11.498999      6.4894544      209           -33.680142     -64.894544     -23.223978     -12.921904      317.58959      64.313122      76.400752    
  17420000   299.94368      0.94787577     0.94787569     0.96975482     1.742         -8.5795666     -1.8306737      219            27.219556      18.306737      26.544969      36.806963      317.70546      64.619224      75.877098    
  17430000   300.75525      0.94817081     0.94817073     0.97418292     1.743         -25.948639      2.9740408      220           -4.2387428     -29.740408     -30.704366      47.728546      317.82133      64.281059      76.224733    
  17440000   300.79165      0.94923438     0.9492343      0.94761429     1.744          21.309402     -4.0263645      214            14.083908      40.263645      15.613072     -13.624992      317.93719      64.026818      76.413807    
  17450000   301.92287      0.94666787     0.94666779     0.92990188     1.745          27.960867      3.0325138      210            11.810407     -30.325138      25.656004      40.100356      318.05306      64.319703      76.244287    
  17460000   298.58186      0.9439814      0.94398132     0.94761429     1.746          12.741674      5.6170201      214           -26.325291     -56.170201     -24.491873      1.6862014      318.16892      64.343485      76.405174    
  17470000   300.69442      0.94844281     0.94844273     0.9564705      1.747         -9.6050803      5.2292787      216           -33.572871     -52.292787     -33.225471     -15.200353      318.28479      64.275322      76.098703    
  17480000   300.66306      0.9457639      0.94576381     0.97418292     1.748         -16.354737      0.93506463     220           -8.2326403     -9.3506463     -41.125611      25.778337      318.40066      64.364888      76.18033     
  17490000   300.03061      0.9494855      0.94948542     0.9564705      1.749          47.115916      2.483383       216           -8.8388177     -24.83383       20.668313     -22.350936      318.51652      64.138341      76.122059    
  17500000   300.35077      0.94672064     0.94672056     0.96089861     1.75           4.9879108      4.9133906      217            10.568683     -49.133906      83.520381     -2.6804254      318.63239      64.40898       75.995936    
  17510000   299.48171      0.9473822      0.94738211     0.93875809     1.751         -18.165614      2.7358879      212           -36.928865     -27.358879     -16.309234     -67.118481      318.74826      64.655362      75.625972    
  17520000   300.00415      0.94823847     0.94823839     0.96532671     1.752          10.552261      3.4606685      218           -4.7435642     -34.606685      35.142785     -14.766793      318.86412      64.571943      75.6278      
  17530000   299.76668      0.94953419     0.94953411     0.93875809     1.753         -4.3928946     -2.39871        212            39.009227      23.9871        9.5874309      83.453151      318.97999      64.768355      75.268218    
  17540000   300.46945      0.94757768     0.9475776      0.98303913     1.754          35.98902       5.6009296      222           -24.954624     -56.009296     -34.916968      16.062392      319.09586      64.561099      75.638282    
  17550000   298.99751      0.94654943     0.94654935     0.96532671     1.755         -9.9900746     -1.9586886      218            29.462194      19.586886      70.216144     -1.4164483      319.21172      64.561051      75.69302     
  17560000   299.55043      0.94754674     0.94754665     0.92547377     1.756          42.573021      3.8973808      209           -41.803006     -38.973808     -43.059672     -43.375539      319.32759      64.301078      75.891514    
  17570000   303.79494      0.94688041     0.94688032     0.92990188     1.757         -29.66502       7.8495324      210           -34.570912     -78.495324     -14.826316     -10.391096      319.44345      64.425109      75.771217    
  17580000   299.82782      0.94847045     0.94847036     0.96532671     1.758          9.2153651      1.6487069      218            4.0985524     -16.487069      0.36950752     28.413218      319.55932      64.153069      75.937418    
  17590000   300.80486      0.9482323      0.94823222     0.92104567     1.759          103.66691      2.8275545      208            3.1323817     -28.275545     -11.738198      49.410888      319.67519      63.899428      76.23035     
  17600000   301.17123      0.94717353     0.94717344     0.90333325     1.76           23.814267      10.362539      204           -65.253315     -103.62539     -55.65784      -36.476714      319.79105      64.171419      75.964564    
  17610000   301.05104      0.94872849     0.9487284      0.93875809     1.761          44.483294      9.8425247      212           -37.254947     -98.425247      30.420632     -43.760227      319.90692      64.111827      75.883058    
  17620000   298.51752      0.94913166     0.94913158     0.94761429     1.762         -10.810044     -9.0197492      214            31.665731      90.197492      56.247752     -51.44805       320.02279      64.202425      75.716365    
  17630000   300.12036      0.9486474      0.94864732     0.94318619     1.763         -13.520295      6.1176272      213           -46.848556     -61.176272     -19.261197     -60.108198      320.13865      64.165739      75.770895    
  17640000   300.70075      0.94979918     0.9497991      0.9564705      1.764         -36.322473     -4.7898309      216            3.6168111      47.898309     -41.924727      4.8768513      320.25452      64.047359      75.791459    
  17650000   299.94438      0.94746104     0.94746095     0.93875809     1.765         -46.858405      6.3756432      212           -48.633239     -63.756432     -55.460727     -26.68256       320.37038      63.868747      76.163419    
  17660000   300.66912      0.94676413     0.94676404     0.94761429     1.766         -4.4057442      4.2151198      214           -16.968987     -42.151198      24.124678     -32.880442      320.48625      63.96685       76.075075    
  17670000   300.11301      0.94926089     0.94926081     0.96532671     1.767          11.758028     -0.63938711     218            18.76988       6.3938711      21.768914      28.146857      320.60212      63.497482      76.408218    
  17680000   298.62767      0.94728301     0.94728292     0.94761429     1.768          7.5165442      0.40019927     214           -17.251021     -4.0019927     -51.005933      3.2548621      320.71798      63.815433      76.158744    
  17690000   301.81955      0.94853356     0.94853348     0.93432998     1.769         -23.320615      4.4639375      211            35.928647     -44.639375      126.18652      26.238801      320.83385      63.741909      76.118566    
  17700000   299.96556      0.948667       0.94866692     0.9520424      1.77           30.970001     -6.631646       215            32.252478      66.31646       37.522256     -7.0812815      320.94972      63.710752      76.11759     
  17710000   301.16229      0.9466758      0.94667571     0.93432998     1.771         -20.297412      1.1689146      211            0.51283838    -11.689146      2.8828438      10.344818      321.06558      64.010052      75.893633    
  17720000   301.58425      0.94826478     0.9482647      0.96975482     1.772         -5.7559368     -4.7715943      219            21.408394      47.715943      14.198781      2.3104577      321.18145      64.396284      75.284864    
  17730000   297.82817      0.9476528      0.94765272     0.94761429     1.773         -40.613459      4.2795505      214            1.4288795     -42.795505      48.160346     -1.0782021      321.29732      64.059447      75.70229     
  17740000   298.24256      0.94635008     0.94635        0.96532671     1.774         -8.5689937      3.911787       218           -50.555829     -39.11787      -78.590754     -33.958863      321.41318      63.999252      75.850447    
  17750000   301.96673      0.94788801     0.94788793     0.92990188     1.775         -31.77624       4.3934138      210           -22.763371     -43.934138      4.3990177     -28.754993      321.52905      63.624327      76.146178    
  17760000   299.74659      0.94718669     0.9471866      0.94761429     1.776          7.7838161      3.0318516      214           -32.416286     -30.318516     -8.7100933     -58.220248      321.64491      63.807473      75.956462    
  17770000   298.84198      0.94821047     0.94821039     0.94318619     1.777          53.963071      2.4247477      213           -28.848114     -24.247477     -53.157536     -9.1393291      321.76078      63.920737      75.712733    
  17780000   300.7293       0.94785987     0.94785979     0.96532671     1.778          29.395247      3.0260958      218            8.3890083     -30.260958      26.344015      29.083968      321.87665      63.835343      75.814757    
  17790000   298.81216      0.94690098     0.9469009      0.96089861     1.779          46.187512      3.6153701      217           -8.2110859     -36.153701      2.5221251      8.998318       321.99251      63.952377      75.72539     
  17800000   300.56127      0.94969286     0.94969278     0.94761429     1.78          -6.8821095      1.8068416      214            21.110723     -18.068416      51.299189      30.101397      322.10838      63.916446      75.518044    
  17810000   298.66292      0.94846116     0.94846108     0.93875809     1.781         -4.6659333      2.8646056      212            32.343164     -28.646056      96.683297      28.99225       322.22425      64.330573      75.102322    
  17820000   301.70016      0.9491707      0.94917062     0.9564705      1.782          53.373426     -0.82935159     216            25.954581      8.2935159      8.4191305      61.151096      322.34011      64.523901      74.79443     
  17830000   300.0474       0.94947295     0.94947286     0.98746723     1.783         -30.398091      5.832058       223           -34.058692     -58.32058      -13.32733      -30.528165      322.45598      64.25876       75.052158    
  17840000   299.66515      0.94729617     0.94729609     0.93875809     1.784         -24.005337     -1.9199226      212            11.796309      19.199226      25.865236     -9.6755352      322.57185      64.330752      75.113446    
  17850000   300.82918      0.94865233     0.94865224     0.97418292     1.785         -17.910204      2.5122646      220           -19.016679     -25.122646     -21.213732     -10.713658      322.68771      64.614169      74.650253    
  17860000   300.61466      0.94859791     0.94859783     0.98303913     1.786          7.897392      -1.1658156      222           -7.5019712      11.658156     -33.835751     -0.32831891     322.80358      64.479449      74.783663    
  17870000   299.09712      0.94702195     0.94702186     0.94761429     1.787         -19.971353      5.2437327      214           -9.9470774     -52.437327     -13.909614      36.505709      322.91944      64.33707       75.046948    
  17880000   301.4747       0.94602119     0.94602111     0.91661757     1.788          0.16590171     3.1843958      207           -20.547499     -31.843958     -1.7419693     -28.05657       323.03531      64.274463      75.172542    
  17890000   300.22614      0.94900739     0.94900731     0.94318619     1.789         -10.551867      5.9638316      213           -27.128644     -59.638316     -35.223807      13.476192      323.15118      64.044017      75.178672    
  17900000   299.13942      0.94837703     0.94837694     0.93875809     1.79          -44.909363     -0.81460466     212            8.5421915      8.1460466      10.144659      7.3358686      323.26704      63.744778      75.554699    
  17910000   300.48415      0.94870675     0.94870667     0.9520424      1.791          29.228357      3.7489383      215            12.961105     -37.489383      61.987059      14.385639      323.38291      63.907063      75.309652    
  17920000   301.93938      0.94797151     0.94797142     0.92990188     1.792          48.251428      4.8867554      210           -32.928231     -48.867554     -24.468178     -25.448962      323.49878      63.962785      75.275433    
  17930000   299.26142      0.9500145      0.95001441     0.97418292     1.793         -39.390151     -2.0485351      220           -1.6822896      20.485351     -55.409665      29.877445      323.61464      63.646259      75.460082    
  17940000   302.62886      0.94954521     0.94954513     0.97418292     1.794          13.292891      1.707247       220           -25.584858     -17.07247      -8.5932546     -51.088851      323.73051      63.510571      75.631595    
  17950000   299.26452      0.94818927     0.94818919     0.96975482     1.795         -35.191339     -5.0413638      219           -6.7351029      50.413638      0.36226174    -70.981208      323.84637      64.160613      74.945571    
  17960000   301.71718      0.95086922     0.95086913     0.9520424      1.796          28.072697      2.0156885      215            9.5137486     -20.156885      15.693962      33.004169      323.96224      64.314448      74.528919    
  17970000   298.98727      0.9461047      0.94610462     0.9564705      1.797          48.166197      5.9355737      216           -40.154283     -59.355737     -35.251931     -25.855181      324.07811      64.509394      74.651183    
  17980000   301.25016      0.945673       0.94567292     0.96089861     1.798          21.018168      8.0602547      217           -53.665552     -80.602547      6.7230026     -87.117112      324.19397      64.210793      75.005756    
  17990000   299.54217      0.94989699     0.94989691     0.94761429     1.799         -38.276236      3.7008611      214           -4.1025492     -37.008611      24.890642     -0.18967859     324.30984      64.186688      74.673575    
  18000000   299.78834      0.94972178     0.9497217      0.94761429     1.8           -3.1274879      3.5799076      214            11.927366     -35.799076      34.629903      36.95127       324.42571      64.590007      74.194475    
  18010000   301.86897      0.94769182     0.94769174     0.98746723     1.801         -70.665684     -0.034963281    223            22.535502      0.34963281     43.391005      23.865869      324.54157      64.718384      74.179417    
  18020000   299.57836      0.94811856     0.94811848     0.9520424      1.802          15.113614     -5.6146422      215            38.632128      56.146422      27.567057      32.182905      324.65744      64.657472      74.189395    
  18030000   298.76645      0.94586547     0.94586539     0.91218946     1.803          30.004059     -1.3930696      206           -25.884568      13.930696     -40.053226     -51.531175      324.77331      64.950061      74.004698    
  18040000   299.52166      0.94910949     0.94910941     0.94761429     1.804         -79.9418       -1.5170242      214            5.1835495      15.170242     -17.222273      17.60268       324.88917      64.938966      73.738047    
  18050000   300.21265      0.94682717     0.94682708     0.92547377     1.805         -63.78149       6.6268642      209           -4.5613157     -66.268642     -63.878815      116.46351      325.00504      65.167386      73.630448    
  18060000   301.03057      0.94817768     0.9481776      0.92104567     1.806          7.5706906      3.822905       208           -8.9559653     -38.22905       27.295678     -15.934524      325.1209       65.070502      73.608805    
  18070000   299.52884      0.9468343      0.94683422     0.93875809     1.807         -28.716519      5.1737423      212           -43.011484     -51.737423     -31.087391     -46.209638      325.23677      64.852976      73.934139    
  18080000   299.7078       0.94852077     0.94852068     0.96089861     1.808          81.69433       2.2034981      217           -52.953037     -22.034981     -44.429752     -92.39438       325.35264      64.430544      74.260108    
  18090000   299.40382      0.9500934      0.95009332     0.92547377     1.809         -12.706925      0.50651478     209            1.0601604     -5.0651478      14.567998     -6.3223688      325.4685       64.264111      74.302732    
  18100000   298.94018      0.94752077     0.94752068     0.9520424      1.81          -47.630988     -12.394289      215            68.288396      123.94289      70.406582      10.51572       325.58437      64.793564      73.86937     
  18110000   300.02447      0.94976047     0.94976038     0.97418292     1.811         -34.644439      3.1065305      220            5.6746307     -31.065305      37.837207      10.25199       325.70024      64.522092      73.978913    
  18120000   301.14304      0.94796146     0.94796138     0.92104567     1.812          28.378762      3.2066702      208           -3.186076      -32.066702     -0.88826513     23.396739      325.8161       64.677137      73.915333    
  18130000   300.03322      0.94963503     0.94963495     0.9520424      1.813         -40.241161      3.1485879      215           -11.120441     -31.485879      11.544988     -13.42043       325.93197      64.654955      73.784146    
  18140000   298.98493      0.94593683     0.94593675     0.89890515     1.814         -6.3067717     -0.46370915     203           -14.284697      4.6370915     -45.376877     -2.1143049      326.04783      64.666215      74.033393    
  18150000   299.87801      0.94977825     0.94977817     0.90776136     1.815          39.9291        8.274803       205           -23.196245     -82.74803       27.523327     -14.364033      326.1637       64.738484      73.625487    
  18160000   298.44532      0.94693405     0.94693397     0.93875809     1.816          91.978712      5.9255569      212           -30.494309     -59.255569      9.5844765     -41.811835      326.27957      65.160196      73.342644    
  18170000   297.57872      0.94706101     0.94706093     0.94318619     1.817         -34.23603       0.46593322     213           -1.889595      -4.6593322      4.1122031     -5.1216558      326.39543      65.011462      73.47449     
  18180000   300.83585      0.94761891     0.94761882     0.90776136     1.818          46.030533      0.12177174     205            8.0361476     -1.2177174      37.334325     -12.008165      326.5113       64.661443      73.802526    
  18190000   301.00508      0.94901555     0.94901547     0.93875809     1.819          31.271585     -1.7256219      212            27.501633      17.256219      56.549189      8.6994897      326.62717      64.717869      73.603541    
  18200000   298.74634      0.94614285     0.94614276     0.94761429     1.82           44.729139      4.9461265      214           -20.259696     -49.461265     -8.3417667     -2.9760565      326.74303      64.851448      73.648826    
  18210000   300.63274      0.94903028     0.9490302      0.93432998     1.821          16.953858     -3.0233775      211            54.872448      30.233775      69.915973      64.467596      326.8589       64.915093      73.326759    
  18220000   299.73854      0.94789732     0.94789724     0.98303913     1.822          41.95507       4.1676135      222            3.0354764     -41.676135      15.920436      34.862128      326.97477      64.777013      73.544822    
  18230000   299.10719      0.948005       0.94800492     0.92990188     1.823          78.02676       16.658989      210           -67.517751     -166.58989     -19.954776     -16.008586      327.09063      64.74547       73.546232    
  18240000   299.17087      0.94786179     0.9478617      0.93432998     1.824         -9.6051923      6.4572193      211           -39.719619     -64.572193     -10.706578     -43.880086      327.2065       64.896158      73.360559    
  18250000   300.74956      0.94942485     0.94942477     0.90776136     1.825          31.006012      4.7398483      205           -22.420837     -47.398483     -12.633252     -7.2307749      327.32236      64.657612      73.483971    
  18260000   300.55292      0.94932509     0.94932501     0.93432998     1.826          14.8152        4.5636516      211           -14.533943     -45.636516     -1.2623913      3.2970791      327.43823      64.720924      73.393821    
  18270000   298.43119      0.94864544     0.94864535     0.96089861     1.827          20.632392      0.61697555     217            10.234758     -6.1697555      31.434998      5.4390301      327.5541       64.901443      73.216209    
  18280000   300.42917      0.95004887     0.95004879     0.9564705      1.828         -11.605073     -4.9640797      216            32.450365      49.640797      7.7478988      39.962399      327.66996      64.562693      73.465651    
  18290000   298.76401      0.94975942     0.94975933     0.93875809     1.829          8.5972709     -4.5310931      212            45.153705      45.310931      55.978353      34.171831      327.78583      64.337279      73.719449    
  18300000   300.26708      0.94755399     0.9475539      0.96089861     1.83           54.200484      2.4162406      217           -11.557545     -24.162406     -8.4134606     -2.0967686      327.9017       64.144953      74.08639     
  18310000   301.28244      0.94634355     0.94634347     0.97861102     1.831          28.590243      7.2740949      221           -67.990135     -72.740949     -48.031106     -83.198351      328.01756      64.030401      74.287613    
  18320000   300.20292      0.9500854      0.95008531     0.94318619     1.832          11.350081      5.6862793      213           -11.306344     -56.862793      66.337939     -43.394178      328.13343      64.08867       73.901656    
  18330000   301.37438      0.94913111     0.94913103     0.97418292     1.833          41.561326      5.892403       220           -77.147114     -58.92403      -90.120875     -82.396439      328.24929      64.536017      73.437246    
  18340000   300.60462      0.95169825     0.95169817     0.96532671     1.834          80.748325     -2.2805196      218            15.801559      22.805196      10.722323      13.877158      328.36516      64.479413      73.277582    
  18350000   299.19728      0.94724251     0.94724243     0.9520424      1.835          20.630186     -0.085078525    215           -7.2436022      0.85078525    -18.814403     -3.7671886      328.48103      64.459571      73.618959    
  18360000   299.84172      0.94617428     0.9461742      0.97418292     1.836         -46.106952     -1.0931042      220            0.76945399     10.931042      30.246721     -38.869401      328.59689      64.30901       73.848578    
  18370000   299.54473      0.94612414     0.94612406     0.98746723     1.837         -1.0715718      2.6739375      223           -25.878918     -26.739375     -33.629535     -17.267844      328.71276      64.484693      73.625325    
  18380000   299.2685       0.94911199     0.94911191     0.94318619     1.838          6.571472       4.0906135      213           -16.459468     -40.906135      39.818756     -48.291023      328.82863      64.362245      73.507269    
  18390000   299.54564      0.94687126     0.94687118     0.93875809     1.839          36.152937      5.0286748      212           -20.290182     -50.286748     -20.925634      10.341837      328.94449      64.629173      73.35106     
  18400000   299.58318      0.94651422     0.94651414     0.97418292     1.84           32.056088      2.5118529      220           -1.2256043     -25.118529      34.519695     -13.077979      329.06036      64.891317      73.056566    
  18410000   299.47813      0.94669145     0.94669137     0.93432998     1.841         -78.431498     -5.7262873      211            14.075117      57.262873      17.752967     -32.790489      329.17623      64.835122      73.080465    
  18420000   300.81563      0.94866642     0.94866633     0.96532671     1.842          23.221167      1.5382773      218            6.8103913     -15.382773      11.975106      23.838842      329.29209      64.700884      73.053918    
  18430000   297.59693      0.94603952     0.94603943     0.96532671     1.843         -29.144198      7.6128775      218           -33.999622     -76.128775     -31.836721      5.9666296      329.40796      65.000219      72.893762    
  18440000   297.50417      0.94892845     0.94892837     1.0007515      1.844         -48.1438        1.0421035      226           -0.79428588    -10.421035      16.541627     -8.503449       329.52382      64.83199       72.834797    
  18450000   299.90622      0.94854146     0.94854137     0.92547377     1.845          60.432251      4.8814157      209           -17.174172     -48.814157     -23.3385        20.630141      329.63969      64.941166      72.716448    
  18460000   299.41006      0.9477442      0.94774411     1.0007515      1.846          33.156708      2.8272898      226           -9.8620274     -28.272898     -8.7220727      7.4088881      329.75556      65.075488      72.60188     
  18470000   298.91088      0.94756445     0.94756437     0.93875809     1.847          5.1118235      5.6445662      212           -43.306906     -56.445662     -76.565816      3.090761       329.87142      65.38908       72.242018    
  18480000   300.72661      0.94736033     0.94736025     0.96975482     1.848          6.0963049      10.870684      219           -67.910478     -108.70684     -44.447653     -50.576937      329.98729      65.432613      72.184155    
  18490000   299.36172      0.94867779     0.94867771     0.92990188     1.849          50.466194      8.4470965      210           -49.994279     -84.470965     -55.027479     -10.484395      330.10316      65.338403      72.16251     
  18500000   300.1369       0.9500914      0.95009132     0.92547377     1.85          -70.3366        0.066213526    209           -32.092167     -0.66213526    -66.682797     -28.93157       330.21902      65.134979      72.254816    
  18510000   298.27104      0.9495296      0.94952952     0.98303913     1.851         -95.3284       -2.3477691      222            41.463408      23.477691      80.53002       20.382513      330.33489      64.984071      72.44004     
  18520000   299.1598       0.94725408     0.947254       0.96975482     1.852         -24.420383      7.2356481      219           -38.735258     -72.356481     -22.316206     -21.533088      330.45076      65.065669      72.497565    
  18530000   301.0563       0.9477059      0.94770582     0.96975482     1.853         -38.185285      0.28285375     219           -1.0031011     -2.8285375      1.0320466     -1.2128125      330.56662      65.247324      72.235928    
  18540000   299.80758      0.94856505     0.94856497     0.94761429     1.854         -5.6908106     -0.60672229     214           -4.9367861      6.0672229     -24.784395      3.9068141      330.68249      64.977567      72.444729    
  18550000   299.17319      0.95027177     0.95027169     0.89890515     1.855          23.601041     -0.79404363     203           -2.2338862      7.9404363     -26.703105      12.06101       330.79835      65.100844      72.152398    
  18560000   298.95393      0.94785822     0.94785813     0.9564705      1.856          33.487644      0.17410508     216            3.6420779     -1.7410508      0.77258239     11.894702      330.91422      65.287341      72.104233    
  18570000   301.29242      0.94999229     0.9499922      0.92990188     1.857         -3.8240274      0.89207137     210            0.5729285     -8.9207137      9.9286727      0.71082651     331.03009      65.041621      72.188771    
  18580000   302.88101      0.94742133     0.94742125     0.96532671     1.858          17.430721      10.441062      218           -64.174723     -104.41062     -55.728708     -32.384841      331.14595      65.274194      72.10152     
  18590000   299.16777      0.94759614     0.94759606     0.93875809     1.859         -31.938693      1.974008       212            7.9619321     -19.74008      -41.831896      85.457772      331.26182      65.140408      72.211009    
  18600000   300.25513      0.94912291     0.94912283     0.97418292     1.86          -23.731641     -1.6665625      220            9.2673338      16.665625     -1.5230917      12.659468      331.37769      64.893841      72.343473    
  18610000   299.94653      0.95021172     0.95021164     0.9520424      1.861         -20.375646      9.720144       215           -47.139337     -97.20144      -36.831468     -7.3851015      331.49355      64.883535      72.246793    
  18620000   298.77044      0.95138189     0.95138181     0.94761429     1.862         -6.4478314      0.65880502     214            11.466306     -6.5880502      28.511283      12.475684      331.60942      64.737157      72.295821    
  18630000   299.65935      0.94727976     0.94727968     0.9520424      1.863         -24.743761      3.9910414      215           -16.010059     -39.910414      6.1847683     -14.304531      331.72528      64.915818      72.383767    
  18640000   299.25087      0.94736999     0.94736991     0.93432998     1.864          28.464573      5.6372787      211           -3.752566      -56.372787      3.0918267      42.023262      331.84115      64.866371      72.406755    
  18650000   300.8097       0.95094319     0.9509431      0.99632344     1.865         -72.501529     -8.6258243      225            95.340359      86.258243      121.55182      78.21101       331.95702      64.891599      72.081473    
  18660000   300.99932      0.9488448      0.94884472     0.96975482     1.866         -7.5688995      12.524942      219           -36.706046     -125.24942      11.900769      3.2305093      332.07288      64.769084      72.352277    
  18670000   301.06555      0.94944568     0.9494456      0.94318619     1.867          26.904224      3.2120356      213           -24.043732     -32.120356     -7.7172884     -32.293551      332.18875      64.603364      72.466681    
  18680000   296.80761      0.94590405     0.94590397     0.92104567     1.868         -47.971106      8.3025092      208           -22.435854     -83.025092      60.631098     -44.913568      332.30462      64.493897      72.836064    
  18690000   299.30727      0.94831266     0.94831257     0.96975482     1.869          17.799928      0.22179205     219           -1.2022336     -2.2179205      10.424982     -11.813762      332.42048      64.608293      72.497155    
  18700000   300.74697      0.94937339     0.9493733      0.94318619     1.87           12.329767      5.7673985      213           -9.3862072     -57.673985      20.584879      8.9304843      332.53635      64.689945      72.29955     
  18710000   300.75187      0.94949478     0.9494947      0.91218946     1.871          41.338698      5.2086058      206            4.5877828     -52.086058      7.8626499      57.986757      332.65222      64.798229      72.144364    
  18720000   300.74596      0.94698603     0.94698595     0.91661757     1.872         -36.723666      0.98396511     207           -30.887472     -9.8396511     -28.995256     -53.82751       332.76808      64.745605      72.369075    
  18730000   302.57814      0.94791245     0.94791237     0.94318619     1.873          8.1065492      4.5037716      213           -47.045304     -45.037716     -49.738065     -46.36013       332.88395      64.351407      72.715907    
  18740000   302.50952      0.94904403     0.94904395     0.92104567     1.874          29.064501     -1.9147375      208            23.57668       19.147375      33.717497      17.865167      332.99981      64.252796      72.715361    
  18750000   299.94489      0.94829125     0.94829117     0.93875809     1.875         -23.0938       -2.219754       212           -17.481224      22.19754      -70.765803     -3.8754089      333.11568      64.30844       72.684827    
  18760000   299.94073      0.94704596     0.94704588     0.92104567     1.876         -31.064952      8.8208041      208           -65.041339     -88.208041     -44.487242     -62.428734      333.23155      64.407557      72.643132    
  18770000   299.98117      0.94835728     0.9483572      0.89447704     1.877         -12.440952     -7.1912558      202           -3.0455311      71.912558     -0.53766391    -80.511488      333.34741      64.416598      72.507293    
  18780000   299.02806      0.94838951     0.94838943     0.98746723     1.878         -13.325933      7.9299782      223           -33.823987     -79.299782      30.710609     -52.882787      333.46328      64.344577      72.560763    
  18790000   300.58966      0.94869151     0.94869142     0.91218946     1.879         -40.98691       3.0066266      206           -8.3708552     -30.066266     -1.029295       5.9829954      333.57915      64.441552      72.403349    
  18800000   298.55144      0.94793071     0.94793062     0.90776136     1.88          -7.4552399      6.8297966      205           -8.5147659     -68.297966      30.579049      12.17462       333.69501      64.588392      72.271617    
  18810000   299.57662      0.94901999     0.9490199      0.96975482     1.881         -1.3638336      4.5591939      219           -22.60678      -45.591939     -9.2909528     -12.937448      333.81088      64.345572      72.43593     
  18820000   300.6504       0.94666729     0.94666721     0.9564705      1.882         -28.73958       6.4717083      216           -12.863442     -64.717083      21.028114      5.0986413      333.92674      64.35174       72.583797    
  18830000   301.10262      0.94985082     0.94985073     0.94761429     1.883         -48.637977      2.7109706      214           -5.6215296     -27.109706      0.64623194     9.598885       334.04261      64.070199      72.633205    
  18840000   298.11872      0.94817232     0.94817224     0.96089861     1.884         -44.711878      5.1227186      217           -11.11705      -51.227186     -16.162866      34.038902      334.15848      64.15637       72.638859    
  18850000   299.75169      0.94903871     0.94903862     0.94761429     1.885         -27.100604     -0.14817012     214            6.0555764      1.4817012     -16.913314      33.598342      334.27434      63.986659      72.739807    
  18860000   299.08832      0.94630403     0.94630395     0.93875809     1.886         -55.142271     -0.1589988      212           -70.677688      1.589988      -119.55317     -94.069878      334.39021      64.004227      72.904721    
  18870000   300.25503      0.94827143     0.94827135     0.96532671     1.887          44.988538     -0.58246113     218            19.53887       5.8246113      29.637758      23.154242      334.50608      63.955125      72.784101    
  18880000   300.66844      0.95002186     0.95002178     0.94318619     1.888          31.460174      3.869162       213           -18.141386     -38.69162      -4.5282289     -11.20431       334.62194      63.809207      72.790916    
  18890000   299.90629      0.94836661     0.94836653     0.96975482     1.889          49.106937      9.7609492      219           -54.711736     -97.609492     -26.931084     -39.594633      334.73781      63.918035      72.768615    
  18900000   298.44739      0.94781396     0.94781388     0.90333325     1.89           14.595433      8.0201501      204            32.247896     -80.201501      95.29084       81.65435       334.85368      63.550941      73.206289    
  18910000   299.62664      0.94699447     0.94699439     0.92990188     1.891         -12.56252       2.8102417      210           -29.38812      -28.102417     -8.7480815     -51.313861      334.96954      63.750887      73.014574    
  18920000   301.89471      0.94617459     0.94617451     0.9520424      1.892         -13.419127      2.6837294      215           -17.189145     -26.837294     -61.73459       37.004448      335.08541      63.650602      73.167672    
  18930000   299.10309      0.94668198     0.94668189     0.90776136     1.893          76.288233      9.0207352      205           -65.091416     -90.207352     -43.200712     -61.866183      335.20127      63.792046      72.94109     
  18940000   299.4434       0.9469451      0.94694502     0.93875809     1.894         -34.971718     -0.39843448     212            12.87584       3.9843448      56.421152     -21.777977      335.31714      63.691448      73.010761    
  18950000   298.61008      0.94872818     0.9487281      0.94761429     1.895          89.879211      3.0173672      214           -13.531975     -30.173672      23.993887     -34.416141      335.43301      63.872878      72.641444    
  18960000   299.73774      0.94606776     0.94606768     0.9564705      1.896         -3.6901463      4.2194815      216           -26.928622     -42.194815     -22.873436     -15.717617      335.54887      64.299364      72.337558    
  18970000   300.31177      0.94813347     0.94813338     0.98746723     1.897         -1.5936865      2.0622992      223            10.421808     -20.622992      44.848602      7.0398144      335.66474      64.277492      72.179593    
  18980000   297.54309      0.94774444     0.94774436     0.96089861     1.898          6.4911933     -1.6858071      217            6.0862869      16.858071     -38.207379      39.608168      335.78061      64.210681      72.259412    
  18990000   300.83986      0.94800685     0.94800677     0.9564705      1.899         -25.318214     -1.6995256      216            16.282492      16.995256      49.996252     -18.144033      335.89647      64.635177      71.740218    
  19000000   300.57536      0.94761986     0.94761977     0.94318619     1.9           -24.967104      3.809614       213           -24.98576      -38.09614       10.307335     -47.168473      336.01234      64.275382      72.146374    
  19010000   300.41609      0.94773337     0.94773328     0.96975482     1.901         -45.45351      -2.3097569      219            30.907899      23.097569      37.225903      32.400226      336.1282       64.146583      72.257661    
  19020000   300.39672      0.94874067     0.94874059     0.98303913     1.902         -42.122806      5.0426734      222           -34.473399     -50.426734      15.110873     -68.104335      336.24407      64.263211      72.025118    
  19030000   301.17413      0.94877638     0.9487763      0.98746723     1.903         -5.2745154      0.52917216     223            18.065781     -5.2917216     -0.93820719     60.427271      336.35994      64.50176       71.731326    
  19040000   300.96176      0.94808588     0.9480858      0.97418292     1.904         -29.089         4.2797496      220           -15.938792     -42.797496     -9.5416948      4.5228142      336.4758       64.178651      72.120122    
  19050000   300.40518      0.9476384      0.94763831     0.92547377     1.905          34.213272     -3.9511383      209            27.585047      39.511383      21.827059      21.4167        336.59167      64.732668      71.512018    
  19060000   300.12691      0.94769878     0.9476987      0.94761429     1.906          1.9821872      4.4817774      214           -26.957624     -44.817774     -40.813789      4.7586917      336.70754      64.880819      71.319628    
  19070000   301.38518      0.94926335     0.94926327     0.92547377     1.907          2.1567556      3.9775401      209           -13.611014     -39.775401      13.304363     -14.362002      336.8234       64.676444      71.402505    
  19080000   300.41347      0.94768366     0.94768357     0.90333325     1.908          52.978468      5.7051606      204           -1.9624998     -57.051606      23.167497      27.996609      336.93927      64.998201      71.143003    
  19090000   299.59494      0.94735059     0.94735051     0.97418292     1.909         -9.4920325     -0.66093241     220            26.627398      6.6093241      52.974545      20.298325      337.05514      64.611931      71.568868    
  19100000   300.93283      0.94897801     0.94897793     0.97861102     1.91           24.55104       9.0505182      221           -19.594782     -90.505182     -22.418985      54.139821      337.171        64.538291      71.503076    
  19110000   299.83397      0.95021829     0.95021821     0.94761429     1.911         -4.6852575      5.0180962      214           -8.2753535     -50.180962     -16.105214      41.460116      337.28687      64.173739      71.790734    
  19120000   300.80328      0.9463496      0.94634952     0.9520424      1.912          17.944108      10.432224      215           -56.79009      -104.32224     -47.526683     -18.521343      337.40273      64.235342      71.990354    
  19130000   299.50152      0.94668475     0.94668467     0.94761429     1.913         -28.868815      0.59751849     214            31.713318     -5.9751849      81.984653      19.130485      337.5186       64.004121      72.200054    
  19140000   298.00109      0.94953182     0.94953173     0.92104567     1.914         -7.3971036      0.72086194     208            8.1639151     -7.2086194      24.600229      7.1001363      337.63447      63.972814      71.994082    
  19150000   298.94358      0.94687474     0.94687466     0.96975482     1.915          22.18448       0.98833647     219           -18.682595     -9.8833647     -14.471996     -31.692425      337.75033      63.906006      72.246791    
  19160000   298.86324      0.94884048     0.9488404      0.96089861     1.916         -2.0876203      3.6177559      217            19.586996     -36.177559      43.848375      51.090173      337.8662       64.074272      71.88312     
  19170000   298.66707      0.95009455     0.95009447     0.93432998     1.917         -3.3655968     -4.5006812      211            49.579699      45.006812      53.033862      50.698422      337.98207      63.756067      72.121799    
  19180000   299.81117      0.94689273     0.94689265     0.98746723     1.918         -36.983742      2.1471372      223           -30.917347     -21.471372     -74.350838      3.0701681      338.09793      64.120219      71.930032    
  19190000   299.8624       0.9483083      0.94830822     0.9564705      1.919          0.43426169     0.84423121     216            0.021230529   -8.4423121      9.4586085     -0.95260485     338.2138       63.766217      72.196647    
  19200000   298.91974      0.94964058     0.94964049     0.91661757     1.92           14.802887     -1.7987639      207            25.905279      17.987639     -4.6482052      64.376402      338.32967      63.710572      72.133617    
  19210000   300.33754      0.94780872     0.94780864     0.93875809     1.921         -28.184955      7.729624       212           -45.472487     -77.29624      -26.309988     -32.811232      338.44553      63.732545      72.223379    
  19220000   298.97394      0.94812418     0.9481241      0.92990188     1.922          8.4410826     -3.8078725      210           -7.8962816      38.078725     -55.531697     -6.2358725      338.5614       63.547082      72.385283    
  19230000   301.58113      0.9476515      0.94765142     0.93432998     1.923         -61.409933      3.6999108      211           -39.662491     -36.999108     -39.643813     -42.344553      338.67726      63.697547      72.225597    
  19240000   300.30082      0.9482831      0.94828301     0.9520424      1.924          50.007893     -0.97030007     215            40.336185      9.7030007      54.154565      57.15099       338.79313      63.443941      72.441226    
  19250000   300.65439      0.94774983     0.94774975     0.9564705      1.925          75.067357      18.148188      216           -101.1101      -181.48188     -76.974197     -44.87423       338.909        63.596479      72.283416    
  19260000   299.27889      0.94638957     0.94638949     0.93432998     1.926         -18.993705     -0.24111085     211            10.814056      2.4111085     -1.6881718      31.719232      339.02486      63.444628      72.535766    
  19270000   301.19598      0.94884249     0.94884241     0.9564705      1.927          16.326979      4.2125764      216           -45.712691     -42.125764     -35.657375     -59.354933      339.14073      63.355546      72.425222    
  19280000   301.21655      0.9477069      0.94770682     0.93875809     1.928         -30.116694      2.5216935      212            18.732035     -25.216935      47.555017      33.858024      339.2566       63.510763      72.310086    
  19290000   301.453        0.94836658     0.9483665      0.93875809     1.929         -3.2782015      1.9167125      212           -12.195251     -19.167125     -11.710669     -5.7079574      339.37246      63.438883      72.316964    
  19300000   300.36844      0.94569962     0.94569954     0.9564705      1.93          -22.482814      2.6933246      216           -15.482545     -26.933246     -0.76028795    -18.754102      339.48833      63.357861      72.588861    
  19310000   298.83606      0.94595429     0.94595421     0.9520424      1.931         -10.294595      6.7480527      215           -10.290413     -67.480527      40.10284      -3.4935527      339.60419      63.102895      72.837675    
  19320000   299.94227      0.94803967     0.94803958     0.96975482     1.932         -26.996098     -1.4266265      219           -13.850357      14.266265     -44.084139     -11.733197      339.72006      62.942149      72.838212    
  19330000   299.22826      0.94713807     0.94713799     0.94761429     1.933         -31.901397     -4.2154253      214           -2.5408095      42.154253     -79.355453      29.578772      339.83593      62.794964      73.053521    
  19340000   298.63717      0.94734787     0.94734779     0.96532671     1.934         -45.102777      6.1266883      218           -39.306919     -61.266883     -48.669583     -7.9842922      339.95179      62.884881      72.908051    
  19350000   300.03207      0.9457608      0.94576071     0.99632344     1.935         -14.706031      1.0949971      225            6.1411312     -10.949971     -11.26192       40.635285      340.06766      63.253299      72.580295    
  19360000   301.08908      0.94610916     0.94610908     0.94318619     1.936          26.525404      5.8196898      213           -36.676094     -58.196898     -19.089353     -32.742032      340.18353      63.02628       72.790106    
  19370000   299.7783       0.94777025     0.94777017     0.92104567     1.937         -14.011854      6.5601122      208           -8.1590151     -65.601122     -16.748424      57.872501      340.29939      62.729247      72.981743    
  19380000   299.30159      0.94970212     0.94970203     0.96975482     1.938         -11.20833       3.3137832      219            11.788806     -33.137832      35.441877      33.062372      340.41526      62.659755      72.889242    
  19390000   299.85278      0.94772501     0.94772493     0.9520424      1.939          39.107204      3.9327945      215           -1.7834926     -39.327945      51.562677     -17.585209      340.53113      62.504548      73.197758    
  19400000   301.97411      0.94748552     0.94748544     0.94761429     1.94           51.728889      5.073279       214           -49.893712     -50.73279      -17.353307     -81.595039      340.64699      62.685018      72.980638    
  19410000   300.95981      0.94974368     0.94974359     0.9564705      1.941          85.615128      3.5872393      216           -11.980267     -35.872393     -35.248295      35.179885      340.76286      62.87142       72.566574    
  19420000   301.11277      0.9463443      0.94634421     0.97861102     1.942          0.080053924    2.46677        221           -29.233593     -24.6677       -20.511317     -42.521761      340.87872      62.657454      73.051097    
  19430000   299.59259      0.94548549     0.94548541     0.92104567     1.943          46.048915      8.1608918      208           -48.333703     -81.608918     -29.524554     -33.867636      340.99459      62.61942       73.137002    
  19440000   301.94491      0.94847056     0.94847048     0.92547377     1.944          33.479225      1.76678        209           -43.967454     -17.6678       -78.733291     -35.50127       341.11046      62.425854      73.108045    
  19450000   300.69845      0.9503541      0.95035401     0.91661757     1.945          6.2543513     -3.234874       207            60.538204      32.34874       49.437108      99.828763      341.22632      62.152868      73.258732    
  19460000   300.84553      0.94928396     0.94928388     0.93875809     1.946          0.086136795    9.9687139      212           -44.864104     -99.687139     -43.510753      8.6055791      341.34219      62.149731      73.320123    
  19470000   300.91914      0.94882743     0.94882735     0.92104567     1.947         -28.011923     -1.8595935      208            57.659675      18.595935      78.91642       75.46667       341.45806      62.105216      73.38307     
  19480000   299.96979      0.94788897     0.94788889     0.93875809     1.948         -25.212582      4.4627123      212           -58.346128     -44.627123     -89.815263     -40.595999      341.57392      62.288497      73.21474     
  19490000   298.90933      0.94514681     0.94514673     0.91218946     1.949         -13.242522     -0.00035404192  206            0.29715097     0.0035404192   21.619446     -20.731533      341.68979      62.567388      73.075073    
  19500000   299.17253      0.94864809     0.94864801     0.93432998     1.95          -5.3904387      4.0157152      211            9.7031592     -40.157152      44.949372      24.317257      341.80565      62.452978      72.914017    
  19510000   299.87061      0.94701174     0.94701166     0.97418292     1.951         -27.253769     -3.473481       220            19.361642      34.73481       24.651766     -1.3016488      341.92152      62.533868      72.920805    
  19520000   300.45301      0.94785887     0.94785879     0.92990188     1.952         -5.1603634     -9.1200066      210            26.041082      91.200066      25.464764     -38.541583      342.03739      62.734122      72.59847     
  19530000   301.60142      0.94933411     0.94933403     0.96532671     1.953         -28.56809      -3.2779503      218           -5.1785352      32.779503     -10.52157      -37.793538      342.15325      62.545551      72.679574    
  19540000   299.10562      0.94846488     0.9484648      0.89890515     1.954          11.643992      0.79054998     203           -49.52379      -7.9054998     -63.69979      -76.966082      342.26912      62.44143       72.842819    
  19550000   297.8361       0.9481524      0.94815231     0.92547377     1.955         -37.789856     -3.7389521      209            15.954839      37.389521      20.359101     -9.8841038      342.38499      62.316901      72.987728    
  19560000   299.29155      0.94984122     0.94984114     0.96089861     1.956          7.2317519      3.6627063      217            44.257066     -36.627063      62.389959      107.0083       342.50085      62.221832      72.94459     
  19570000   298.62677      0.94679579     0.94679571     0.96532671     1.957         -64.72213       8.726127       218           -17.145901     -87.26127       20.94702       14.876547      342.61672      62.209647      73.168802    
  19580000   298.83866      0.95061826     0.95061818     0.93875809     1.958          49.080522      1.7582786      212            10.5886       -17.582786      45.952979      3.3956077      342.73259      62.104233      72.973604    
  19590000   300.85487      0.94704106     0.94704098     0.97418292     1.959         -66.815195      5.7551107      220           -34.517296     -57.551107     -18.951779     -27.049002      342.84845      62.100655      73.228708    
  19600000   298.93337      0.94595073     0.94595064     0.90776136     1.96           41.524311      11.427007      205           -37.486914     -114.27007     -10.41021       12.219539      342.96432      62.115821      73.270452    
  19610000   299.32442      0.94613466     0.94613457     0.9564705      1.961          45.509253      3.4688701      216           -26.31956      -34.688701     -13.665446     -30.604532      343.08018      61.980323      73.391562    
  19620000   298.74736      0.94595827     0.94595819     0.96532671     1.962         -34.417264      2.8005461      218           -34.58671      -28.005461     -34.304049     -41.45062       343.19605      61.975627      73.386025    
  19630000   299.9447       0.94615484     0.94615475     0.96089861     1.963         -13.578036      3.128127       217           -15.391566     -31.28127      -11.896486     -2.9969422      343.31192      62.221861      73.05576     
  19640000   299.76507      0.95098435     0.95098427     0.96975482     1.964         -7.1532079      5.3055908      219           -56.726286     -53.055908     -53.991181     -63.13177       343.42778      62.052743      72.858256    
  19650000   299.95212      0.94769771     0.94769763     0.90776136     1.965          38.249088     -0.38669228     205           -14.313257      3.8669228     -37.785608     -9.0210851      343.54365      62.223702      72.885468    
  19660000   299.66308      0.94643928     0.9464392      0.94761429     1.966         -29.367232     -0.45708572     214            8.5770188      4.5708572      7.9488551      13.211344      343.65952      62.150836      73.04331     
  19670000   300.42803      0.95025774     0.95025765     0.98746723     1.967         -25.974297     -0.70386066     223           -3.1485045      7.0386066     -21.104528      4.6204078      343.77538      62.134425      72.744486    
  19680000   302.03263      0.94761396     0.94761388     0.93432998     1.968          24.060207     -4.0257725      211            10.741247      40.257725     -13.223939      5.1899555      343.89125      62.15427       72.899576    
  19690000   300.58456      0.94754309     0.94754301     0.93432998     1.969          30.348366      2.8688924      211           -20.62477      -28.688924      17.301153     -50.486539      344.00711      62.327571      72.67783     
  19700000   300.43892      0.94978506     0.94978498     0.94761429     1.97           24.174252      6.068024       214           -30.697308     -60.68024      -8.8473184     -22.564364      344.12298      62.359122      72.445188    
  19710000   301.67255      0.94804553     0.94804544     0.96975482     1.971         -27.178102      1.5526214      219            8.8998049     -15.526214      20.984339      21.241289      344.23885      61.988257      72.987763    
  19720000   300.18952      0.94782137     0.94782128     0.94761429     1.972         -15.867593      0.32916502     214           -8.860727      -3.2916502      7.1370051     -30.427536      344.35471      62.216761      72.712424    
  19730000   298.96107      0.94953532     0.94953523     0.96089861     1.973         -5.5093156      3.9796259      217           -13.871525     -39.796259      7.8169704     -9.6352877      344.47058      62.368866      72.379811    
  19740000   297.46121      0.94537436     0.94537428     0.93432998     1.974          8.7036383      5.1412535      211           -32.432643     -51.412535     -13.644164     -32.241232      344.58645      62.419946      72.614466    
  19750000   301.16494      0.94937694     0.94937685     0.92547377     1.975          22.008781     -3.5154817      209           -22.172667      35.154817     -35.87652      -65.796298      344.70231      62.064172      72.698376    
  19760000   301.42672      0.94718089     0.94718081     0.97418292     1.976          13.870654      1.4594307      220           -6.0873729     -14.594307     -26.764299      23.096487      344.81818      62.304696      72.561239    
  19770000   300.03667      0.94666766     0.94666757     0.9564705      1.977         -42.782923      6.13851        216           -12.129657     -61.3851        46.797363     -21.801235      344.93405      62.218095      72.677209    
  19780000   299.67911      0.94540195     0.94540186     0.99189534     1.978          12.97558       9.5188184      224           -68.772436     -95.188184     -63.770626     -47.358498      345.04991      62.604212      72.30138     
  19790000   300.80687      0.94721128     0.94721119     0.92547377     1.979         -53.450753      4.6976667      209           -24.628209     -46.976667     -6.4193047     -20.488656      345.16578      62.259795      72.538117    
  19800000   300.28094      0.9471027      0.94710261     0.96975482     1.98           9.7921413     -1.0611544      219           -13.83377       10.611544     -88.572549      36.459696      345.28164      62.101611      72.706815    
  19810000   302.25524      0.95153934     0.95153926     0.98746723     1.981          7.6902025     -4.3434522      223            37.156322      43.434522     -2.1678536      70.202296      345.39751      61.983042      72.481924    
  19820000   299.79777      0.94698446     0.94698438     0.97418292     1.982         -14.817429      2.7645201      220           -30.106539     -27.645201     -21.947538     -40.726877      345.51338      62.133283      72.630082    
  19830000   298.18586      0.947398       0.94739792     0.96975482     1.983         -2.0457568      10.654014      219           -69.571549     -106.54014     -1.8118784     -100.36263      345.62924      62.058182      72.661868    
  19840000   298.26045      0.94742079     0.9474207      0.94761429     1.984          57.421758      7.6415216      214           -14.58745      -76.415216      12.702713      19.950154      345.74511      61.836148      72.896583    
  19850000   300.33885      0.9487184      0.94871832     0.93875809     1.985         -0.19971473    -5.0598856      212            37.449981      50.598856      65.264252     -3.5131646      345.86098      61.586939      73.066961    
  19860000   299.70392      0.94738814     0.94738806     0.98303913     1.986          24.830773      7.4594306      222           -28.457213     -74.594306      21.343897     -32.121231      345.97684      61.612015      73.115282    
  19870000   300.99976      0.94783003     0.94782994     0.93432998     1.987         -57.840043     -5.5905625      211            20.25349       55.905625      23.647462     -18.792618      346.09271      61.928431      72.683455    
  19880000   298.50918      0.9459276      0.94592752     0.97418292     1.988         -33.43183      -0.53946509     220            13.294182      5.3946509      29.448394      5.0394995      346.20858      62.064204      72.64599     
  19890000   299.45519      0.94515144     0.94515136     0.93875809     1.989         -65.812824     -0.63288255     212           -1.9052506      6.3288255      7.6518113     -19.696389      346.32444      62.328387      72.373257    
  19900000   297.85486      0.94787642     0.94787634     0.91661757     1.99           12.752664     -2.4994005      207            47.72825       24.994005      63.134707      55.056037      346.44031      62.498213      71.945033    
  19910000   299.46225      0.94849288     0.9484928      0.94761429     1.991          108.95018      4.2937823      214           -13.37564      -42.937823     -14.414737      17.22564       346.55617      62.256604      72.153168    
  19920000   299.79754      0.94900931     0.94900923     0.94318619     1.992          21.56097       7.152924       213           -78.537783     -71.52924      -120.28561     -43.798494      346.67204      62.124069      72.243598    
  19930000   301.19769      0.94998063     0.94998055     0.96089861     1.993          45.31297       3.5436811      217            6.5184572     -35.436811      34.483276      20.508906      346.78791      62.05038       72.231296    
  19940000   298.37043      0.94895952     0.94895943     0.92104567     1.994         -3.0147651      7.3642929      208           -8.1073858     -73.642929      10.118473      39.202299      346.90377      62.444869      71.828216    
  19950000   301.59758      0.94770636     0.94770627     0.94318619     1.995         -30.554281      6.6379146      213           -32.991691     -66.379146      20.223127     -52.819054      347.01964      62.13982       72.25214     
  19960000   301.86149      0.94876822     0.94876814     0.92547377     1.996          14.812927      3.8248534      209           -2.2001618     -38.248534     -23.541812      55.18986       347.13551      61.827694      72.511407    
  19970000   299.38954      0.94721697     0.94721689     0.94761429     1.997          27.117476      6.6080378      214           -21.13743      -66.080378     -5.0596637      7.7277523      347.25137      62.138962      72.242226    
  19980000   300.16085      0.95005919     0.95005911     0.9564705      1.998         -12.131466      1.0090641      216           -24.974409     -10.090641     -89.314905      24.482319      347.36724      62.159207      71.978628    
  19990000   299.29683      0.94908836     0.94908828     0.93875809     1.999          31.200872     -0.061304799    212           -28.048308      0.61304799    -41.301911     -43.45606       347.4831       62.009586      72.202025    
  20000000   301.66105      0.94646663     0.94646655     0.9520424      2              5.7064476      9.19943        215           -53.917797     -91.9943       -59.192497     -10.566593      347.59897      62.327002      72.009289    
  20010000   301.30878      0.94962403     0.94962395     0.9564705      2.001         -18.619037     -1.8360278      216            24.280489      18.360278      33.604834      20.876356      347.71484      62.325975      71.747134    
  20020000   299.853        0.94618639     0.94618631     0.9564705      2.002         -72.044323      4.4141837      216           -10.966011     -44.141837     -14.181185      25.42499       347.8307       62.265445      72.053792    
  20030000   299.99917      0.94830388     0.9483038      0.9520424      2.003         -39.248263      3.849891       215            6.2150427     -38.49891      -12.375536      69.519574      347.94657      61.986349      72.192554    
  20040000   300.92873      0.9505559      0.95055582     0.93432998     2.004          33.913863      1.0681597      211            29.483658     -10.681597      37.727874      61.404696      348.06244      62.122869      71.839323    
  20050000   299.07399      0.94824175     0.94824167     0.91661757     2.005         -40.580377      7.2894032      207           -18.610938     -72.894032     -2.5240062      19.585225      348.1783       61.946378      72.195787    
  20060000   300.87077      0.95117348     0.9511734      0.92990188     2.006          9.0378508      2.8697309      210            4.744547      -28.697309      14.960224      27.970726      348.29417      61.776136      72.147597    
  20070000   299.30955      0.94963874     0.94963866     0.96532671     2.007         -5.8194073     -1.840302       218            14.147016      18.40302       32.291887     -8.2538596      348.41004      62.021847      71.953972    
  20080000   300.41728      0.94637745     0.94637737     0.9564705      2.008          2.1360385      4.1395947      216           -11.058005     -41.395947     -8.9686349      17.190566      348.5259       61.61597       72.653379    
  20090000   299.03394      0.94804646     0.94804637     0.96975482     2.009         -20.587846     -1.8032825      219            55.528403      18.032825      72.84933       75.703053      348.64177      61.9301        72.133622    
  20100000   299.95333      0.95039001     0.95038993     0.96089861     2.01          -25.274037     -8.584462       217            43.163091      85.84462       20.52079       23.123864      348.75763      61.789281      72.095776    
  20110000   300.50795      0.95065926     0.95065918     0.93432998     2.011          46.736721     -4.4244897      211            3.2834712      44.244897      6.7856307     -41.180114      348.8735       61.883575      71.941632    
  20120000   298.79058      0.94721293     0.94721285     0.92104567     2.012         -44.231595      1.0316242      208           -6.3231708     -10.316242     -43.793739      35.140468      348.98937      61.667552      72.432259    
  20130000   299.96644      0.94857506     0.94857498     0.98303913     2.013         -2.3236834      2.7223943      222           -17.460419     -27.223943     -10.546032     -14.611282      349.10523      61.80559       72.142757    
  20140000   300.91034      0.94862174     0.94862165     0.93432998     2.014          28.477519      2.9578238      211           -24.427139     -29.578238      1.3927803     -45.09596       349.2211       61.987764      71.903335    
  20150000   300.65102      0.9475005      0.94750042     0.96532671     2.015         -80.487533     -1.2462905      218           -0.19690889     12.462905     -11.013059     -2.0405725      349.33697      62.16287       71.761829    
  20160000   301.42724      0.94783613     0.94783604     0.93432998     2.016         -3.5982346     -0.46861262     211            37.312702      4.6861262      70.626231      36.625747      349.45283      62.025521      71.871434    
  20170000   302.6165       0.9482423      0.94824222     0.98746723     2.017          59.999448     -0.92710071     223            32.352432      9.2710071      11.058159      76.728131      349.5687       62.124681      71.702205    
  20180000   299.75466      0.94713589     0.94713581     0.9520424      2.018          35.100859      2.5431023      215           -3.0863463     -25.431023      38.964254     -22.792269      349.68456      62.122956      71.764173    
  20190000   299.35782      0.94611361     0.94611352     0.94318619     2.019          43.080729      0.12555004     213           -0.64883973    -1.2555004     -5.9136148      5.222596       349.80043      62.280653      71.636072    
  20200000   300.09659      0.94912695     0.94912687     0.93432998     2.02          -24.773653      3.5080003      211           -7.2936998     -35.080003     -19.329439      32.528342      349.9163       61.864539      71.865143    
  20210000   298.46553      0.9469673      0.94696721     0.90776136     2.021         -4.6217934     -0.84144923     205            12.459049      8.4144923     -15.710738      44.673393      350.03216      61.920887      71.939671    
  20220000   303.13905      0.95029776     0.95029767     0.96089861     2.022         -72.408137     -5.7637859      217            47.585229      57.637859      8.8423393      76.275488      350.14803      61.788216      71.817702    
  20230000   301.4624       0.94853998     0.94853989     0.93432998     2.023         -24.709312     -0.24849378     211           -23.276863      2.4849378     -41.074331     -31.241194      350.2639       61.71814       72.008657    
  20240000   300.80054      0.94795685     0.94795676     0.90776136     2.024          30.355991      3.6015716      205           -10.014962     -36.015716      4.2044952      1.7663341      350.37976      61.994083      71.708515    
  20250000   299.89407      0.94918415     0.94918407     0.94761429     2.025          17.507905     -0.22567363     214           -4.9658422      2.2567363      34.648057     -51.80232       350.49563      61.908786      71.690759    
  20260000   298.09484      0.94962415     0.94962406     0.90333325     2.026         -15.083765     -3.6511413      204            23.015618      36.511413     -56.780082      89.315525      350.6115       62.068155      71.449932    
  20270000   300.58011      0.95004231     0.95004223     0.9520424      2.027         -13.780007     -3.6096055      215            61.391414      36.096055      64.446342      83.631846      350.72736      62.039335      71.428054    
  20280000   299.07715      0.95114678     0.95114669     0.92104567     2.028          1.7090132      2.1666002      208            18.873298     -21.666002      51.730507      26.555389      350.84323      61.900001      71.482092    
  20290000   299.0926       0.94862882     0.94862873     0.96975482     2.029          42.394851     -0.23625175     219            16.55471       2.3625175      24.13887       23.162741      350.95909      61.819383      71.741602    
  20300000   299.31665      0.94462638     0.9446263      0.93432998     2.03          -44.705949      3.6914605      211           -11.64705      -36.914605     -19.907224      21.880678      351.07496      62.00546       71.805662    
  20310000   296.85105      0.94639714     0.94639705     0.9520424      2.031          17.907718      6.5187235      215           -40.928932     -65.187235     -32.831746     -24.767815      351.19083      61.905204      71.763699    
  20320000   299.345        0.94863925     0.94863917     0.96089861     2.032          24.529538     -0.1618633      217            28.178345      1.618633       59.389919      23.526483      351.30669      61.646489      71.870835    
  20330000   301.96672      0.94551718     0.9455171      0.96089861     2.033          69.297294      4.800062       217           -58.841952     -48.00062      -104.71912     -23.806116      351.42256      61.712201      72.00762     
  20340000   299.03332      0.94642367     0.94642359     0.91661757     2.034          1.4578743      1.1904469      207           -19.635535     -11.904469     -6.2325438     -40.769591      351.53843      61.851539      71.75293     
  20350000   300.70896      0.95078039     0.95078031     0.94318619     2.035          9.4468498     -6.9835787      213            41.873499      69.835787      36.709988      19.07472       351.65429      61.720595      71.552088    
  20360000   301.12934      0.94821459     0.94821451     0.9520424      2.036         -25.220497     -2.6209658      215            14.452743      26.209658      50.801488     -33.652919      351.77016      62.127486      71.252342    
  20370000   299.62227      0.94934067     0.94934059     0.94318619     2.037          12.791964      4.725144       213            2.1257806     -47.25144       75.808534     -22.179753      351.88602      61.711106      71.624419    
  20380000   299.45173      0.94916357     0.94916348     0.94761429     2.038          15.828161      9.6791624      214           -46.818705     -96.791624     -12.705202     -30.959288      352.00189      61.409788      71.965591    
  20390000   298.59109      0.94688158     0.94688149     0.93432998     2.039         -17.275874     -2.0266004      211           -7.3450904      20.266004     -6.4457239     -35.855551      352.11776      61.687125      71.79107     
  20400000   300.7585       0.94726827     0.94726818     0.96532671     2.04          -10.970586      1.8966961      218           -6.3592942     -18.966961      27.89488      -28.005801      352.23362      61.515293      71.938546    
  20410000   299.39829      0.94888175     0.94888167     0.92547377     2.041         -8.7079283      5.3186121      209           -43.353744     -53.186121     -59.576123     -17.298988      352.34949      61.637593      71.650155    
  20420000   299.69213      0.94618045     0.94618037     0.89890515     2.042          52.897365      8.9570477      203           -55.723948     -89.570477      6.235689      -83.837056      352.46536      61.297466      72.229669    
  20430000   299.77591      0.94754439     0.9475443      0.94761429     2.043         -44.859155      3.9577816      214           -28.586614     -39.577816      15.23375      -61.415776      352.58122      61.361098      72.027226    
  20440000   299.28978      0.94770055     0.94770046     0.92990188     2.044         -33.388156      5.8600392      210           -20.788488     -58.600392      28.324544     -32.089615      352.69709      61.36708       71.984681    
  20450000   299.93753      0.94906737     0.94906729     0.92547377     2.045          0.90953467    -1.8237338      209           -0.27941453     18.237338     -35.330587      16.255006      352.81296      61.694611      71.475919    
  20460000   299.20557      0.94846987     0.94846978     0.9564705      2.046          28.664931      5.9193176      216            7.9602817     -59.193176      47.793869      35.280152      352.92882      61.378688      71.865473    
  20470000   298.82545      0.94600371     0.94600362     0.92547377     2.047          4.0447919      2.089698       209           -16.673015     -20.89698      -14.654651     -14.467414      353.04469      61.694886      71.660011    
  20480000   298.78199      0.9503147      0.95031461     0.96532671     2.048         -16.731407      0.56697972     218            14.350182     -5.6697972      65.013649     -16.293305      353.16055      61.437575      71.610194    
  20490000   298.96973      0.94991467     0.94991458     0.92990188     2.049         -25.744463     -2.2653665      210           -2.3412716      22.653665     -31.277617      1.6001373      353.27642      61.290783      71.788377    
  20500000   300.18685      0.94529355     0.94529347     0.92547377     2.05           51.022466      9.6305106      209           -78.159692     -96.305106     -56.053396     -82.120575      353.39229      61.344028      72.053071    
  20510000   301.01056      0.95049502     0.95049494     0.96975482     2.051          48.495144     -1.2469356      219            14.853579      12.469356      30.910244      1.1811377      353.50815      61.166152      71.843603    
  20520000   298.36156      0.94833246     0.94833238     0.9520424      2.052         -11.617807     -1.6271424      215            37.680063      16.271424      22.562601      74.206164      353.62402      61.085919      72.078389    
  20530000   299.04102      0.94627269     0.94627261     0.9564705      2.053          29.126282      8.4961094      216           -35.698236     -84.961094      16.302684     -38.436299      353.73989      61.166062      72.117007    
  20540000   299.23718      0.95073719     0.95073711     0.94318619     2.054         -71.313585      3.6291346      213           -21.18612      -36.291346     -4.8583957     -22.408618      353.85575      61.261782      71.642739    
  20550000   300.92847      0.94823262     0.94823254     0.9564705      2.055          3.9247323      2.4303894      216           -36.308324     -24.303894     -56.929995     -27.691082      353.97162      61.417014      71.62696     
  20560000   299.95566      0.94405695     0.94405687     0.9520424      2.056         -22.350726      2.7291924      215           -46.816777     -27.291924     -81.115742     -32.042666      354.08749      61.926823      71.328153    
  20570000   301.11807      0.94732475     0.94732467     0.90776136     2.057          18.960134      7.7729414      205           -23.398563     -77.729414      28.719699     -21.185975      354.20335      61.541341      71.503952    
  20580000   299.90241      0.94651236     0.94651228     0.92547377     2.058         -32.835875      4.3730753      209           -12.59528      -43.730753      4.9234109      1.0215005      354.31922      61.586731      71.489194    
  20590000   299.17652      0.94743496     0.94743488     0.93875809     2.059          68.338223      3.0750147      212            12.240093     -30.750147      25.059677      42.41075       354.43508      61.492046      71.506166    
  20600000   300.99985      0.94795204     0.94795195     0.9520424      2.06           29.561069     -1.9290556      215           -6.0225234      19.290556     -8.6974258     -28.6607        354.55095      61.791511      71.097563    
  20610000   299.26662      0.95000461     0.95000452     0.96532671     2.061         -4.9924929      1.2978633      218            0.61267657    -12.978633     -14.567431      29.384094      354.66682      61.2733        71.520577    
  20620000   298.94921      0.94647179     0.94647171     0.93432998     2.062         -1.0498319      3.8521501      211           -12.141893     -38.521501     -26.167911      28.263732      354.78268      61.61509       71.366003    
  20630000   300.49025      0.94899094     0.94899086     0.91661757     2.063         -18.831852     -2.2523429      207            39.457151      22.523429      28.256999      67.591025      354.89855      61.37458       71.432151    
  20640000   300.69079      0.94927388     0.94927379     0.94761429     2.064          4.0907396     -0.93808453     214           -29.029389      9.3808453     -29.631839     -66.837174      355.01442      61.279188      71.498682    
  20650000   300.03211      0.9486587      0.94865861     0.9520424      2.065         -21.786594      0.6655003      215            11.065375     -6.655003      -4.6911086      44.542238      355.13028      61.25281       71.552504    
  20660000   299.55292      0.94828688     0.9482868      0.92104567     2.066         -32.191584      2.1388088      208            4.3032308     -21.388088      33.162901      1.1348794      355.24615      61.094567      71.742555    
  20670000   298.38986      0.95051135     0.95051126     0.92547377     2.067         -19.869738     -1.0335384      209            0.1137112      10.335384     -0.37977855    -9.6144714      355.36201      60.963182      71.705525    
  20680000   299.42349      0.94622904     0.94622896     0.94318619     2.068          45.087422      0.34784068     213           -17.856752     -3.4784068     -2.0598068     -48.032043      355.47788      61.358082      71.543127    
  20690000   300.44858      0.94618239     0.94618231     0.90776136     2.069          82.557051      1.3072848      205           -17.134429     -13.072848     -22.895111     -15.43533       355.59375      61.23884       71.66261     
  20700000   298.85516      0.95263301     0.95263293     0.93432998     2.07           24.812832     -8.5889594      211            93.88799       85.889594      151.7145       44.059872      355.70961      61.096689      71.319723    
  20710000   300.57923      0.94793448     0.9479344      0.90333325     2.071          14.617082     -5.5823793      204            7.014939       55.823793     -6.8791056     -27.899871      355.82548      60.992703      71.772043    
  20720000   300.71093      0.94957769     0.94957761     0.93875809     2.072          17.12153       2.8192626      212           -0.33881316    -28.192626      0.21419532     26.961991      355.94135      60.752202      71.908063    
  20730000   299.94775      0.94906083     0.94906075     0.9564705      2.073         -16.674727      6.015624       216           -25.099971     -60.15624      -54.676103      39.532429      356.05721      60.782289      71.888209    
  20740000   302.01347      0.95039177     0.95039168     0.9564705      2.074          5.9881916     -0.51420585     216           -9.6557337      5.1420585     -42.14261       8.0333503      356.17308      60.583894      71.99919     
  20750000   299.15892      0.94954174     0.94954165     0.93432998     2.075          10.318064     -0.44362709     211            34.041797      4.4362709      45.057745      52.631374      356.28895      60.379746      72.283781    
  20760000   298.20994      0.94740554     0.94740546     0.89447704     2.076          33.199243      1.1630297      202           -8.92487       -11.630297     -16.844644      1.7003307      356.40481      60.574995      72.189775    
  20770000   300.65621      0.94767296     0.94767288     0.98303913     2.077         -4.6180198     -3.8819481      222            29.393211      38.819481      35.244231      14.11592       356.52068      60.415727      72.33614     
  20780000   301.17685      0.94651026     0.94651018     0.94318619     2.078          59.616929      10.195312      213           -56.856434     -101.95312     -5.4533666     -63.162812      356.63654      60.200047      72.660863    
  20790000   300.11942      0.94859846     0.94859837     0.96532671     2.079          64.59398       7.777416       218           -30.113304     -77.77416       35.967305     -48.533057      356.75241      60.299305      72.358061    
  20800000   298.21662      0.95066805     0.95066796     0.96089861     2.08          -29.981584      7.0598668      217           -16.154865     -70.598668      40.237268     -18.103195      356.86828      60.293841      72.183637    
  20810000   299.56036      0.9477684      0.94776831     0.94761429     2.081         -35.136816      2.4360861      214           -19.25171      -24.360861     -0.14295354    -33.251315      356.98414      60.52653       72.102716    
  20820000   299.99302      0.94936609     0.949366       0.92990188     2.082          27.087522     -2.5016887      210            38.929621      25.016887      21.695705      70.076272      357.10001      60.600762      71.869875    
  20830000   299.58561      0.94736781     0.94736773     0.98303913     2.083          12.796893      1.0476587      222           -37.337311     -10.476587     -34.326078     -67.20927       357.21588      60.805157      71.75609     
  20840000   299.30932      0.94608847     0.94608839     0.94761429     2.084          42.785179      5.8564572      214           -51.817934     -58.564572     -69.67092      -27.21831       357.33174      60.99004       71.612079    
  20850000   300.25895      0.94912443     0.94912434     0.93875809     2.085          21.429317      0.22515548     212           -11.606458     -2.2515548     -31.992495     -0.5753258      357.44761      60.688808      71.714074    
  20860000   300.81357      0.94796471     0.94796463     0.98303913     2.086          60.509524      4.5348766      222            13.575754     -45.348766      55.117122      30.958906      357.56347      60.575764      71.912491    
  20870000   300.34972      0.94776786     0.94776778     0.94318619     2.087          32.623489      0.35909356     213           -22.995746     -3.5909356     -20.691203     -44.705098      357.67934      60.578014      71.901456    
  20880000   301.23553      0.94839265     0.94839256     0.94318619     2.088         -18.503308     -7.1492504      213            7.5701553      71.492504      5.5157963     -54.297835      357.79521      60.626067      71.773886    
  20890000   301.35486      0.95067885     0.95067877     0.9564705      2.089         -16.075708     -0.31258409     216            13.375869      3.1258409      8.7282001      28.273567      357.91107      60.438992      71.799658    
  20900000   299.07082      0.94751618     0.9475161      0.94761429     2.09          -43.519253      2.2392225      214           -35.223967     -22.392225     -23.8488       -59.430875      358.02694      60.287957      72.196416    
  20910000   301.5424       0.94708714     0.94708705     0.9520424      2.091         -41.627434     -3.4273028      215            2.0162259      34.273028     -2.5740362     -25.650314      358.14281      60.218432      72.28912     
  20920000   301.32565      0.94730505     0.94730497     0.96532671     2.092          11.913646      2.9122217      218            7.8691826     -29.122217      16.044617      36.685148      358.25867      60.149041      72.332467    
  20930000   299.54457      0.94663969     0.9466396      0.97861102     2.093         -6.6261761      1.4042143      221           -40.108498     -14.042143     -72.741193     -33.542159      358.37454      60.118317      72.396886    
  20940000   303.87345      0.94976197     0.94976189     0.97861102     2.094          32.794971      7.914196       221           -3.7028923     -79.14196       64.435139      3.5981444      358.49041      60.148726      72.099094    
  20950000   300.80678      0.94882823     0.94882814     0.94318619     2.095         -25.756224      0.27680937     213            30.307727     -2.7680937      33.956616      59.734658      358.60627      60.590408      71.620804    
  20960000   299.91537      0.94725449     0.94725441     0.94318619     2.096         -4.5204907     -3.0636994      213           -17.1041        30.636994     -56.304609     -25.644685      358.72214      60.353345      71.998318    
  20970000   299.60419      0.94803733     0.94803725     0.93875809     2.097         -12.732362     -2.7142611      212           -12.355481      27.142611     -34.061705     -30.14735       358.838        60.507203      71.73277     
  20980000   300.21214      0.95077625     0.95077617     0.9564705      2.098          92.789649      3.1040348      216            21.283536     -31.040348      37.206433      57.684523      358.95387      60.193506      71.875677    
  20990000   299.61994      0.94793405     0.94793397     0.97418292     2.099          41.851503      3.3434966      220           -7.4787959     -33.434966     -4.908682       15.90726       359.06974      60.441751      71.771923    
  21000000   299.69704      0.94796887     0.94796879     0.91661757     2.1            67.867875      2.1544901      207            35.95248      -21.544901      69.137803      60.264537      359.1856       60.725356      71.411061    
  21010000   299.77587      0.94667766     0.94667758     0.94318619     2.101          1.7937885      4.797584       213           -41.580491     -47.97584      -60.713884     -16.051749      359.30147      60.3217        71.963761    
  21020000   299.92618      0.94999201     0.94999193     0.94761429     2.102         -8.7704545      2.3617692      214           -3.0226724     -23.617692     -27.411896      41.96157       359.41734      59.970628      72.109251    
  21030000   300.49904      0.94913611     0.94913602     0.94761429     2.103          23.717513      9.5683246      214           -25.632424     -95.683246     -5.3892443      24.175217      359.5332       60.119435      71.97243     
  21040000   300.91719      0.94816268     0.94816259     0.94318619     2.104          12.803282     -10.468145      213            26.223759      104.68145      4.6613965     -30.671571      359.64907      60.180688      71.949803    
  21050000   300.30557      0.94791124     0.94791116     0.98746723     2.105          3.7636017     -2.2813447      223            17.743512      22.813447      39.777121     -9.3600321      359.76493      60.182878      71.943091    
  21060000   299.17289      0.94786546     0.94786538     0.96089861     2.106          64.527895      8.1237397      217           -51.277814     -81.237397     -16.56862      -56.027426      359.8808       60.222063      71.876603    
  21070000   301.11076      0.94752305     0.94752296     0.97861102     2.107          27.855751      7.7346776      221           -44.771239     -77.346776     -5.2155057     -51.751435      359.99667      60.345463      71.73245     
  21080000   298.78164      0.94943923     0.94943915     0.93875809     2.108         -37.737797     -3.0905588      212            25.368894      30.905588      22.494791      22.706303      360.11253      60.209076      71.726755    
  21090000   298.73974      0.94904157     0.94904149     0.91661757     2.109          38.481679      2.9808089      207           -35.262529     -29.808089     -71.312367     -4.6671311      360.2284       60.451935      71.445546    
  21100000   298.68305      0.94701082     0.94701074     0.9564705      2.11           1.5007169      6.216525       216           -26.74609      -62.16525      -20.500888      2.4278696      360.34427      60.436545      71.593957    
  21110000   299.6818       0.94643924     0.94643915     0.96532671     2.111          37.342693      8.1960762      218           -59.418269     -81.960762     -68.320749     -27.973295      360.46013      60.37329       71.6892      
  21120000   300.11239      0.94520621     0.94520612     0.93875809     2.112          68.947107      3.0355611      212           -33.490086     -30.355611     -28.254514     -41.860134      360.576        60.459949      71.656797    
  21130000   299.11456      0.95034357     0.95034349     0.96089861     2.113         -37.594885     -2.0734168      217            23.614395      20.734168     -2.8278061      52.936823      360.69187      60.324066      71.407027    
  21140000   298.33459      0.94994546     0.94994538     0.92990188     2.114         -50.119029      3.7470522      210            3.517417      -37.470522     -35.085107      83.10788       360.80773      60.250896      71.50074     
  21150000   297.53449      0.94906005     0.94905996     0.9564705      2.115         -34.081256      9.5731223      216           -12.062707     -95.731223      21.495133      38.047969      360.9236       60.207503      71.596034    
  21160000   301.59825      0.9489535      0.94895341     0.94761429     2.116          48.521676      8.7208504      214           -33.971815     -87.208504      19.03767      -33.744611      361.03946      60.28312       71.491304    
  21170000   299.17422      0.94932404     0.94932396     0.93875809     2.117         -14.590666      3.3176691      212           -22.114624     -33.176691      32.948444     -66.115625      361.15533      60.104086      71.653275    
  21180000   299.25466      0.94880053     0.94880045     0.98303913     2.118         -42.059694      4.7786623      222           -39.524436     -47.786623     -22.124297     -48.662388      361.2712       59.856587      71.966162    
  21190000   302.78911      0.95066476     0.95066468     0.96532671     2.119          39.177477      3.5843343      218           -23.759439     -35.843343     -46.114612      10.679639      361.38706      59.950494      71.689538    
  21200000   300.38587      0.94964132     0.94964123     0.92547377     2.12           16.279172      0.64666136     209           -6.4557952     -6.4666136     -10.130833     -2.7699386      361.50293      59.523033      72.259022    
  21210000   300.03548      0.94702594     0.94702585     0.92104567     2.121          69.242243      6.7360794      208           -36.609837     -67.360794     -27.880827     -14.58789       361.6188       59.618601      72.319248    
  21220000   300.33771      0.94707992     0.94707984     0.93875809     2.122          30.668107     -2.5371039      212           -6.8381052      25.371039     -40.674398     -5.2109567      361.73466      59.716688      72.173221    
  21230000   301.11167      0.94632682     0.94632673     0.93432998     2.123          37.663831      0.65255358     211           -6.2753977     -6.5255358     -25.692775      13.392118      361.85053      59.707019      72.219221    
  21240000   299.28558      0.95005018     0.9500501      0.9520424      2.124         -32.835608      2.4438173      215            6.9849397     -24.438173      21.852952      23.54004       361.9664       59.296509      72.411014    
  21250000   299.78327      0.9443281      0.94432801     0.96975482     2.125         -11.635219     -1.5719634      219            25.51739       15.719634      28.412063      32.420473      362.08226      59.425859      72.667952    
  21260000   298.98877      0.9467056      0.94670552     0.9564705      2.126          27.030313     -0.063934265    216           -7.1535576      0.63934265    -32.312068      10.212052      362.19813      59.237222      72.693021    
  21270000   299.14516      0.94905607     0.94905598     0.98746723     2.127         -4.6769653      7.168805       223           -42.512361     -71.68805      -51.276895     -4.5721363      362.31399      59.231054      72.497346    
  21280000   300.07801      0.94756988     0.9475698      0.96975482     2.128         -15.939954      5.9996947      219           -60.689241     -59.996947     -80.291042     -41.779734      362.42986      59.435223      72.33849     
  21290000   297.0836       0.94897442     0.94897434     0.93432998     2.129         -7.9862214     -0.90684166     211            41.716615      9.0684166      45.276716      70.804714      362.54573      59.182449      72.516749    
  21300000   300.48111      0.94732675     0.94732666     0.97418292     2.13           59.898548      9.6623974      220           -22.043532     -96.623974      50.616819     -20.123441      362.66159      59.557288      72.162617    
  21310000   300.05059      0.94726651     0.94726643     0.92990188     2.131         -17.484234      1.2463037      210            5.7290667     -12.463037      4.0624574      25.58778       362.77746      59.817411      71.830428    
  21320000   298.80324      0.94770763     0.94770754     0.94318619     2.132         -29.919812      5.8801897      213           -57.042109     -58.801897     -34.309029     -78.015401      362.89333      59.524032      72.127828    
  21330000   299.66364      0.94790438     0.9479043      0.92990188     2.133         -8.9601712     -0.91499        210           -21.207628      9.1499        -18.429367     -54.343416      363.00919      59.46644       72.159657    
  21340000   299.74015      0.95009452     0.95009443     0.91661757     2.134         -27.123913      6.5700355      207            12.941213     -65.700355      66.090959      38.433034      363.12506      59.493981      71.937028    
  21350000   299.07624      0.94891416     0.94891408     0.93432998     2.135          18.443336      8.6011853      211           -27.029984     -86.011853      0.14930155     4.7726009      363.24092      59.623996      71.846526    
  21360000   300.8636       0.94840812     0.94840804     0.91661757     2.136         -0.68847631     5.2281439      207           -31.861359     -52.281439     -29.879195     -13.423444      363.35679      59.46965       72.048447    
  21370000   302.33764      0.94609537     0.94609529     0.94318619     2.137         -23.921644      1.2683308      213           -39.51098      -12.683308     -55.448981     -50.400651      363.47266      59.401743      72.284087    
  21380000   298.1033       0.9489486      0.94894852     0.94761429     2.138          45.707972      2.6942824      214           -29.866055     -26.942824     -24.191462     -38.463878      363.58852      59.302509      72.164337    
  21390000   300.38466      0.94682998     0.94682989     0.93432998     2.139         -10.578528      5.8791222      211           -27.702614     -58.791222     -25.270281      0.95366131     363.70439      59.566196      71.982702    
  21400000   299.83164      0.94782881     0.94782873     0.93432998     2.14           31.060152      4.612543       211           -33.720026     -46.12543       7.9523768     -62.987025      363.82026      59.216528      72.308413    
  21410000   300.45718      0.94782736     0.94782728     0.93432998     2.141         -30.164145      1.4258838      211           -15.166628     -14.258838     -10.774914     -20.466133      363.93612      59.386112      72.079083    
  21420000   303.80358      0.94816229     0.94816221     0.92990188     2.142         -11.637616      5.0844342      210           -50.15617      -50.844342     -30.266808     -69.35736       364.05199      59.260194      72.183743    
  21430000   300.73778      0.94859951     0.94859943     0.94761429     2.143         -8.4628496      4.2478138      214           -21.859885     -42.478138     -66.530401      43.428886      364.16786      59.330338      72.042243    
  21440000   300.83424      0.94693826     0.94693817     0.9564705      2.144          5.0464548      5.7556642      216           -9.3874909     -57.556642      8.6936465      20.700523      364.28372      59.297516      72.185609    
  21450000   301.77987      0.94881324     0.94881316     0.97861102     2.145         -29.79751       0.019765905    221            10.152727     -0.19765905     2.3656427      28.290198      364.39959      59.458601      71.824937    
  21460000   298.8854       0.95140255     0.95140247     0.9520424      2.146          32.573229     -2.016827       215            31.961014      20.16827       47.013259      28.701511      364.51545      59.385255      71.695132    
  21470000   301.80462      0.95021638     0.9502163      0.9564705      2.147          1.7387545      4.7922056      216            17.971835     -47.922056      55.417951      46.419609      364.63132      59.500652      71.622644    
  21480000   300.38275      0.94777234     0.94777226     0.89890515     2.148         -50.992394      10.780821      203           -36.090544     -107.80821      12.318597     -12.782021      364.74719      59.219581      72.125235    
  21490000   300.21004      0.9490342      0.94903412     0.92990188     2.149          50.132543      5.6481495      210           -45.938359     -56.481495     -78.707472     -2.6261117      364.86305      59.22546       71.999314    
  21500000   299.04183      0.9472224      0.94722231     0.97418292     2.15          -5.3110406      6.0155787      220           -18.256663     -60.155787      3.7472366      1.6385596      364.97892      59.249298      72.085116    
  21510000   300.09901      0.94798508     0.947985       0.94318619     2.151          35.582361      6.9220291      213           -4.8892989     -69.220291      53.347322      1.2050732      365.09479      59.220419      72.039376    
  21520000   299.27944      0.949097       0.94909692     0.92547377     2.152          56.818694      2.2852204      209           -10.065185     -22.852204     -17.571029      10.22768       365.21065      59.031559      72.162282    
  21530000   300.26294      0.94820081     0.94820073     0.93875809     2.153          54.927911      2.7589429      212           -28.155056     -27.589429     -32.20186      -24.673879      365.32652      58.63463       72.696389    
  21540000   300.475        0.94760958     0.9476095      0.94761429     2.154          9.3565673     -6.0679933      214           -8.044334       60.679933     -49.544328     -35.268607      365.44238      58.528651      72.850356    
  21550000   302.63357      0.94789266     0.94789257     0.94318619     2.155         -42.833964     -0.41122365     213            23.796078      4.1122365      46.219944      21.056054      365.55825      58.043794      73.413682    
  21560000   298.99391      0.94696894     0.94696886     0.98303913     2.156          29.65386      -1.3794109      222            1.5284758      13.794109     -29.260658      20.051976      365.67412      58.143706      73.335776    
  21570000   300.61529      0.9497919      0.94979181     0.98746723     2.157         -28.318321     -4.830942       223            13.019346      48.30942       11.68347      -20.934852      365.78998      58.066597      73.191712    
  21580000   299.07982      0.94900155     0.94900146     0.91661757     2.158          18.937349      4.7838152      207           -22.744219     -47.838152     -46.868851      26.474345      365.90585      58.013073      73.297035    
  21590000   299.84003      0.94815883     0.94815874     0.96089861     2.159          49.175586      11.000893      217           -44.205804     -110.00893     -19.395169     -3.2133131      366.02172      58.100475      73.228633    
  21600000   299.0093       0.94883412     0.94883404     0.94318619     2.16           46.469734      4.2658622      213            8.3217572     -42.658622      3.9744271      63.649467      366.13758      57.999023      73.281317    
  21610000   299.72416      0.94902604     0.94902595     0.93875809     2.161          27.448031      5.4696558      212           -15.225328     -54.696558      87.314631     -78.294057      366.25345      57.884367      73.388399    
  21620000   301.01346      0.94760473     0.94760465     0.96975482     2.162          53.158912      6.5362783      219           -25.447276     -65.362783     -24.101085      13.122039      366.36932      58.07379       73.23557     
  21630000   300.16415      0.94746854     0.94746846     0.94761429     2.163         -20.31877       2.9843925      214           -4.0352549     -29.843925     -16.321375      34.059535      366.48518      58.150506      73.12634     
  21640000   299.9547       0.94997537     0.94997529     0.96532671     2.164         -57.243079      7.8944842      218           -37.857221     -78.944842      14.777106     -49.403926      366.60105      58.08379       72.994066    
  21650000   300.49854      0.94869054     0.94869045     0.9520424      2.165         -36.633689      0.17944289     215           -13.84865      -1.7944289     -36.188024     -3.563496       366.71691      58.136067      73.004124    
  21660000   301.07336      0.94669808     0.946698       0.9520424      2.166          41.735136      3.9056836      215           -9.9015774     -39.056836     -0.017407982    9.3695124      366.83278      57.944824      73.37604     
  21670000   299.80042      0.94919015     0.94919007     0.90776136     2.167          97.00587       0.48337785     205           -31.358419     -4.8337785     -36.257955     -52.983524      366.94865      58.051484      73.025865    
  21680000   301.82387      0.95054085     0.95054076     0.94761429     2.168          25.49217      -1.099489       214            35.75145       10.99489       44.553191      51.706269      367.06451      58.049174      72.90198     
  21690000   299.30661      0.95197313     0.95197305     0.9520424      2.169          16.743744      1.0944566      215            10.420404     -10.944566      37.292122      4.9136571      367.18038      57.708068      73.199457    
  21700000   300.64959      0.94912483     0.94912475     0.91218946     2.17           2.4134293      4.2341936      206           -39.959096     -42.341936     -45.394597     -32.140755      367.29625      57.828759      73.242786    
  21710000   301.02791      0.94930071     0.94930063     0.96532671     2.171          61.461568      6.7912302      218           -40.735744     -67.912302     -18.916459     -35.378472      367.41211      57.776167      73.27276     
  21720000   299.6999       0.94876809     0.94876801     0.93432998     2.172         -13.107086      5.3365834      211           -9.6987376     -53.365834     -10.798631      35.068252      367.52798      57.909017      73.122643    
  21730000   298.43334      0.94872815     0.94872806     0.96975482     2.173          16.821944     -6.0698509      219            32.157578      60.698509      3.6182352      32.155989      367.64384      58.030394      72.949774    
  21740000   300.0684       0.94574161     0.94574153     0.94318619     2.174          48.461064      10.183162      213           -60.965913     -101.83162     -52.489884     -28.576233      367.75971      57.974467      73.227658    
  21750000   299.48836      0.94720013     0.94720005     0.92990188     2.175         -9.1365585      8.3872895      210           -48.766604     -83.872895     -40.846976     -21.579943      367.87558      58.015613      73.040033    
  21760000   302.88592      0.95078851     0.95078843     0.94318619     2.176         -23.062299      0.93540235     213            27.313802     -9.3540235      63.816592      27.478838      367.99144      58.012403      72.745486    
  21770000   298.95205      0.94691994     0.94691985     0.9520424      2.177          15.037144      0.2964173      215            16.1018       -2.964173       31.061173      20.208401      368.10731      58.267135      72.700465    
  21780000   299.89733      0.95076594     0.95076586     0.96089861     2.178         -9.3222837      0.77371606     217           -11.46417      -7.7371606     -34.217746      7.5623961      368.22318      57.641254      73.169552    
  21790000   300.15502      0.94851395     0.94851386     0.9564705      2.179          9.2582495      2.0902349      216            12.312358     -20.902349      33.952366      23.887058      368.33904      57.54954       73.43705     
  21800000   300.13743      0.94898074     0.94898065     0.9520424      2.18          -41.655716      4.251863       215           -0.61978332    -42.51863       15.761767      24.897513      368.45491      57.439715      73.518144    
  21810000   299.7432       0.94893873     0.94893864     0.94761429     2.181          21.798839      4.0922437      214           -14.74051      -40.922437      1.7020695     -5.0011623      368.57078      57.536213      73.375017    
  21820000   297.84237      0.94827009     0.94827001     0.93875809     2.182         -32.066061      7.1230262      212           -35.847399     -71.230262     -13.04997      -23.261964      368.68664      57.436408      73.531228    
  21830000   299.89124      0.94784167     0.94784159     0.9564705      2.183         -38.792895      7.1833728      216           -15.8873       -71.833728     -14.156049      38.327877      368.80251      57.510322      73.446835    
  21840000   303.23815      0.9482251      0.94822501     0.94318619     2.184          17.394931      4.7677617      213           -3.6623613     -47.677617      35.885416      0.80511766     368.91837      57.435742      73.48938     
  21850000   298.43344      0.94874606     0.94874597     0.92547377     2.185         -6.538952       3.5348251      209           -15.503155     -35.348251     -19.486375      8.3251622      369.03424      57.520491      73.317782    
  21860000   298.4965       0.9469983      0.94699822     0.93875809     2.186          19.589572      2.6351598      212           -10.192109     -26.351598      8.9327259     -13.157456      369.15011      57.391058      73.595646    
  21870000   299.53532      0.94875863     0.94875854     0.91218946     2.187          30.513604      1.0849215      206            18.503627     -10.849215     -12.191105      78.551201      369.26597      57.32806       73.516746    
  21880000   299.83303      0.94820187     0.94820179     0.96532671     2.188          24.22966       1.4462776      218           -22.951835     -14.462776     -7.6292564     -46.763474      369.38184      57.523573      73.2869      
  21890000   299.2578       0.94864249     0.94864241     0.93875809     2.189          19.162204      9.1853241      212            11.442453     -91.853241      82.159455      44.021144      369.49771      57.55062       73.195473    
  21900000   300.68732      0.94978452     0.94978443     0.94318619     2.19           30.141241     -4.1973246      213            12.073441      41.973246     -33.230679      27.477758      369.61357      57.570437      73.059388    
  21910000   300.91458      0.94767848     0.94767839     0.96532671     2.191         -0.9341112      7.6517986      218           -67.958627     -76.517986     -46.613626     -80.74427       369.72944      57.759036      72.959789    
  21920000   300.19231      0.94632281     0.94632272     0.94761429     2.192          41.080438      5.8482647      214           -8.7546734     -58.482647      45.931555     -13.712928      369.84531      57.731605      73.076123    
  21930000   300.90596      0.94759145     0.94759137     0.93875809     2.193          15.084198      7.1475378      212           -28.669653     -71.475378     -6.3622432     -8.1713388      369.96117      57.533248      73.206961    
  21940000   298.62272      0.94737676     0.94737667     0.96975482     2.194         -0.8373942      8.8987126      219           -39.167865     -88.987126     -5.82851       -22.687958      370.07704      57.333523      73.455625    
  21950000   300.27033      0.9492834      0.94928332     0.94761429     2.195         -33.679259      6.4231926      214           -17.045799     -64.231926     -7.9345223      21.029052      370.1929       57.339379      73.27766     
  21960000   299.65843      0.94859187     0.94859178     0.9520424      2.196         -4.9436486      0.72349054     215            0.016869119   -7.2349054      20.282733     -12.99722       370.30877      57.191729      73.497393    
  21970000   299.86133      0.94769126     0.94769118     0.9520424      2.197         -51.731501      2.785281       215            18.298042     -27.85281       32.121393      50.625542      370.42464      57.075835      73.69356     
  21980000   300.78062      0.94534591     0.94534583     0.92104567     2.198         -20.454796      6.2726042      208           -29.603677     -62.726042      3.0271597     -29.112149      370.5405       57.247907      73.631306    
  21990000   299.83105      0.94793227     0.94793219     0.92990188     2.199          74.064888      3.7658579      210           -19.299408     -37.658579      23.649448     -43.889095      370.65637      56.985168      73.745911    
  22000000   301.1488       0.94671925     0.94671917     0.93875809     2.2            23.794768      5.1799542      212           -24.307371     -51.799542     -2.9703049     -18.152266      370.77224      57.257736      73.465927    
  22010000   300.15198      0.94470674     0.94470666     0.94761429     2.201          35.453387      10.986458      214           -62.970982     -109.86458     -45.843776     -33.204592      370.8881       57.200361      73.673257    
  22020000   300.70155      0.94505984     0.94505976     0.94761429     2.202          54.359158      0.20326829     214            0.48918466    -2.0326829     -33.844408      37.344645      371.00397      57.227756      73.587487    
  22030000   300.7925       0.94974343     0.94974335     0.91218946     2.203          17.564829     -0.5398035      206            9.8916604      5.398035      -29.995607      54.272553      371.11983      57.014658      73.475333    
  22040000   300.57808      0.9505702      0.95057011     0.92104567     2.204          64.780028      1.6418135      208           -0.33296098    -16.418135      36.554434     -21.135183      371.2357       56.747731      73.733717    
  22050000   300.00609      0.94841886     0.94841878     0.96532671     2.205          7.8815784      2.6675057      218            4.179998      -26.675057      59.541645     -20.326594      371.35157      56.53186       74.160019    
  22060000   301.72251      0.95364229     0.95364221     0.97418292     2.206         -35.955846      1.3537308      220            8.3395547     -13.537308      16.736114      21.819858      371.46743      56.37367       73.93771     
  22070000   300.21559      0.94874441     0.94874433     0.96532671     2.207          28.964445      7.3196079      218           -7.0198457     -73.196079      46.593982      5.5425595      371.5833       56.498033      74.132698    
  22080000   301.12039      0.94924908     0.949249       0.9564705      2.208         -13.583953     -0.58263534     216            0.40666538     5.8263534     -3.9031576     -0.70319966     371.69917      56.162443      74.512784    
  22090000   299.85097      0.95132313     0.95132305     0.93875809     2.209         -36.10363      -9.0708114      212            50.459949      90.708114      18.382292      42.289442      371.81503      56.168714      74.318866    
  22100000   300.38052      0.95045166     0.95045158     0.97418292     2.21          -13.629924      0.050280381    220           -10.269635     -0.50280381    -13.262156     -17.043946      371.9309       56.092225      74.46524     
  22110000   301.30694      0.94853699     0.9485369      0.92547377     2.211          11.340134      7.8645368      209           -50.555556     -78.645368     -55.201905     -17.819394      372.04677      56.208544      74.437951    
  22120000   299.60314      0.95040056     0.95040047     0.9564705      2.212          29.233507     -1.0167386      216            5.3104744      10.167386      8.612801      -2.8487639      372.16263      56.188089      74.2959      
  22130000   300.72885      0.94777854     0.94777846     0.93875809     2.213         -33.222934      3.9853548      212           -13.184075     -39.853548      20.469699     -20.168375      372.2785       56.447667      74.135757    
  22140000   299.38882      0.94886056     0.94886048     0.9564705      2.214          32.287025     -11.452169      216            46.318954      114.52169      34.995438     -10.560263      372.39436      56.437544      74.041457    
  22150000   300.12167      0.95015042     0.95015034     0.97861102     2.215          10.811141      6.088675       221           -14.901675     -60.88675       15.276919      0.90480563     372.51023      56.201126      74.22889     
  22160000   300.04187      0.94954        0.94953992     0.94761429     2.216          2.1840761      6.9775133      214           -34.108588     -69.775133     -15.209551     -17.34108       372.6261       56.665371      73.645172    
  22170000   299.84412      0.94691767     0.94691759     0.98303913     2.217         -14.812427      5.9131663      222           -21.897322     -59.131663      5.7531279     -12.31343       372.74196      56.769356      73.690937    
  22180000   301.47459      0.94862001     0.94861993     0.9564705      2.218          8.4277832      3.5306211      216            0.73405441    -35.306211      41.313422     -3.8050485      372.85783      56.797407      73.499518    
  22190000   298.9908       0.94950785     0.94950776     0.93875809     2.219         -33.952823      1.1662056      212           -19.65472      -11.662056      28.176892     -75.478996      372.9737       56.621021      73.636662    
  22200000   298.6718       0.94673197     0.94673189     0.9520424      2.22           55.67261      -2.7022981      215           -25.813445      27.022981     -66.057496     -38.405821      373.08956      57.157565      73.136587    
  22210000   301.64162      0.94633097     0.94633089     0.96532671     2.221         -15.504257      10.834349      218           -79.519822     -108.34349     -43.956666     -86.259313      373.20543      56.89346       73.484408    
  22220000   298.13321      0.94836738     0.94836729     0.93875809     2.222          47.593131      8.0866559      212           -35.420729     -80.866559     -18.955311     -6.4403174      373.32129      56.579999      73.709972    
  22230000   300.53878      0.94724313     0.94724305     0.93875809     2.223         -15.570019      1.0472356      212            9.3507193     -10.472356      50.273922     -11.749408      373.43716      56.824861      73.456659    
  22240000   301.27518      0.94681178     0.9468117      0.93432998     2.224          34.467656      3.8098735      211           -25.754836     -38.098735     -0.8501771     -38.315597      373.55303      56.620529      73.732459    
  22250000   301.13546      0.95007228     0.9500722      0.97861102     2.225         -18.114907     -0.35278324     221           -6.8530693      3.5278324     -7.4847056     -16.602335      373.66889      56.571662      73.520089    
  22260000   301.41336      0.949116       0.94911591     0.97418292     2.226         -47.051325      2.405918       220           -6.15185       -24.05918       11.290863     -5.6872323      373.78476      56.489466      73.678402    
  22270000   298.44057      0.94797719     0.94797711     0.97861102     2.227          26.175045      5.4299264      221           -16.499521     -54.299264     -16.104747      20.905449      373.90063      56.698596      73.472051    
  22280000   300.02768      0.94951597     0.94951589     0.96089861     2.228          26.274884      1.8505534      217           -4.9445851     -18.505534      25.487282     -21.815504      374.01649      56.490921      73.59984     
  22290000   300.06581      0.94678066     0.94678058     0.9520424      2.229          42.903931      4.3306019      215           -18.5841       -43.306019      4.0039766     -16.450259      374.13236      56.389925      73.921774    
  22300000   300.68555      0.94864527     0.94864519     0.94761429     2.23          -0.83138316     7.7816603      214           -58.526339     -77.816603     -70.89211      -26.870304      374.24823      56.35597       73.798073    
  22310000   299.71775      0.94780192     0.94780184     0.92990188     2.231          43.987211      1.444815       210           -0.82634279    -14.44815       26.866395     -14.897273      374.36409      56.520151      73.626383    
  22320000   299.22679      0.94688345     0.94688336     0.96089861     2.232         -27.283971      4.1536909      217           -33.87176      -41.536909     -56.797561     -3.2808113      374.47996      56.464609      73.74747     
  22330000   298.97262      0.94782113     0.94782105     0.9564705      2.233         -20.362258     -5.5053622      216            8.6622591      55.053622     -5.6366438     -23.430201      374.59582      56.196897      74.002586    
  22340000   301.35302      0.94917032     0.94917023     0.96532671     2.234          14.066546     -0.16180458     218            2.8694094      1.6180458      0.44180318     6.5483791      374.71169      56.080697      74.027616    
  22350000   298.46407      0.94876925     0.94876917     0.94761429     2.235          41.926808      2.1305133      214            12.463674     -21.305133     -33.953603      92.649757      374.82756      56.231534      73.837419    
  22360000   298.71836      0.9489413      0.94894122     0.92547377     2.236          50.139276      5.1709833      209            40.133938     -51.709833      75.730888      96.380758      374.94342      56.141586      73.91946     
  22370000   300.84329      0.95001701     0.95001692     0.9564705      2.237         -27.157147     -0.38657678     216            32.506956      3.8657678      77.692526      15.962575      375.05929      56.27086       73.643376    
  22380000   302.16945      0.94698091     0.94698083     0.96089861     2.238         -38.464113      2.0134749      217           -17.026202     -20.134749     -30.040029     -0.90382832     375.17516      56.195337      73.955925    
  22390000   299.736        0.94802721     0.94802713     0.98303913     2.239          17.927532      5.2951168      222           -43.517077     -52.951168     -9.0355745     -68.564487      375.29102      55.924983      74.20851     
  22400000   301.66249      0.94935956     0.94935947     0.96975482     2.24          -9.2169539      0.53852118     219           -6.4011899     -5.3852118     -16.067711      2.2493534      375.40689      56.019363      73.956683    
  22410000   299.51525      0.94685016     0.94685007     0.94761429     2.241          12.043945      0.39305875     214            32.021831     -3.9305875      19.494609      80.501472      375.52275      56.431667      73.588197    
  22420000   300.3281       0.9468654      0.94686532     0.96975482     2.242          37.040774      8.4648551      219           -34.322007     -84.648551      3.7642217     -22.081693      375.63862      56.357497      73.661129    
  22430000   300.33321      0.94877511     0.94877503     0.94761429     2.243          71.707045      2.6418559      214            14.545994     -26.418559     -12.07349       82.130032      375.75449      55.96795       74.001699    
  22440000   300.91347      0.95069551     0.95069543     0.94318619     2.244          18.449563      7.554056       213           -23.232967     -75.54056       2.9149981      2.9266604      375.87035      55.927277      73.883142    
  22450000   297.84649      0.94941269     0.9494126      0.96089861     2.245          15.411097      2.3530509      217           -4.1512193     -23.530509      27.862071     -16.78522       375.98622      56.270094      73.509582    
  22460000   300.13287      0.94985718     0.9498571      0.92104567     2.246         -34.930846      1.3446499      208           -8.1083047     -13.446499     -2.4263898     -8.4520258      376.10209      56.413007      73.266466    
  22470000   300.89475      0.94905563     0.94905555     0.97861102     2.247          2.5803753     -0.070295525    221            3.8424922      0.70295525     10.206688      0.61783315     376.21795      56.540028      73.141076    
  22480000   300.18946      0.94999126     0.94999117     0.93432998     2.248          22.653164      0.54935644     211            9.7407186     -5.4935644     -9.955247       44.670967      376.33382      56.349835      73.293092    
  22490000   300.60866      0.94984313     0.94984305     0.92990188     2.249         -13.999487      12.046034      210           -36.090886     -120.46034     -4.2883785      16.476065      376.44969      56.02264       73.709957    
  22500000   299.97338      0.94708424     0.94708415     0.9564705      2.25          -4.2118989      7.7154011      216           -59.659192     -77.154011     -37.279995     -64.54357       376.56555      55.943085      74.007024    
  22510000   299.28813      0.94835145     0.94835137     0.98303913     2.251          26.328334     -0.48489699     222           -22.9111        4.8489699     -47.172254     -26.410016      376.68142      55.872326      73.978971    
  22520000   299.19375      0.94688257     0.94688249     0.99189534     2.252          23.109542      6.2872515      224            0.8139158     -62.872515      29.281346      36.032917      376.79728      55.859525      74.087924    
  22530000   299.53681      0.94861388     0.94861379     0.96089861     2.253         -32.379844      3.2914156      217            24.143339     -32.914156      17.478638      87.865535      376.91315      55.914279      73.857578    
  22540000   299.63622      0.94666755     0.94666747     0.92990188     2.254          34.386491      1.4830537      210           -6.3978163     -14.830537      43.751398     -48.11431       377.02902      55.688798      74.286251    
  22550000   298.34102      0.94678556     0.94678548     0.93432998     2.255         -20.503183      0.43866109     211           -18.618904     -4.3866109     -15.701468     -35.768632      377.14488      55.653793      74.300877    
  22560000   299.00943      0.94946041     0.94946033     0.94761429     2.256         -43.216964      7.2907381      214           -56.696247     -72.907381     -60.270787     -36.910573      377.26075      55.766249      73.919434    
  22570000   299.65917      0.94964937     0.94964929     0.93432998     2.257         -34.024579      1.7701152      211            20.631027     -17.701152      54.960206      24.634026      377.37662      55.693882      73.978035    
  22580000   298.28295      0.94910452     0.94910444     0.9564705      2.258          16.531896      7.7328947      216           -24.238179     -77.328947      35.824733     -31.210322      377.49248      55.894294      73.73246     
  22590000   301.51359      0.94822433     0.94822425     0.91661757     2.259          10.012346     -3.5861683      207            33.551476      35.861683      14.598826      50.19392       377.60835      56.027002      73.603504    
  22600000   300.75687      0.94787069     0.9478706      0.93875809     2.26           71.386834      5.3877454      212           -49.424315     -53.877454     -31.64103      -62.754462      377.72422      55.882408      73.798838    
  22610000   297.99114      0.94958622     0.94958613     0.90776136     2.261          0.67681554     3.8965925      205           -15.660478     -38.965925      4.5827103     -12.59822       377.84008      55.340106      74.364581    
  22620000   299.62581      0.94992233     0.94992224     0.94318619     2.262          25.11738       4.5687575      213            26.612242     -45.687575      80.440227      45.084074      377.95595      55.541943      74.04542     
  22630000   299.94954      0.94803334     0.94803326     0.96532671     2.263         -37.944823      5.1048582      218           -47.571749     -51.048582     -35.452298     -56.214368      378.07181      55.326593      74.458916    
  22640000   302.03642      0.94975325     0.94975317     0.92547377     2.264          8.209917       2.8363045      209            7.9416364     -28.363045      19.339905      32.84805       378.18768      55.384202      74.224022    
  22650000   299.59172      0.94959294     0.94959286     0.94761429     2.265         -17.663559      10.346905      214           -34.179302     -103.46905      17.60227      -16.671123      378.30355      55.350212      74.259389    
  22660000   299.18633      0.94901898     0.94901889     0.94761429     2.266         -11.228824      2.4669817      214           -20.777044     -24.669817     -16.006266     -21.65505       378.41941      55.336914      74.299401    
  22670000   299.08405      0.94835909     0.94835901     0.98303913     2.267         -30.007966      1.3521988      222            5.7421688     -13.521988      11.203676      19.544819      378.53528      55.469766      74.150322    
  22680000   299.09564      0.94739296     0.94739288     0.92104567     2.268         -11.620071     -0.83466651     208           -24.504591      8.3466651     -24.772234     -57.088204      378.65115      55.355482      74.356422    
  22690000   297.39579      0.94734368     0.9473436      0.91661757     2.269         -11.450215      3.9731542      207           -31.549037     -39.731542     -11.613772     -43.301798      378.76701      55.444663      74.217974    
  22700000   299.72648      0.94755081     0.94755073     0.97418292     2.27          -35.709318     -3.5698811      220            37.459112      35.698811      22.457061      54.221463      378.88288      55.211812      74.491902    
  22710000   299.05429      0.94868447     0.94868439     0.88562084     2.271         -0.99999982     2.0300266      200            33.505567     -20.300266      69.013621      51.803347      378.99874      55.057339      74.588826    
  22720000   302.58088      0.94687758     0.94687749     0.94318619     2.272          17.354743      6.2857964      213           -50.534103     -62.857964     -54.986587     -33.757758      379.11461      55.330223      74.339866    
  22730000   298.45163      0.94765244     0.94765236     0.96532671     2.273         -53.830273      7.6724962      218           -35.251099     -76.724962     -29.058234      0.029899888    379.23048      55.114076      74.547606    
  22740000   299.69014      0.94821216     0.94821208     0.97418292     2.274          12.619233     -4.0699397      220            57.663593      40.699397      36.683374      95.608007      379.34634      55.064549      74.547836    
  22750000   300.62331      0.947201       0.94720092     0.9564705      2.275         -23.731645      3.3776007      216            2.5157658     -33.776007      15.979596      25.343709      379.46221      55.120614      74.528747    
  22760000   301.11209      0.94843663     0.94843655     0.97418292     2.276          0.17547665     0.60325887     220            30.615482     -6.0325887      48.932445      48.946589      379.57808      55.142904      74.378853    
  22770000   299.47606      0.95005841     0.95005833     0.93875809     2.277          41.368255     -1.1617747      212            49.448448      11.617747      64.530479      72.19712       379.69394      55.255179      74.078399    
  22780000   300.93772      0.94797653     0.94797644     0.99189534     2.278          14.934212      6.0716814      224           -11.725234     -60.716814      53.110468     -27.569355      379.80981      55.134532      74.380843    
  22790000   300.69614      0.94903706     0.94903698     0.92547377     2.279          60.960367      6.9853571      209           -52.853724     -69.853571     -27.373969     -61.333631      379.92568      55.269996      74.093021    
  22800000   300.2115       0.94936557     0.94936549     0.91661757     2.28          -2.5008469      11.203718      207           -62.090349     -112.03718     -0.15430347    -74.079564      380.04154      54.854143      74.606139    
  22810000   298.48027      0.94573647     0.94573639     0.90333325     2.281          48.171469      4.9015027      204           -22.501093     -49.015027     -13.860896     -4.6273556      380.15741      55.154752      74.461541    
  22820000   297.97512      0.94857075     0.94857066     0.94318619     2.282         -30.596354      9.37645        213           -40.877032     -93.7645       -1.2339022     -27.632695      380.27327      55.014319      74.405884    
  22830000   298.34796      0.9500973      0.95009721     0.93875809     2.283          32.312047      1.2928318      212           -18.512646     -12.928318     -61.584216      18.974597      380.38914      54.956209      74.342231    
  22840000   299.47928      0.94789034     0.94789026     0.96532671     2.284          2.6911728      2.246802       218           -24.93383      -22.46802      -47.847809     -4.4856609      380.50501      55.114335      74.278908    
  22850000   299.29476      0.94932405     0.94932396     0.96532671     2.285         -13.991066      4.4429652      218           -13.630972     -44.429652      18.281837     -14.745102      380.62087      54.855609      74.493851    
  22860000   300.64333      0.94782531     0.94782523     0.89447704     2.286          22.253339     -6.0345952      202            6.7428653      60.345952     -34.1073       -6.0100566      380.73674      55.009924      74.379699    
  22870000   300.37923      0.95125278     0.9512527      0.94761429     2.287         -54.397225     -1.720675       214           -4.7995834      17.20675      -0.60837843    -30.997121      380.85261      54.850409      74.304619    
  22880000   299.82292      0.94775623     0.94775615     0.98303913     2.288         -28.44384       5.0351869      222           -19.207867     -50.351869      2.0864084     -9.3581411      380.96847      55.052758      74.282034    
  22890000   299.14334      0.95063583     0.95063574     0.94318619     2.289         -54.525393     -3.9206998      213            15.754257      39.206998     -29.055312      37.111085      381.08434      54.82056       74.348089    
  22900000   298.74263      0.94791002     0.94790994     0.97418292     2.29          -63.427129      3.9717134      220            5.7463174     -39.717134      4.8618552      52.094231      381.2002       54.874359      74.466142    
  22910000   299.11653      0.94945292     0.94945284     0.98303913     2.291          68.877066      3.6153671      222           -24.240801     -36.153671     -4.4697357     -32.098997      381.31607      54.886343      74.306313    
  22920000   300.37461      0.94933654     0.94933645     0.93432998     2.292          87.579051      1.1513153      211           -7.7080735     -11.513153     -7.2535494     -4.3575177      381.43194      54.979645      74.166771    
  22930000   299.87958      0.9478417      0.94784162     0.96089861     2.293          23.21715       3.9082639      217           -0.79895575    -39.082639      33.993436      2.6923353      381.5478       55.139144      74.046368    
  22940000   299.19671      0.94693777     0.94693769     0.9564705      2.294         -15.532733      2.4847868      216            6.7548488     -24.847868      50.769998     -5.6575841      381.66367      55.104041      74.141752    
  22950000   301.02023      0.9494956      0.94949552     0.9520424      2.295          27.404914      3.8090077      215            13.214324     -38.090077      74.314501      3.4185483      381.77954      54.79391       74.337962    
  22960000   299.99723      0.94847827     0.94847819     0.98303913     2.296         -52.157664      9.0701882      222           -55.67403      -90.701882     -62.870089     -13.450119      381.8954       54.758289      74.443514    
  22970000   297.70965      0.94932639     0.9493263      0.98303913     2.297         -28.809522      7.3425465      222           -21.182143     -73.425465     -13.700251      23.579288      382.01127      55.02955       73.987928    
  22980000   300.32445      0.94707517     0.94707508     0.94761429     2.298          18.852773     -1.1611299      214            2.8527327      11.611299      62.924427     -65.977527      382.12714      54.691945      74.598973    
  22990000   299.4399       0.95056819     0.95056811     0.94318619     2.299          5.6939543     -1.4092139      213            37.730107      14.092139      84.638044      14.460138      382.243        54.597319      74.431096    
  23000000   299.54338      0.94587669     0.9458766      0.96532671     2.3            18.212344      3.9551685      218           -23.611391     -39.551685     -30.313255     -0.96923386     382.35887      54.62725       74.736632    
  23010000   301.28311      0.94853514     0.94853506     0.93875809     2.301         -5.0677821      1.8872859      212           -48.433293     -18.872859     -70.467084     -55.959937      382.47473      54.540228      74.623468    
  23020000   301.49279      0.94927933     0.94927925     0.96532671     2.302          30.854217      8.3348984      218           -60.345455     -83.348984     -65.318405     -32.368976      382.5906       54.819873      74.162132    
  23030000   300.32735      0.94826532     0.94826523     0.96532671     2.303         -8.1085544      2.7688725      218            5.9667531     -27.688725      26.360114      19.22887       382.70647      54.857612      74.167901    
  23040000   300.75996      0.94738035     0.94738027     0.93875809     2.304         -17.447051      5.3444851      212           -5.2650318     -53.444851      31.886314      5.763442       382.82233      54.702044      74.425774    
  23050000   301.57357      0.94815083     0.94815075     0.93875809     2.305          56.859367      3.256221       212           -8.2825991     -32.56221      -12.476438      20.19085       382.9382       54.836854      74.16003     
  23060000   299.31536      0.95055149     0.9505514      0.93875809     2.306          14.713415      6.1986696      212           -12.720749     -61.986696      3.0965738      20.727875      383.05407      54.751531      74.065602    
  23070000   299.99649      0.94630398     0.9463039      0.92990188     2.307          51.294362      0.1028369      210           -35.401512     -1.028369      -70.234353     -34.941814      383.16993      54.921969      74.144742    
  23080000   301.13564      0.95114516     0.95114508     0.98746723     2.308         -68.814213     -3.2464438      223            21.744658      32.464438      44.817767     -12.048229      383.2858       54.632385      74.13595     
  23090000   300.55445      0.94679325     0.94679316     0.96089861     2.309         -41.403222      6.6709975      217           -27.992735     -66.709975     -52.019654      34.751424      383.40166      54.70249       74.358789    
  23100000   299.53844      0.94693102     0.94693094     0.97418292     2.31          -47.492441     -3.3756179      220            3.1975556      33.756179      9.3969725     -33.560485      383.51753      54.355972      74.799332    
  23110000   299.74201      0.95007712     0.95007704     0.94318619     2.311          1.7824904      6.4213863      213            18.80814      -64.213863      58.225834      62.412449      383.6334       54.524008      74.299436    
  23120000   300.32831      0.94749315     0.94749306     0.92104567     2.312          30.264528      6.6534964      208           -35.959476     -66.534964     -15.454788     -25.888677      383.74926      54.603161      74.371602    
  23130000   301.21831      0.9466047      0.94660462     0.96089861     2.313          17.375606      6.1893738      217           -26.088883     -61.893738     -11.447035     -4.9258763      383.86513      54.560045      74.477744    
  23140000   300.35542      0.94978152     0.94978144     0.92990188     2.314         -19.277461      2.7569697      210           -23.109575     -27.569697     -23.521286     -18.237743      383.981        54.214114      74.67973     
  23150000   300.08004      0.94808818     0.9480881      0.9564705      2.315         -26.566217      5.6860968      216           -51.944795     -56.860968     -25.047368     -73.926049      384.09686      54.425819      74.499625    
  23160000   298.98134      0.94928605     0.94928597     0.96532671     2.316          26.679858      4.7042005      218           -3.377426      -47.042005      27.136179      9.773548       384.21273      53.982351      74.99424     
  23170000   300.56996      0.95011686     0.95011678     0.91218946     2.317          3.2857338      5.5218487      206           -5.0684682     -55.218487      2.4517798      37.561302      384.3286       53.809242      75.147052    
  23180000   300.64921      0.94809043     0.94809035     0.92547377     2.318         -12.227435      8.4118232      209           -52.619358     -84.118232     -16.255982     -57.483859      384.44446      53.998441      75.021192    
  23190000   298.6273       0.94811635     0.94811627     0.96089861     2.319          70.852391      0.67996929     217            41.063784     -6.7996929      68.819955      61.17109       384.56033      54.062194      74.908098    
  23200000   297.02828      0.94930914     0.94930906     0.92547377     2.32          -14.108896      0.38350415     209            15.549359     -3.8350415     -7.8404289      58.323546      384.67619      54.117041      74.715642    
  23210000   300.0275       0.95139174     0.95139165     0.9520424      2.321         -16.016893     -5.6950026      215            33.132191      56.950026      9.9781242      32.468423      384.79206      53.823291      74.9364      
  23220000   298.47693      0.95080729     0.95080721     0.96532671     2.322          2.958518       7.2417358      218           -0.61961711    -72.417358     -2.2331184      72.791625      384.90793      54.257218      74.360392    
  23230000   300.60475      0.94881166     0.94881158     0.96089861     2.323          7.0515324      7.8250629      217           -36.73065      -78.250629     -31.183577     -0.75774388     385.02379      54.614693      74.006774    
  23240000   298.0798       0.94960708     0.94960699     0.9520424      2.324          39.840213      7.7828775      215           -15.473268     -77.828775      28.269247      3.1397232      385.13966      54.380642      74.240696    
  23250000   300.2853       0.94658496     0.94658488     0.94761429     2.325          15.205655      9.7056527      214           -65.691839     -97.056527     -60.203916     -39.815075      385.25553      54.62263       74.125471    
  23260000   298.60076      0.94819566     0.94819558     0.96089861     2.326          34.974881      12.108954      217           -34.401902     -121.08954      14.925023      2.9588155      385.37139      54.828311      73.69979     
  23270000   299.27484      0.94984203     0.94984194     0.94318619     2.327          40.70627      -2.5337761      213            5.9058275      25.337761      12.183128     -19.803406      385.48726      54.668643      73.764746    
  23280000   301.47644      0.94794047     0.94794038     0.96975482     2.328          1.0309796      6.6352539      219           -44.832235     -66.352539     -8.2283873     -59.915777      385.60313      54.755339      73.773514    
  23290000   301.15306      0.94984899     0.9498489      0.98746723     2.329          9.753441      -4.5859397      223            25.41273       45.859397      2.1255907      28.253203      385.71899      54.318752      74.194752    
  23300000   298.61781      0.94909639     0.9490963      0.96089861     2.33          -27.257706      0.84100541     217            34.865304     -8.4100541      72.311617      40.69435       385.83486      54.446724      74.056813    
  23310000   301.66508      0.94849569     0.94849561     0.94761429     2.331         -6.1066908     -2.1979622      214            34.744259      21.979622      77.423765      4.8293912      385.95072      54.598082      73.876097    
  23320000   301.28742      0.94891848     0.94891839     0.96532671     2.332         -18.974388      7.3517024      218           -20.450147     -73.517024      54.297066     -42.130484      386.06659      54.426677      74.053503    
  23330000   300.09588      0.94860402     0.94860394     0.92547377     2.333          4.7851278      1.402006       209            16.398476     -14.02006       52.746212      10.469275      386.18246      54.420009      74.0649      
  23340000   301.31719      0.94887526     0.94887518     0.94318619     2.334         -32.880778      7.877257       213           -11.500043     -78.77257       78.16463      -33.892188      386.29832      54.004061      74.591645    
  23350000   300.03833      0.94815078     0.9481507      0.91218946     2.335          26.657141      6.4346391      206            5.4599114     -64.346391     -3.3764227      84.102548      386.41419      54.049614      74.563361    
  23360000   297.96657      0.94681404     0.94681395     1.0096078      2.336          17.592994      12.024579      228           -82.085617     -120.24579     -100.22825     -25.782811      386.53006      53.830796      74.949681    
  23370000   299.82749      0.94982596     0.94982587     0.94318619     2.337         -0.4037494      4.9092496      213           -31.62229      -49.092496     -31.744371     -14.030003      386.64592      53.996875      74.459901    
  23380000   299.77802      0.94775823     0.94775815     0.9520424      2.338          66.673641      2.6353008      215           -4.8659387     -26.353008     -9.7951359      21.550328      386.76179      54.013953      74.576408    
  23390000   301.07932      0.94856783     0.94856775     0.93432998     2.339          21.965316      6.0744629      211           -4.5152266     -60.744629      23.356703      23.842247      386.87765      53.985048      74.530326    
  23400000   299.43006      0.94991288     0.9499128      0.94761429     2.34          -59.271963     -1.9156816      214           -12.577659      19.156816     -52.00553      -4.8842631      386.99352      53.889992      74.533747    
  23410000   300.96833      0.94806336     0.94806328     0.96975482     2.341         -3.4966149      7.9612362      219           -35.798065     -79.612362     -3.4992529     -24.282581      387.10939      54.010623      74.490055    
  23420000   302.05361      0.94778651     0.94778643     0.98746723     2.342          1.7824847      1.1011384      223            19.156409     -11.011384      57.732031      10.748582      387.22525      53.997281      74.507924    
  23430000   298.00549      0.94901786     0.94901778     0.91218946     2.343          50.562897      8.6364393      206           -30.095484     -86.364393      10.207766     -14.129823      387.34112      53.971051      74.425144    
  23440000   300.44583      0.94907901     0.94907893     0.94761429     2.344         -59.084474     -4.9189621      214            43.080772      49.189621      57.324927      22.727769      387.45699      53.768907      74.677794    
  23450000   299.88322      0.9495163      0.94951622     0.93432998     2.345         -7.6900341      3.9098822      211            1.8639813     -39.098822      14.042131      30.648634      387.57285      54.066906      74.2098      
  23460000   299.65305      0.94910089     0.9491008      0.94318619     2.346          18.788098      3.5638618      213           -1.3157114     -35.638618     -20.137341      51.828825      387.68872      54.224958      74.003759    
  23470000   301.39544      0.94649082     0.94649074     0.91218946     2.347          28.446692     -0.069647964    206           -19.867184      0.69647964     2.2890915     -62.587123      387.80459      54.305156      74.076106    
  23480000   301.81932      0.95088016     0.95088008     0.99189534     2.348         -50.944156      5.5111857      224           -54.575002     -55.111857     -85.900892     -22.712257      387.92045      54.607949      73.303418    
  23490000   300.13049      0.94666504     0.94666495     0.87233652     2.349          73.065222      8.9164643      197           -72.828576     -89.164643     -74.173096     -55.14799       388.03632      54.288005      74.041627    
  23500000   301.42011      0.95246546     0.95246537     0.91218946     2.35          -11.218716     -3.5104998      206            25.292649      35.104998      13.000287      27.772663      388.15218      54.143739      73.764778    
  23510000   299.88373      0.95100851     0.95100843     0.96089861     2.351         -25.674549     -7.4793705      217            26.501815      74.793705      9.0838679     -4.3721296      388.26805      54.348003      73.578156    
  23520000   301.34161      0.95006741     0.95006732     0.9564705      2.352         -61.484616     -0.73773814     216            1.8826325      7.3773814     -22.049712      20.320228      388.38392      54.378378      73.587941    
  23530000   300.82748      0.94803325     0.94803316     0.9564705      2.353         -38.892926      4.616053       216            13.625696     -46.16053       35.975235      51.062382      388.49978      54.228067      73.928191    
  23540000   300.46749      0.94862339     0.94862331     0.96975482     2.354         -30.560979     -1.6330667      219           -9.7426387      16.330667     -11.561969     -33.996614      388.61565      54.059057      74.091087    
  23550000   298.30743      0.95016201     0.95016192     0.91661757     2.355         -8.4885525     -0.62696837     207           -4.0118569      6.2696837      6.9153603     -25.220615      388.73152      53.808359      74.293598    
  23560000   301.34898      0.94731688     0.9473168      0.94318619     2.356         -3.4234272      3.1107653      213            13.862251     -31.107653      36.985033      35.709372      388.84738      53.657419      74.704079    
  23570000   301.70422      0.94776326     0.94776318     0.9564705      2.357         -3.3111328      3.6210399      216            8.4311831     -36.210399      38.197669      23.306279      388.96325      53.995031      74.179912    
  23580000   301.21121      0.95026651     0.95026643     0.92547377     2.358          7.0110904      1.7369038      209            1.5300099     -17.369038      47.2377       -25.278632      389.07911      54.005854      73.947649    
  23590000   298.80605      0.9473698      0.94736971     0.93875809     2.359          11.789242      6.3463026      212           -21.26499      -63.463026      34.410787     -34.742729      389.19498      54.082003      74.047264    
  23600000   299.8932       0.9478931      0.94789302     0.92104567     2.36           3.0610928      8.6608753      208           -21.726556     -86.608753     -1.1524815      22.581566      389.31085      54.021366      74.067405    
  23610000   301.27701      0.94840113     0.94840105     0.9520424      2.361          37.432119      5.8092787      215           -23.976381     -58.092787      27.978432     -41.814786      389.42671      54.055723      73.958666    
  23620000   303.42591      0.94856908     0.94856899     0.94761429     2.362          19.642857      5.9645979      214           -23.784687     -59.645979      8.3544846     -20.062566      389.54258      53.875065      74.171464    
  23630000   300.05068      0.94764921     0.94764912     0.99189534     2.363         -25.926196      4.6226299      224           -4.0704073     -46.226299      5.3679625      28.647115      389.65845      54.113064      73.894944    
  23640000   301.17206      0.94742431     0.94742422     0.94761429     2.364         -1.1093283      2.5448556      214            2.4915064     -25.448556     -4.9791756      37.902251      389.77431      53.921362      74.153211    
  23650000   299.93903      0.94543872     0.94543864     0.96089861     2.365          14.308179      8.7115695      217           -41.517791     -87.115695     -39.813778      2.3760998      389.89018      53.996553      74.183416    
  23660000   300.39712      0.94780787     0.94780778     0.92547377     2.366         -9.1019169      7.4185784      209           -34.788583     -74.185784     -28.520568     -1.6593987      390.00605      53.791044      74.25863     
  23670000   300.76392      0.95034962     0.95034954     0.91218946     2.367          35.764469      0.73836085     206            8.3058488     -7.3836085     -40.317097      72.618252      390.12191      53.843491      73.965907    
  23680000   297.99405      0.94782248     0.94782239     0.98303913     2.368         -20.669741      10.664566      222           -40.269399     -106.64566     -17.339693      3.177153       390.23778      53.86662       74.109267    
  23690000   299.50519      0.94900058     0.9490005      0.96975482     2.369          37.66232      -4.9289878      219            19.550083      49.289878     -33.944193      43.304564      390.35364      54.084726      73.696897    
  23700000   300.95231      0.94636677     0.94636669     0.96975482     2.37          -1.8981912      3.3071989      219           -21.857128     -33.071989     -12.065676     -20.433718      390.46951      53.963199      74.046452    
  23710000   300.17877      0.94981826     0.94981817     0.94761429     2.371          33.20793       3.912203       214           -25.502193     -39.12203      -16.366785     -21.017762      390.58538      54.109869      73.555571    
  23720000   299.12636      0.94555326     0.94555318     0.93875809     2.372          30.257049      9.6759587      212           -58.78201      -96.759587     -73.551074     -6.0353675      390.70124      54.143972      73.818913    
  23730000   299.95226      0.94950593     0.94950585     0.94318619     2.373          60.013566     -9.4727021      213            59.818648      94.727021      50.90028       33.828643      390.81711      54.058636      73.60583     
  23740000   300.81995      0.94940799     0.94940791     0.97861102     2.374         -35.831077     -3.5697593      221            8.7608499      35.697593     -17.43736       8.0223172      390.93298      54.203871      73.394423    
  23750000   300.0387       0.94903369     0.94903361     0.9520424      2.375         -15.426731     -4.1844976      215           -0.5971866      41.844976     -15.856401     -27.780134      391.04884      54.081689      73.567445    
  23760000   299.23783      0.94885834     0.94885825     0.97861102     2.376         -12.625339      8.7471005      221           -43.759736     -87.471005     -57.492771      13.68457       391.16471      54.024732      73.636796    
  23770000   301.54982      0.95097351     0.95097342     0.97418292     2.377         -23.145209      0.89061994     220            32.474613     -8.9061994      59.757736      46.572302      391.28058      53.905044      73.614344    
  23780000   298.02004      0.94848657     0.94848648     0.9520424      2.378         -31.137051      8.0533694      215           -42.228991     -80.533694     -27.22349      -18.92979       391.39644      54.103879      73.514346    
  23790000   301.38639      0.95032366     0.95032357     0.94761429     2.379          30.40912      -3.3065991      214            0.0074668505   33.065991     -38.740907      5.6973165      391.51231      53.796338      73.769846    
  23800000   301.57527      0.94837325     0.94837317     0.97418292     2.38           31.652468      2.2640874      220           -54.187895     -22.640874     -69.444611     -70.4782        391.62817      53.886114      73.77657     
  23810000   298.41527      0.95179425     0.95179417     0.96975482     2.381         -11.066805     -5.3852905      219            52.134097      53.852905      61.748974      40.800411      391.74404      53.735973      73.694989    
  23820000   299.51717      0.9472643      0.94726422     0.92547377     2.382         -10.809812      3.9960827      209            3.5517496     -39.960827      10.113534      40.502542      391.85991      53.739268      74.020975    
  23830000   300.90857      0.9493797      0.94937962     0.96532671     2.383         -15.435842      5.9477025      218           -28.30584      -59.477025     -13.509703     -11.930792      391.97577      53.749037      73.820791    
  23840000   300.43435      0.94938948     0.94938939     0.94761429     2.384          2.5828343      0.8852274      214           -1.1013029     -8.852274      -12.626178      18.174543      392.09164      53.793144      73.737707    
  23850000   301.56384      0.95050364     0.95050355     0.92104567     2.385          18.068121      6.8226824      208           -44.433387     -68.226824     -85.22304       20.149704      392.20751      53.618963      73.8687      
  23860000   301.67329      0.94902132     0.94902124     0.91661757     2.386          42.785664      4.7197877      207           -47.092077     -47.197877     -4.3116315     -89.766721      392.32337      53.620792      73.959706    
  23870000   301.30658      0.94829779     0.9482977      0.92547377     2.387         -53.368922      6.6566599      209           -4.8760238     -66.566599      23.798995      28.139532      392.43924      53.783632      73.770251    
  23880000   300.28497      0.94782061     0.94782053     0.97418292     2.388         -25.745518     -0.2393521      220           -26.678944      2.393521      -32.612459     -49.817894      392.5551       53.659171      73.95675     
  23890000   300.10482      0.94838324     0.94838315     0.98746723     2.389          7.3140221      6.4883062      223           -25.628111     -64.883062      9.6437911     -21.645061      392.67097      53.676009      73.867886    
  23900000   299.57151      0.94710494     0.94710486     0.94761429     2.39           7.6975237      2.6916289      214           -22.821807     -26.916289     -31.961583     -9.5875507      392.78684      53.651616      73.979385    
  23910000   298.07375      0.94801359     0.9480135      0.96089861     2.391         -25.637131      0.79106828     217            2.3363188     -7.9106828     -1.3685952      16.288234      392.9027       53.523769      74.063168    
  23920000   298.6585       0.94929755     0.94929747     0.9520424      2.392         -30.222673      6.3652141      215           -47.757112     -63.652141     -64.722979     -14.896218      393.01857      53.488564      73.989857    
  23930000   299.356        0.95101673     0.95101665     0.96975482     2.393          15.933676      5.9822827      219            50.15041      -59.822827      79.150151      131.12391      393.13444      53.463428      73.869049    
  23940000   300.86174      0.94877657     0.94877649     0.94318619     2.394         -27.050988      0.86631755     213           -9.2869503     -8.6631755      4.7786093     -23.976285      393.2503       53.773147      73.5953      
  23950000   302.29238      0.94895003     0.94894995     0.96532671     2.395         -3.0339634      1.1483456      218           -40.205573     -11.483456     -51.903103     -57.23016       393.36617      53.673021      73.697399    
  23960000   299.09454      0.94775157     0.94775149     0.97861102     2.396          30.136027      0.48104778     221           -8.5471439     -4.8104778      5.9263351     -26.757289      393.48204      53.99355       73.330939    
  23970000   300.50238      0.95139679     0.95139671     0.97861102     2.397         -75.05031       3.8851258      221           -2.158578      -38.851258      41.287957     -8.9124331      393.5979       53.76578       73.337845    
  23980000   299.91569      0.94809597     0.94809589     0.96975482     2.398         -5.225836       13.628963      219           -41.842181     -136.28963     -3.4994935      14.26258       393.71377      54.014875      73.232232    
  23990000   300.66217      0.94992745     0.94992737     0.94761429     2.399          24.855623     -4.5927841      214            28.758053      45.927841     -6.6356689      46.981988      393.82963      53.799571      73.361957    
  24000000   299.90215      0.94950538     0.9495053      0.94761429     2.4            27.031541      2.1574036      214            4.4519013     -21.574036      2.2306751      32.699065      393.9455       53.898684      73.238058    
  24010000   300.60831      0.9496288      0.94962872     0.97418292     2.401         -60.451889     -3.7463393      220            30.485514      37.463393      14.330253      39.662898      394.06137      53.612676      73.597546    
  24020000   301.30436      0.95148525     0.95148517     0.93432998     2.402          13.700465     -9.4203773      211            28.891697      94.203773     -40.928537      33.399855      394.17723      53.418253      73.699625    
  24030000   298.5638       0.94995954     0.94995946     0.97418292     2.403         -66.743387     -6.0054765      220            34.264754      60.054765      7.030352       35.709144      394.2931       53.437414      73.769839    
  24040000   301.49516      0.94975786     0.94975777     0.90776136     2.404          49.798104      6.684409       205           -26.617812     -66.84409      -17.718718      4.7093718      394.40897      53.367083      73.861039    
  24050000   299.81647      0.95104299     0.9510429      0.94761429     2.405         -30.511796      7.9016511      214           -37.64337      -79.016511      27.930584     -61.844182      394.52483      53.404443      73.687984    
  24060000   301.17055      0.94777368     0.9477736      0.94761429     2.406          34.763867      5.1891704      214           -32.290055     -51.891704     -10.3357       -34.642761      394.6407       53.526092      73.752458    
  24070000   299.88641      0.94932899     0.9493289      0.99632344     2.407         -31.976947     -0.87494254     225           -9.4467956      8.7494254     -65.206155      28.116342      394.75656      53.562092      73.560541    
  24080000   298.00437      0.95059024     0.95059016     0.96975482     2.408          6.1850791      1.1750698      219           -15.112917     -11.750698     -62.149434      28.561383      394.87243      53.378255      73.69432     
  24090000   300.69276      0.94686198     0.9468619      0.9564705      2.409          13.292904      8.5761415      216           -58.772709     -85.761415     -51.020019     -39.536692      394.9883       53.566202      73.703275    
  24100000   300.55511      0.94833514     0.94833506     0.96532671     2.41          -13.838144      7.3494664      218           -30.873237     -73.494664     -12.633773     -6.4912752      395.10416      53.398844      73.79777     
  24110000   301.38278      0.95059979     0.95059971     0.93875809     2.411         -11.88806       1.5606394      212            2.1226994     -15.606394      23.163783     -1.1892903      395.22003      53.148643      73.946855    
  24120000   301.87058      0.94965088     0.9496508      0.9564705      2.412         -23.526908      0.41120214     216            7.9834176     -4.1120214     -31.554531      59.616805      395.3359       53.231673      73.883628    
  24130000   297.33617      0.9495554      0.94955532     0.97418292     2.413          1.5643218     -5.0005093      220            24.994289      50.005093     -3.7415052      28.719278      395.45176      52.957287      74.252144    
  24140000   300.62122      0.94844964     0.94844956     0.94761429     2.414         -24.32705       3.0650386      214           -40.80374      -30.650386     -46.140047     -45.620786      395.56763      53.065054      74.16601     
  24150000   299.4375       0.95062734     0.95062726     0.96089861     2.415         -19.517018      3.7621001      217           -18.339151     -37.621001      10.018532     -27.414985      395.6835       53.029859      74.023539    
  24160000   299.67908      0.94956554     0.94956545     0.9564705      2.416          24.603172      15.402008      216           -80.923368     -154.02008     -73.017265     -15.732762      395.79936      53.190739      73.860542    
  24170000   300.0162       0.9503906      0.95039052     0.96975482     2.417         -42.243713      1.4295668      219           -8.2835689     -14.295668      9.1028109     -19.65785       395.91523      53.125934      73.864819    
  24180000   299.58333      0.94703119     0.9470311      0.96089861     2.418          19.627665      7.6794584      217           -12.539057     -76.794584      35.884135      3.2932774      396.03109      53.093332      74.150657    
  24190000   302.47643      0.94907817     0.94907809     0.94318619     2.419          23.910355      2.7279186      213           -7.5891732     -27.279186     -27.307931      31.819597      396.14696      53.211635      73.804634    
  24200000   299.67131      0.94934437     0.94934428     0.93875809     2.42           8.9669171      2.9628711      212           -14.455988     -29.628711     -22.379661      8.6404098      396.26283      52.796669      74.342115    
  24210000   299.86528      0.94806876     0.94806867     0.9520424      2.421          43.631932      5.7018574      215           -30.571812     -57.018574      30.395658     -65.092521      396.37869      52.777047      74.44805     
  24220000   299.55146      0.94896201     0.94896192     0.94318619     2.422          21.402331      2.8486831      213            6.5614871     -28.486831      27.168819      21.002474      396.49456      52.847899      74.25655     
  24230000   298.56752      0.94882277     0.94882269     0.9564705      2.423          18.451832      9.2346875      216           -52.41017      -92.346875     -42.099787     -22.783848      396.61043      52.925396      74.137034    
  24240000   300.2561       0.94884076     0.94884068     0.91661757     2.424          64.302849      10.065157      207           -23.65459      -100.65157      30.556526     -0.86873095     396.72629      53.000583      74.008839    
  24250000   301.93319      0.94988253     0.94988245     0.93432998     2.425          4.1833078      4.7425977      211           -26.126734     -47.425977     -3.1940524     -27.760174      396.84216      52.824598      74.152303    
  24260000   302.34858      0.94918418     0.94918409     0.98303913     2.426          75.163737     -2.7410185      222            1.0019729      27.410185     -19.894895     -4.5093716      396.95802      52.810796      74.204589    
  24270000   301.07218      0.9482892      0.94828911     0.94318619     2.427          13.48829      -2.5686727      213            16.789328      25.686727      58.384995     -33.703739      397.07389      52.675261      74.444003    
  24280000   299.70818      0.95054818     0.95054809     0.94761429     2.428          68.011742      2.6597435      214           -0.93775806    -26.597435      24.004107     -0.21994547     397.18976      52.808876      74.057569    
  24290000   299.28866      0.94835921     0.94835912     0.9564705      2.429          5.0186034     -0.38976725     216           -15.900871      3.8976725     -54.173676      2.5733908      397.30562      52.873745      74.115818    
  24300000   299.88921      0.94906392     0.94906383     0.96532671     2.43           23.995821      1.9109906      218            21.018091     -19.109906      33.569036      48.595142      397.42149      52.957647      73.92189     
  24310000   299.36777      0.94784147     0.94784138     0.9520424      2.431         -26.100686      2.7841833      215           -23.122742     -27.841833     -36.276017     -5.2503747      397.53736      52.696665      74.362121    
  24320000   301.51068      0.94832781     0.94832773     0.96532671     2.432         -3.8000215      4.074647       218           -6.8923998     -40.74647       31.746178     -11.676908      397.65322      52.953604      73.941803    
  24330000   301.51557      0.94846676     0.94846668     0.93432998     2.433          22.919372      5.0897537      211           -53.856998     -50.897537     -61.369943     -49.303513      397.76909      52.922264      73.953204    
  24340000   299.98723      0.95108145     0.95108137     0.92547377     2.434          8.2389235     -0.49876475     209           -16.806091      4.9876475      9.2909074     -64.696829      397.88496      52.650413      74.1091      
  24350000   299.47331      0.94948932     0.94948924     0.94761429     2.435          14.997772      1.3590602      214           -10.043373     -13.590602     -17.448849      0.9093312      398.00082      52.947757      73.794999    
  24360000   301.48788      0.94953768     0.9495376      0.96532671     2.436         -31.289287     -1.8389893      218           -6.1487223      18.389893     -40.038806      3.2027453      398.11669      52.724126      74.082662    
  24370000   299.41853      0.94799988     0.94799979     0.98746723     2.437         -84.859958      0.84902425     223           -2.4180794     -8.4902425      1.2503357     -0.014331327    398.23255      52.774349      74.11065     
  24380000   301.01293      0.94845538     0.9484553      0.9520424      2.438          14.511553      3.6393678      215           -2.8924904     -36.393678      1.7797548      25.936451      398.34842      52.999563      73.738832    
  24390000   300.90064      0.95015235     0.95015227     0.9564705      2.439         -32.204455      3.1875523      216           -34.379384     -31.875523     -12.544429     -58.718201      398.46429      52.916009      73.701922    
  24400000   300.08012      0.94862001     0.94861993     0.92990188     2.44           18.253476      5.0007837      210           -32.93029      -50.007837     -25.006017     -23.777017      398.58015      52.736165      74.051192    
  24410000   299.93099      0.9501393      0.95013922     0.96089861     2.441          38.395349      4.1561204      217            20.064084     -41.561204      12.85592       88.897537      398.69602      53.18059       73.293628    
  24420000   299.00919      0.94834738     0.9483473      0.92990188     2.442         -8.0138704      7.5493404      210           -20.361281     -75.493404      65.639302     -51.22974       398.81189      53.36124       73.162258    
  24430000   299.43729      0.9504001      0.95040002     0.94761429     2.443          33.224968     -2.2010234      214            12.116142      22.010234      0.40844261     13.929749      398.92775      53.394886      72.937045    
  24440000   299.29613      0.95055249     0.9505524      0.9564705      2.444         -36.888         2.641761       216           -8.7956622     -26.41761      -35.521459      35.552083      399.04362      53.096942      73.313267    
  24450000   299.21629      0.95073584     0.95073575     0.96089861     2.445          10.617625     -7.3674246      217            51.672004      73.674246     -1.2128616      82.554627      399.15949      53.024033      73.378609    
  24460000   298.25396      0.94975823     0.94975815     0.9520424      2.446          10.891117      6.5385508      215           -24.366153     -65.385508     -0.37423996    -7.3387112      399.27535      52.821844      73.713906    
  24470000   299.54803      0.94950537     0.94950529     0.96532671     2.447         -1.2956589      5.0413141      218           -37.520972     -50.413141     -21.377281     -40.772493      399.39122      52.745158      73.819316    
  24480000   298.91856      0.9494999      0.94949981     0.96975482     2.448          25.570848     -6.4302373      219            16.331429      64.302373      19.547558     -34.855643      399.50708      52.850866      73.650727    
  24490000   297.38909      0.94559185     0.94559177     0.9564705      2.449          25.42361       6.7887969      216           -16.232815     -67.887969      36.516891     -17.327367      399.62295      52.952006      73.79246     
  24500000   300.31052      0.9501821      0.95018202     0.93432998     2.45          -0.080619388    7.1696438      211            10.641282     -71.696438      42.179829      61.440455      399.73882      52.849807      73.556656    
  24510000   298.66681      0.94829897     0.94829889     0.9564705      2.451         -8.6429964      8.9601615      216           -48.339373     -89.601615     -9.3267976     -46.089705      399.85468      52.898258      73.613881    
  24520000   299.21946      0.94685115     0.94685107     0.93432998     2.452          1.9993461     -0.82862933     211           -31.811261      8.2862933     -56.452312     -47.267765      399.97055      52.914556      73.682385    
  24530000   299.74909      0.94795067     0.94795058     0.9520424      2.453          11.919715      7.5822836      215           -44.031438     -75.822836     -22.903448     -33.368028      400.08642      52.748482      73.807253    
  24540000   301.01801      0.94885571     0.94885563     0.94318619     2.454          41.206621      7.8071263      213           -20.240234     -78.071263      11.173424      6.1771383      400.20228      52.594809      73.93089     
  24550000   298.64436      0.94935102     0.94935094     0.92547377     2.455          34.607604      3.4322419      209           -24.438651     -34.322419     -6.8325139     -32.16102       400.31815      52.528111      73.964728    
  24560000   299.40121      0.95050076     0.95050067     0.96089861     2.456         -7.8546477      2.6595615      217            32.581966     -26.595615      80.916877      43.424638      400.43401      52.654148      73.677102    
  24570000   301.79625      0.95017642     0.95017634     0.91661757     2.457          22.276223     -1.1229751      207           -2.7392045      11.229751     -2.9762525     -16.471112      400.54988      52.398784      74.040013    
  24580000   302.3802       0.95143075     0.95143066     0.96532671     2.458          53.038378      3.9031286      218            42.27028      -39.031286      74.754373      91.087752      400.66575      52.448094      73.851521    
  24590000   300.75326      0.94886341     0.94886333     0.94761429     2.459         -4.5678975     -2.9140165      214            35.833045      29.140165      19.151932      59.207037      400.78161      52.310883      74.224112    
  24600000   300.83558      0.94727474     0.94727465     0.96975482     2.46          -4.2971035      7.9550787      219           -55.583554     -79.550787     -26.358895     -60.840982      400.89748      52.305617      74.334589    
  24610000   301.49351      0.94659234     0.94659226     0.96089861     2.461          23.202813     -2.0476588      217            8.3507179      20.476588     -20.769979      25.345545      401.01335      52.447826      74.165042    
  24620000   299.18046      0.94739059     0.9473905      0.91661757     2.462         -16.383239      8.0191403      207           -25.776397     -80.191403      72.74361      -69.881397      401.12921      52.334946      74.240932    
  24630000   299.34476      0.94891454     0.94891445     0.98746723     2.463         -6.3119915     -0.22784046     223           -8.5574092      2.2784046     -29.145319      1.1946865      401.24508      52.325598      74.113536    
  24640000   299.70028      0.94854168     0.9485416      0.96532671     2.464          31.910116      11.033523      218           -15.131961     -110.33523      60.739159      4.2001928      401.36095      52.340619      74.099993    
  24650000   300.48347      0.95066025     0.95066016     0.96532671     2.465         -11.604551     -2.6107589      218           -9.8975975      26.107589     -55.346696     -0.45368548     401.47681      52.228646      74.071985    
  24660000   299.12921      0.95020406     0.95020398     0.94761429     2.466          53.378896     -2.0758681      214            31.471005      20.758681      92.416074     -18.76174       401.59268      51.997541      74.415444    
  24670000   302.06845      0.94736964     0.94736955     0.96975482     2.467         -21.644389      6.8619124      219           -22.71965      -68.619124     -20.058611      20.518784      401.70854      52.095827      74.475785    
  24680000   298.45075      0.94678916     0.94678908     0.93432998     2.468         -44.197554      2.6199919      211           -32.853232     -26.199919     -37.934999     -34.424779      401.82441      52.201071      74.349755    
  24690000   301.30442      0.94930826     0.94930818     0.94318619     2.469         -109.81442     -4.2698464      213            30.022712      42.698464      15.507742      31.86193       401.94028      52.177475      74.164607    
  24700000   297.45694      0.94917075     0.94917067     0.96089861     2.47          -61.49543       1.4600505      217           -30.554647     -14.600505     -73.590844     -3.4725921      402.05614      52.047867      74.338632    
  24710000   298.64704      0.94742095     0.94742087     0.9564705      2.471          0.57818682    -2.1085456      216           -8.3686185      21.085456     -63.670667      17.479356      402.17201      52.033124      74.475568    
  24720000   299.41493      0.94834342     0.94834334     0.96975482     2.472          43.693153      4.8208291      219           -50.819808     -48.208291     -17.752472     -86.498661      402.28788      51.82596       74.67902     
  24730000   300.05674      0.94931596     0.94931587     0.91661757     2.473          49.36815       4.2891287      207           -28.441258     -42.891287     -19.425439     -23.007049      402.40374      51.996466      74.336469    
  24740000   301.03873      0.94801505     0.94801497     0.96089861     2.474          12.787957      5.1284821      217           -38.842432     -51.284821     -26.569876     -38.6726        402.51961      51.898004      74.558235    
  24750000   302.57946      0.94838342     0.94838333     0.90333325     2.475          49.316223     -2.4689405      204            33.082874      24.689405      87.446319     -12.887103      402.63547      51.85872       74.564271    
  24760000   299.3272       0.94780447     0.94780439     0.89890515     2.476          10.937566      5.242418       203           -39.613114     -52.42418      -41.285016     -25.130147      402.75134      51.751626      74.742704    
  24770000   301.32332      0.94889161     0.94889152     0.92104567     2.477         -54.004572      0.36361787     208           -0.88581697    -3.6361787      7.3570755     -6.3783478      402.86721      51.757493      74.627139    
  24780000   299.85818      0.94740014     0.94740006     0.94761429     2.478          17.891309      1.2266645      214           -10.50789      -12.266645      2.9577723     -22.214797      402.98307      51.711976      74.788904    
  24790000   299.16846      0.9473237      0.94732362     0.97418292     2.479         -21.075345      7.8648901      220           -16.994286     -78.648901     -38.585357      66.251401      403.09894      51.857993      74.562899    
  24800000   300.30395      0.949911       0.94991092     0.91218946     2.48           70.710275      3.0269561      206            13.789593     -30.269561      43.220075      28.418265      403.21481      51.841351      74.362307    
  24810000   301.39998      0.9511836      0.95118351     0.92104567     2.481          34.892497     -6.6081673      208            58.29702       66.081673      49.865345      58.944043      403.33067      51.922343      74.125676    
  24820000   300.39345      0.94841759     0.94841751     0.92990188     2.482          4.6961516     -1.5602832      210           -49.782357      15.602832     -91.968026     -72.981877      403.44654      52.235947      73.874318    
  24830000   300.0444       0.94884537     0.94884528     0.94761429     2.483         -67.860598      1.7377828      214            8.8488345     -17.377828      37.889059      6.0352731      403.56241      52.158316      73.929683    
  24840000   299.47663      0.95143857     0.95143849     0.87676463     2.484          17.355284      6.4257475      198           -9.7336698     -64.257475      63.233695     -28.17723       403.67827      52.039896      73.874747    
  24850000   300.14692      0.95293513     0.95293504     0.9564705      2.485         -53.082975     -4.1703449      216            33.017441      41.703449     -30.932299      88.281175      403.79414      51.896225      73.941701    
  24860000   300.78571      0.94985783     0.94985775     0.97418292     2.486          25.289069      4.5459016      220           -42.393532     -45.459016     -24.423962     -57.297616      403.91         52.031674      73.966919    
  24870000   300.19463      0.95094451     0.95094442     0.94761429     2.487         -0.11939883     0.05004793     214            10.838011     -0.5004793      5.3404519      27.674061      404.02587      52.074964      73.799806    
  24880000   300.92165      0.950511       0.95051091     0.97418292     2.488          77.208014      1.4250863      220            17.560996     -14.250863      82.728718     -15.794867      404.14174      51.916809      74.037154    
  24890000   301.60039      0.94930555     0.94930546     0.9564705      2.489          1.7789266      1.1165541      216           -16.892866     -11.165541     -55.414021      15.900963      404.2576       51.909688      74.120086    
  24900000   300.53635      0.95254464     0.95254456     0.96089861     2.49           5.8238343     -6.5852415      217            39.800238      65.852415      23.554537      29.99376       404.37347      51.889289      73.875909    
  24910000   300.85514      0.94668638     0.94668629     0.94318619     2.491          55.055185      8.6589106      213           -44.834531     -86.589106     -67.546054      19.631567      404.48934      51.891515      74.308586    
  24920000   299.49169      0.94725364     0.94725356     0.9564705      2.492          19.753234      5.2735233      216           -20.011133     -52.735233     -25.479796      18.18163       404.6052       51.890856      74.243761    
  24930000   300.72549      0.94850548     0.94850539     0.9520424      2.493          21.495121      5.6151193      215           -31.592058     -56.151193     -41.014583      2.3896032      404.72107      52.17944       73.714594    
  24940000   298.39867      0.94881378     0.9488137      0.98746723     2.494          15.570112      8.7843278      223           -8.7862794     -87.843278      46.126534      15.357906      404.83693      52.065768      73.830389    
  24950000   299.72442      0.94891038     0.9489103      0.9564705      2.495         -15.156767     -5.0621864      216            53.013825      50.621864      22.063037      86.356574      404.9528       52.04919       73.825257    
  24960000   299.73464      0.9485292      0.94852911     0.93875809     2.496         -16.344867      5.4295487      212           -54.445079     -54.295487     -38.180128     -70.859622      405.06867      51.88745       74.06395     
  24970000   299.1214       0.95062917     0.95062909     0.9564705      2.497         -11.31052       2.2534988      216           -37.955413     -22.534988     -69.776144     -21.555109      405.18453      52.028081      73.679513    
  24980000   299.56408      0.95105101     0.95105092     0.94761429     2.498          56.256502      2.3786885      214           -10.382744     -23.786885     -1.9546903     -5.4066566      405.3004       51.889792      73.821995    
  24990000   300.53408      0.94877297     0.94877289     0.98746723     2.499         -19.578588     -1.0989536      223           -7.4883569      10.989536     -2.2521521     -31.202455      405.41627      51.969481      73.864659    
  25000000   298.38821      0.94934853     0.94934845     0.92547377     2.5            11.842791      12.886013      209           -41.768885     -128.86013     -32.895745      36.449218      405.53213      52.000712      73.754463    
  25010000   299.66615      0.95071547     0.95071539     0.93432998     2.501          2.3643761     -2.1678999      211           -11.028589      21.678999     -26.355598     -28.409169      405.648        51.719941      74.027082    
  25020000   299.77677      0.94785237     0.94785228     0.97418292     2.502         -37.201517     -3.4798102      220            20.711125      34.798102     -26.083138      53.418412      405.76387      51.971155      73.870682    
  25030000   300.29483      0.95085027     0.95085018     0.9520424      2.503         -43.716468     -2.0526648      215            2.0723754      20.526648      6.4581072     -20.767629      405.87973      51.681345      74.029573    
  25040000   302.23138      0.94962999     0.94962991     0.93875809     2.504          12.562418      3.6013333      212           -63.960695     -36.013333     -70.939191     -84.929561      405.9956       51.602471      74.216814    
  25050000   299.8771       0.95241161     0.95241152     0.94761429     2.505          88.293836      1.8020431      214            6.7887606     -18.020431      45.284627     -6.8979135      406.11146      51.331016      74.370168    
  25060000   301.29502      0.9489427      0.94894262     0.96532671     2.506          7.4046457      6.9104441      218            8.321009      -69.104441      37.664976      56.402492      406.22733      51.381596      74.547285    
  25070000   299.77026      0.95059727     0.95059718     0.9520424      2.507         -16.430525     -1.6305083      215            10.219469      16.305083      9.3656984      4.9876256      406.3432       51.515669      74.202691    
  25080000   300.74913      0.95141175     0.95141166     0.9520424      2.508          41.558723      7.038282       215           -31.122904     -70.38282       39.445598     -62.431489      406.45906      51.478681      74.171287    
  25090000   299.77974      0.94924484     0.94924475     0.92547377     2.509          18.661978      0.048346624    209            5.1534995     -0.48346624     9.0987252      6.8452395      406.57493      51.724206      73.966639    
  25100000   301.21027      0.94808355     0.94808347     0.9564705      2.51          -4.7483801      3.2171487      216           -39.124771     -32.171487     -19.324624     -65.878203      406.6908       51.737885      74.016564    
  25110000   301.22345      0.95014552     0.95014544     0.96975482     2.511         -2.5947825      3.3713236      219           -28.711806     -33.713236     -42.459238     -9.962943       406.80666      51.931624      73.559448    
  25120000   301.29238      0.94990076     0.94990067     0.92104567     2.512          23.144098      2.4673649      208           -23.621601     -24.673649      21.677356     -67.86851       406.92253      51.958267      73.519733    
  25130000   302.04837      0.95034074     0.95034065     0.96089861     2.513          65.982345      3.1413749      217           -7.8263947     -31.413749     -18.976034      26.910599      407.0384       51.807162      73.679052    
  25140000   300.87463      0.94982212     0.94982203     1.0051796      2.514         -16.231011     -7.7782001      227            52.230776      77.782001     -8.0513411      86.961667      407.15426      51.966714      73.472029    
  25150000   299.79905      0.94937594     0.94937585     0.96532671     2.515         -15.062888      3.3585989      218           -19.260304     -33.585989     -25.159327      0.96440467     407.27013      51.770219      73.764563    
  25160000   298.8975       0.94947975     0.94947966     0.93875809     2.516          38.681973      1.8702304      212            0.27386167    -18.702304     -27.306011      46.8299        407.38599      51.624693      73.943376    
  25170000   299.36007      0.95246002     0.95245994     0.97861102     2.517         -80.441606      2.2805258      221            1.9683466     -22.805258      14.447386      14.262912      407.50186      51.724482      73.548877    
  25180000   298.13306      0.95015993     0.95015985     0.96532671     2.518          18.092535      4.7776182      218           -32.608844     -47.776182     -5.8465278     -44.203822      407.61773      51.759337      73.65633     
  25190000   301.75189      0.95101559     0.95101551     0.97861102     2.519          25.456157     -6.3451336      221           -4.3192175      63.451336     -65.631462     -10.777527      407.73359      51.69573       73.659666    
  25200000   301.51722      0.94756815     0.94756806     0.92547377     2.52           32.586617      4.6084533      209           -34.582278     -46.084533     -7.7267251     -49.935576      407.84946      51.742947      73.83921     
  25210000   299.13176      0.94857993     0.94857985     0.97861102     2.521         -51.258644      2.1270826      221           -16.408752     -21.270826     -15.631567     -12.323862      407.96533      51.372207      74.271662    
  25220000   299.9092       0.95312804     0.95312795     0.96532671     2.522          16.241634     -1.2956444      218            39.979094      12.956444      45.416556      61.564283      408.08119      51.404195      73.850283    
  25230000   300.18401      0.94807345     0.94807337     0.9564705      2.523          35.383904      7.6264665      216           -41.087849     -76.264665     -28.24969      -18.749192      408.19706      51.389476      74.244196    
  25240000   298.98597      0.94785855     0.94785847     0.93875809     2.524          19.535171      10.070882      212           -33.093372     -100.70882      22.083794     -20.655088      408.31292      51.274601      74.406282    
  25250000   301.58019      0.95100782     0.95100774     0.94318619     2.525          5.4407038      18.551615      213           -104.60707     -185.51615     -45.15015      -83.154895      408.42879      51.142265      74.330689    
  25260000   299.35501      0.94955398     0.9495539      0.92104567     2.526          42.357339      1.6419515      208            8.6546487     -16.419515      24.285248      18.098213      408.54466      51.046147      74.563518    
  25270000   301.84419      0.95194449     0.95194441     0.94761429     2.527          42.407316      0.78910378     214           -23.296661     -7.8910378     -0.99318025    -61.005765      408.66052      50.85677       74.632067    
  25280000   301.24974      0.94935816     0.94935808     0.94761429     2.528         -20.821584      2.1760511      214            1.2947878     -21.760511      15.447154      10.19772       408.77639      51.146227      74.39077     
  25290000   300.53681      0.94690255     0.94690246     0.99632344     2.529         -1.0270216      12.670408      225           -50.592828     -126.70408      30.441601     -55.516003      408.89226      51.154649      74.550279    
  25300000   298.90507      0.94886288     0.9488628      0.9564705      2.53           32.584871      7.6974241      216           -46.422001     -76.974241     -81.353151      19.061389      409.00812      50.93712       74.692805    
  25310000   300.26414      0.95121147     0.95121139     0.94318619     2.531          5.2786339      2.8162971      213           -6.4374243     -28.162971     -19.686919      28.537617      409.12399      50.984042      74.418732    
  25320000   299.0851       0.94789889     0.9478988      0.96089861     2.532          25.534433      7.507688       217           -37.172953     -75.07688       14.129478     -50.571457      409.23986      50.824562      74.891922    
  25330000   301.78942      0.94990371     0.94990363     0.93432998     2.533          51.851502     -4.8807154      211            23.319305      48.807154      35.510965     -14.360205      409.35572      50.725212      74.859036    
  25340000   297.87864      0.95054255     0.95054247     0.94318619     2.534         -11.253077     -3.2259517      213            42.051324      32.259517     -1.6231788      95.517634      409.47159      50.767327      74.725515    
  25350000   300.30491      0.94889289     0.94889281     0.94318619     2.535          28.751616      3.2659163      213           -56.618273     -32.659163     -48.148654     -89.047003      409.58745      50.543508      75.165635    
  25360000   299.28853      0.95114192     0.95114184     0.97418292     2.536         -34.716017      0.46551238     220            26.082501     -4.6551238     -7.4471014      90.349729      409.70332      50.498618      75.033336    
  25370000   300.09995      0.94983443     0.94983435     0.98746723     2.537          7.6400641      9.1594109      223           -47.236404     -91.594109     -41.124322     -8.9907794      409.81919      50.511871      75.095671    
  25380000   298.77287      0.94881836     0.94881828     0.96975482     2.538          3.1695724      5.4093185      219           -2.5860127     -54.093185      20.095371      26.239776      409.93505      50.794907      74.736067    
  25390000   300.49061      0.94835004     0.94834996     0.94318619     2.539         -61.702236     -2.8623333      213            15.807948      28.623333     -0.71806677     19.518578      410.05092      50.873953      74.635701    
  25400000   302.41169      0.95045022     0.95045013     0.96532671     2.54           4.8073006      5.0474327      218           -19.255621     -50.474327     -53.268249      45.975715      410.16679      50.850175      74.484557    
  25410000   299.53925      0.94961186     0.94961177     0.94761429     2.541         -12.606256     -4.3270793      214            30.144149      43.270793      12.940931      34.220722      410.28265      50.789706      74.617994    
  25420000   298.35537      0.94898331     0.94898322     0.93432998     2.542         -15.036054     -8.4460599      211            20.417893      84.460599      3.1963416     -26.403261      410.39852      50.757429      74.693805    
  25430000   298.97436      0.95059045     0.95059037     0.9520424      2.543         -41.448782      0.46706285     215            35.021109     -4.6706285      22.026245      87.707709      410.51438      50.578105      74.810777    
  25440000   301.95593      0.95196148     0.95196139     0.92990188     2.544          46.680389     -2.3292009      210            22.239956      23.292009      49.419511     -5.9916521      410.63025      50.858297      74.270513    
  25450000   300.90359      0.94987791     0.94987783     0.94761429     2.545          5.5194683      1.5757957      214            24.542568     -15.757957      44.825547      44.560115      410.74612      50.95824       74.266487    
  25460000   300.11417      0.95011866     0.95011857     0.92990188     2.546          7.3253522      2.2185778      210            14.317642     -22.185778      67.036269     -1.8975648      410.86198      50.987105      74.184709    
  25470000   299.19985      0.95051624     0.95051616     0.9564705      2.547         -4.9371213      9.1975323      216           -29.995496     -91.975323      0.60416657     1.3846692      410.97785      50.795294      74.412709    
  25480000   298.67742      0.94899153     0.94899144     0.92547377     2.548          22.848184     -0.64809729     209            16.113061      6.4809729      25.332415      16.525794      411.09372      50.957386      74.274244    
  25490000   299.50433      0.94821249     0.9482124      0.9564705      2.549         -2.2499027      6.6164733      216           -73.522058     -66.164733     -56.497219     -97.904221      411.20958      50.658064      74.753419    
  25500000   301.36904      0.94822827     0.94822819     0.99632344     2.55           31.071609     -0.21078175     225           -14.740681      2.1078175     -12.936224     -33.393635      411.32545      50.63943       74.758618    
  25510000   299.82075      0.9491292      0.94912912     0.9564705      2.551          10.37504      -3.3660426      216            36.658471      33.660426      27.156476      49.15851       411.44132      50.542684      74.809545    
  25520000   300.7947       0.95154966     0.95154958     0.9564705      2.552         -46.523492      16.328291      216           -98.618336     -163.28291     -60.437825     -72.134273      411.55718      50.593409      74.523452    
  25530000   300.55027      0.94885405     0.94885396     0.98746723     2.553          32.469822      2.6194096      223           -27.2853       -26.194096     -65.262201      9.6003965      411.67305      50.637696      74.64879     
  25540000   298.35132      0.9499472      0.94994711     0.96975482     2.554          43.030228      8.7156941      219           -48.600534     -87.156941     -10.428102     -48.216558      411.78891      50.773109      74.343102    
  25550000   300.62277      0.94931983     0.94931974     0.94318619     2.555          52.890472      6.5102233      213           -35.241471     -65.102233     -31.644616     -8.9775646      411.90478      50.807821      74.320496    
  25560000   299.88776      0.95022536     0.95022528     0.93875809     2.556          17.495762      5.8065043      212           -11.275425     -58.065043     -17.447517      41.686286      412.02065      50.946559      74.026651    
  25570000   300.86506      0.95029056     0.95029048     0.9564705      2.557         -25.374769     -5.0880505      216            46.866314      50.880505      41.803927      47.91451       412.13651      50.915953      74.045243    
  25580000   297.85723      0.94988044     0.94988035     0.9520424      2.558         -5.6311989      3.7689599      215           -12.959037     -37.689599     -47.498613      46.311102      412.25238      50.908721      74.066914    
  25590000   299.60308      0.94948008     0.94948        0.9520424      2.559          7.5567315      2.4469922      215            8.4237605     -24.469922      1.7551794      47.986024      412.36825      50.81876       74.20846     
  25600000   297.47696      0.95071555     0.95071546     0.98746723     2.56           17.324759     -4.0173748      223            46.156233      40.173748      35.908557      62.386394      412.48411      50.691536      74.277158    
  25610000   300.41017      0.95162984     0.95162975     0.9564705      2.561          7.9579799      6.7657551      216           -34.528058     -67.657551     -11.416532     -24.51009       412.59998      50.671547      74.214222    
  25620000   300.61524      0.94976388     0.94976379     0.9564705      2.562          10.359699     -1.0863589      216            19.413913      10.863589      26.691636      20.686513      412.71584      50.679998      74.326754    
  25630000   300.05614      0.95076834     0.95076825     0.9564705      2.563         -9.8836494      0.35520025     216           -0.0058831378  -3.5520025     -42.024773      45.559126      412.83171      50.999927      73.761754    
  25640000   298.41092      0.95003246     0.95003238     0.93875809     2.564          82.696843     -1.3244485      212           -10.75902       13.244485     -57.95723       12.435685      412.94758      50.793406      74.098233    
  25650000   301.82848      0.95066263     0.95066255     0.96975482     2.565          1.4908797      11.48639       219           -35.215989     -114.8639      -13.126425      22.34236       413.06344      50.620502      74.281201    
  25660000   299.38892      0.94942808     0.949428       0.91218946     2.566          12.735763      2.1048662      206           -11.412565     -21.048662      22.454503     -35.643537      413.17931      50.607767      74.375643    
  25670000   298.9281       0.95021229     0.95021221     0.92547377     2.567          43.676788      6.8256316      209           -22.86569      -68.256316     -20.532054      20.1913        413.29518      50.679436      74.188365    
  25680000   300.83196      0.94974648     0.9497464      0.92547377     2.568         -5.9270867      3.8928835      209           -32.938415     -38.928835     -22.792926     -37.093483      413.41104      50.501256      74.465757    
  25690000   301.9176       0.94719666     0.94719658     0.9520424      2.569          72.84134      -0.65833673     215           -34.735508      6.5833673     -68.84759      -41.942302      413.52691      51.026694      73.876649    
  25700000   302.35326      0.94848733     0.94848724     0.92547377     2.57           52.051335     -1.4801762      209            5.4181625      14.801762      20.584394     -19.131669      413.64278      50.694273      74.239096    
  25710000   301.10783      0.94844307     0.94844299     0.94761429     2.571          33.91703       3.6884889      214            7.730625      -36.884889      12.588025      47.488739      413.75864      50.830718      74.022536    
  25720000   300.36326      0.95080676     0.95080667     0.96975482     2.572         -27.001987      6.1666816      219           -10.720859     -61.666816      44.457074     -14.952836      413.87451      50.865461      73.767425    
  25730000   299.66009      0.95119241     0.95119233     0.94318619     2.573         -31.581272     -5.6195176      213            18.417887      56.195176     -37.097523      36.156008      413.99037      51.061944      73.433222    
  25740000   297.75033      0.94940642     0.94940634     0.96089861     2.574         -10.455944     -2.2271149      217            23.983702      22.271149      44.318336      5.3616194      414.10624      50.643025      74.159189    
  25750000   299.90903      0.94985232     0.94985224     0.9564705      2.575          21.296877      2.7067263      216            6.3838757     -27.067263      59.78328      -13.56439       414.22211      50.50216       74.310338    
  25760000   300.66197      0.9502805      0.95028042     0.96089861     2.576          8.3630943      0.18871014     217            13.870883     -1.8871014      12.490488      31.009262      414.33797      50.372665      74.446977    
  25770000   298.84743      0.95062741     0.95062733     0.91661757     2.577          27.072227     -0.27275897     207            14.106227      2.7275897      42.995953     -3.4048616      414.45384      50.447411      74.28877     
  25780000   299.77875      0.95190151     0.95190143     0.9564705      2.578         -7.0820845     -0.76417813     216            43.517269      7.6417813      78.030806      44.879219      414.56971      50.346542      74.317197    
  25790000   301.01535      0.95045971     0.95045963     0.92547377     2.579         -25.392677      6.7498632      209           -28.599983     -67.498632      23.714389     -42.015706      414.68557      50.455484      74.248474    
  25800000   300.42832      0.9499001      0.94990001     0.93875809     2.58          -12.16319       5.8787644      212           -31.608514     -58.787644     -22.655084     -13.382814      414.80144      50.768036      73.814215    
  25810000   301.2736       0.94905517     0.94905509     0.9520424      2.581         -39.547666      0.41311665     215            3.1976278     -4.1311665      8.7155523      5.0084976      414.91731      50.843483      73.749699    
  25820000   297.65243      0.95209577     0.95209568     0.9520424      2.582         -20.968157     -1.749863       215            17.54367       17.49863       63.754575     -28.622195      415.03317      50.417413      74.114733    
  25830000   301.00192      0.95218464     0.95218456     0.94761429     2.583         -3.0498711      1.2131367      214           -8.9900226     -12.131367     -42.924228      28.085527      415.14904      50.259265      74.320258    
  25840000   301.16371      0.9506022      0.95060212     0.96089861     2.584         -41.79468      -3.6956785      217            25.193375      36.956785      33.493225      5.1301162      415.2649       50.17795       74.543811    
  25850000   300.46002      0.95216011     0.95216002     0.96089861     2.585          27.820875      8.2658258      217           -29.095268     -82.658258     -3.3201311     -1.3074134      415.38077      50.117269      74.491168    
  25860000   300.92662      0.94994199     0.9499419      0.9564705      2.586         -10.255058      9.6232908      216           -69.548573     -96.232908     -98.004042     -14.408769      415.49664      50.123599      74.634858    
  25870000   299.90538      0.94972094     0.94972086     0.93432998     2.587          21.688912      5.118149       211           -32.18746      -51.18149      -26.666757     -18.714134      415.6125       49.965131      74.868116    
  25880000   298.3009       0.94968224     0.94968216     0.96532671     2.588         -23.25094      -4.1507442      218            19.0381        41.507442      19.99061      -4.3837507      415.72837      50.102137      74.645619    
  25890000   301.28385      0.95062211     0.95062203     0.91661757     2.589         -6.9382952      4.3883141      207           -11.764067     -43.883141      9.6181719     -1.027231       415.84424      49.946733      74.782997    
  25900000   301.57259      0.95004659     0.9500465      0.94761429     2.59           36.148704      5.2635317      214           -16.766252     -52.635317      19.264364     -16.927804      415.9601       50.182879      74.455434    
  25910000   300.24509      0.95040858     0.9504085      0.96975482     2.591          37.995647      4.7048723      219           -37.983168     -47.048723     -66.046395     -0.85438621     416.07597      50.116772      74.504496    
  25920000   300.74899      0.9502884      0.95028831     0.93875809     2.592          9.7504029      7.0493371      212           -13.945554     -70.493371      37.011927     -8.3552172      416.19183      49.731512      75.070257    
  25930000   299.4743       0.95012404     0.95012395     0.97418292     2.593          16.722897      6.4595149      220           -46.953658     -64.595149     -56.265236     -20.000588      416.3077       49.490605      75.427731    
  25940000   298.97664      0.95037118     0.9503711      0.9520424      2.594          20.414506      4.5160245      215           -1.6765886     -45.160245      43.406203     -3.2757235      416.42357      49.737912      75.012293    
  25950000   297.95989      0.95086723     0.95086715     0.96532671     2.595          17.283129      2.0362061      218           -10.023868     -20.362061     -14.761662      5.0521179      416.53943      49.710116      74.994216    
  25960000   302.88599      0.9499598      0.94995971     0.93875809     2.596          46.579523      2.5761743      212           -7.6475008     -25.761743     -35.28171       38.100951      416.6553       49.768431      74.957046    
  25970000   300.77738      0.95285797     0.95285789     0.93432998     2.597          29.910423     -2.8721679      211            25.198418      28.721679      3.7643022      43.109274      416.77117      49.763949      74.715013    
  25980000   298.61301      0.95113162     0.95113153     0.92547377     2.598          16.856873     -6.7421334      209            34.096414      67.421334      39.858386     -4.9904787      416.88703      49.655457      74.993317    
  25990000   299.93507      0.94674354     0.94674346     0.91218946     2.599         -43.58484       5.4535455      206           -34.3908       -54.535455      13.051204     -61.688148      417.0029       49.995711      74.807369    
  26000000   299.61035      0.95063016     0.95063008     0.97861102     2.6            72.680253      10.294096      221           -44.594918     -102.94096     -42.690526      11.846736      417.11877      49.837303      74.717564    
  26010000   299.60229      0.95119666     0.95119658     0.93875809     2.601          43.134515      7.5080975      212           -21.442835     -75.080975      64.070576     -53.318106      417.23463      49.823238      74.673402    
  26020000   300.30527      0.94945571     0.94945563     0.9520424      2.602         -39.699593      4.5513578      215           -15.268695     -45.513578      37.073354     -37.36586       417.3505       49.644563      75.05873     
  26030000   300.59563      0.94892347     0.94892339     0.94318619     2.603          32.979291      5.8847742      213           -12.266895     -58.847742      39.472789     -17.425733      417.46636      49.637929      75.090019    
  26040000   300.39499      0.95181        0.95180991     0.94761429     2.604          17.251688      2.1427387      214           -6.5731549     -21.427387      17.782593     -16.074671      417.58223      49.841872      74.535288    
  26050000   299.53927      0.9480885      0.94808842     0.93875809     2.605          14.14148       5.6310522      212           -66.65472      -56.310522     -133.95499     -9.6986511      417.6981       49.947766      74.648503    
  26060000   296.82604      0.9472686      0.94726851     0.93875809     2.606         -12.849888      7.4134023      212           -60.146922     -74.134023     -36.602036     -69.704707      417.81396      50.134464      74.414246    
  26070000   299.90757      0.95203106     0.95203098     0.98746723     2.607         -4.7751088      2.5587279      223            11.413339     -25.587279     -41.362097      101.18939      417.92983      49.996299      74.226026    
  26080000   300.37554      0.95174484     0.95174475     0.97861102     2.608          9.3411715      4.760579       221           -33.153939     -47.60579      -46.46397      -5.392057       418.0457       49.915581      74.347802    
  26090000   299.29682      0.95144103     0.95144094     0.92547377     2.609          27.937646      1.3899981      209            37.834549     -13.899981      106.42037      20.983262      418.16156      49.796959      74.528047    
  26100000   300.77775      0.9507818      0.95078172     0.92990188     2.61          -40.280538     -0.50298593     210           -2.8297862      5.0298593      12.179748     -25.698966      418.27743      49.986295      74.27665     
  26110000   299.82209      0.94814288     0.94814279     0.92547377     2.611         -8.6495055      9.6989523      209           -74.17746      -96.989523     -52.920843     -72.622015      418.39329      50.187381      74.164405    
  26120000   300.6131       0.94999825     0.94999817     0.94318619     2.612          50.488103      3.231361       213           -29.935638     -32.31361      -10.76328      -46.730024      418.50916      50.094934      74.135627    
  26130000   300.29064      0.9507741      0.95077402     0.96089861     2.613         -62.02438      -6.6717326      217            10.679021      66.717326     -12.500818     -22.179444      418.62503      49.904532      74.337172    
  26140000   300.13255      0.95232125     0.95232117     0.94761429     2.614          41.948385      2.2438268      214           -16.58516      -22.438268     -37.324732      10.007519      418.74089      49.89346       74.212331    
  26150000   301.7072       0.95043977     0.95043969     0.93432998     2.615          18.154274      8.0642035      211           -63.593064     -80.642035     -33.577889     -76.559267      418.85676      50.019514      74.151332    
  26160000   298.17821      0.94985251     0.94985243     0.94318619     2.616         -29.566867      0.56824382     213            27.576276     -5.6824382      35.58013       52.831137      418.97263      49.905157      74.346631    
  26170000   303.45503      0.95328366     0.95328358     0.93432998     2.617         -0.22268974     0.76686327     211            11.344289     -7.6686327      20.907232      20.794269      419.08849      49.855079      74.132946    
  26180000   299.41734      0.95232876     0.95232867     0.94318619     2.618          5.333973       0.74832779     213            9.3314397     -7.4832779      38.172349     -2.6947518      419.20436      49.759232      74.329668    
  26190000   300.15082      0.94894988     0.9489498      0.94761429     2.619         -43.732019     -1.7944921      214           -17.186576      17.944921     -12.228318     -57.276332      419.32023      49.704814      74.655364    
  26200000   299.1734       0.94888851     0.94888843     0.9564705      2.62           28.620866      7.5272037      216           -53.116549     -75.272037     -57.561677     -26.515933      419.43609      49.714048      74.625703    
  26210000   300.93377      0.95277987     0.95277978     0.94761429     2.621         -22.502585      1.3427885      214            3.5320602     -13.427885      5.1603725      18.863693      419.55196      49.757531      74.235461    
  26220000   301.77656      0.94971243     0.94971235     0.97861102     2.622          36.938967      4.8400338      221           -29.302054     -48.400338     -25.16501      -14.340813      419.66782      49.915424      74.219152    
  26230000   300.73408      0.94989488     0.94989479     0.94318619     2.623          10.287385      4.9988076      213           -31.933544     -49.988076     -34.839159     -10.973398      419.78369      49.677432      74.539814    
  26240000   298.92904      0.95079157     0.95079148     0.96975482     2.624         -49.619004      7.3887618      219            0.33502726    -73.887618      36.364062      38.528638      419.89956      49.751489      74.338147    
  26250000   299.82513      0.95196252     0.95196244     0.97418292     2.625          5.070672      -3.8896032      220            27.363242      38.896032      28.579654      14.614041      420.01542      49.590045      74.467875    
  26260000   300.72237      0.94981648     0.9498164      0.9520424      2.626          42.519046      7.1651524      215           -32.31856      -71.651524     -50.063915      24.75976       420.13129      49.74486       74.383328    
  26270000   299.00714      0.9479821      0.94798202     0.94318619     2.627          45.095882      8.7404174      213           -38.374696     -87.404174     -32.942125      5.2222118      420.24716      49.76777       74.472418    
  26280000   300.57075      0.94925286     0.94925278     0.98746723     2.628         -31.729737      5.0812377      223           -34.481594     -50.812377     -13.957916     -38.674488      420.36302      49.794419      74.312429    
  26290000   299.54436      0.95162621     0.95162612     0.94318619     2.629         -5.8997749      7.5882837      213           -11.71069      -75.882837      10.137497      30.613271      420.47889      49.729857      74.202878    
  26300000   301.53333      0.95340063     0.95340055     0.94318619     2.63          -41.068237      2.8356612      213           -2.9191925     -28.356612     -28.759234      48.358268      420.59475      49.706004      74.079904    
  26310000   298.41627      0.9494503      0.94945022     0.94761429     2.631          25.219435      2.196475       214            20.84458      -21.96475       50.82998       33.668511      420.71062      49.88468       74.10127     
  26320000   299.06467      0.94847666     0.94847657     0.93875809     2.632          39.355446      8.9481006      212           -40.278691     -89.481006     -24.452046     -6.9030203      420.82649      50.08939       73.853843    
  26330000   301.0349       0.94969846     0.94969837     0.91661757     2.633          29.323072      3.707173       207           -16.145099     -37.07173      -11.427985      0.064417167    420.94235      50.174158      73.613946    
  26340000   299.63499      0.95134838     0.9513483      0.93432998     2.634          43.471069      0.20741944     211           -25.797794     -2.0741944     -6.7006449     -68.618543      421.05822      50.119665      73.545932    
  26350000   299.89226      0.95093208     0.95093199     0.91218946     2.635          29.939388     -0.96413372     206            16.820363      9.6413372      6.1795894      34.640163      421.17409      50.112071      73.569035    
  26360000   301.90464      0.94968604     0.94968596     0.96089861     2.636          16.489301      8.2837445      217           -32.876315     -82.837445      10.198756     -25.990255      421.28995      50.145379      73.596384    
  26370000   300.43066      0.95172715     0.95172707     0.93432998     2.637          7.5840644     -0.033242817    211            6.8265836      0.33242817     13.816795      6.3305271      421.40582      49.950501      73.704791    
  26380000   299.68056      0.94938563     0.94938555     0.94761429     2.638          14.447885      10.806616      214           -44.540094     -108.06616      14.49046      -40.044584      421.52169      49.901935      73.938151    
  26390000   298.07669      0.94916928     0.94916919     0.91218946     2.639          22.868025      8.2201022      206           -1.8645052     -82.201022      15.142159      61.465347      421.63755      50.026991      73.749862    
  26400000   297.69953      0.94983534     0.94983525     0.96532671     2.64          -58.984018      4.3712376      218            8.2270867     -43.712376     -11.202226      79.595862      421.75342      49.870131      73.909643    
  26410000   298.78486      0.95083733     0.95083725     0.93875809     2.641         -16.729012     -2.9590322      212            31.927216      29.590322      34.466027      31.725297      421.86928      49.930734      73.721891    
  26420000   300.16466      0.94843607     0.94843599     0.92547377     2.642         -50.861615      3.0292324      209            10.475116     -30.292324      58.09931       3.6183619      421.98515      50.027538      73.745274    
  26430000   302.3166       0.95023469     0.9502346      0.91661757     2.643         -19.572443      11.192804      207           -35.509756     -111.92804      12.56468      -7.1659106      422.10102      49.671764      74.112539    
  26440000   299.84213      0.9464688      0.94646872     0.93875809     2.644          34.219562      3.6066338      212           -30.81834      -36.066338     -6.3420784     -50.046604      422.21688      49.631431      74.447455    
  26450000   301.33149      0.95137225     0.95137217     0.98303913     2.645         -6.0756301     -5.947041       222            54.16233       59.47041       68.966617      34.049962      422.33275      49.424642      74.353219    
  26460000   299.36623      0.94969515     0.94969506     0.96089861     2.646          28.969604      5.1228889      217           -11.792479     -51.228889      27.204142     -11.352691      422.44862      49.351568      74.574351    
  26470000   300.76882      0.94929419     0.94929411     0.97418292     2.647         -12.119295     -1.4244458      220            9.9124353      14.244458      35.696749     -20.203901      422.56448      49.432312      74.463563    
  26480000   301.8061       0.94958558     0.94958549     0.93875809     2.648          61.683286      5.106775       212           -70.217049     -51.06775      -77.3227       -82.260699      422.68035      49.328918      74.576293    
  26490000   299.77727      0.95295418     0.9529541      0.96089861     2.649         -80.091377      2.962706       217           -15.918548     -29.62706      -39.677077      21.548492      422.79622      49.201402      74.484853    
  26500000   298.51916      0.94941547     0.94941538     0.91661757     2.65           43.818995      0.16185416     207            40.233421     -1.6185416      28.934015      93.384789      422.91208      49.138208      74.838115    
  26510000   299.11508      0.948651       0.94865092     0.96089861     2.651         -29.339234      0.5307658      217           -7.3957664     -5.307658      -38.434246      21.554605      423.02795      49.132682      74.88633     
  26520000   298.64262      0.95001827     0.95001818     0.93875809     2.652         -16.35301      -6.3070602      212            7.9594981      63.070602     -39.107881     -0.084226459    423.14381      49.145854      74.738042    
  26530000   301.272        0.948284       0.94828392     0.94761429     2.653         -24.228956      4.1207698      214           -21.076748     -41.207698     -14.815162     -7.2073862      423.25968      48.881685      75.25876     
  26540000   298.62988      0.95137353     0.95137345     0.9520424      2.654         -39.872974     -1.4947444      215            34.974094      14.947444      45.194468      44.780371      423.37555      48.773561      75.160084    
  26550000   299.89404      0.95010869     0.9501086      0.93875809     2.655          39.020866      5.5455325      212           -59.032093     -55.455325     -48.750337     -72.890617      423.49141      48.859739      75.106844    
  26560000   301.74655      0.95167346     0.95167338     0.96532671     2.656          1.9248077      7.6168857      218           -71.471404     -76.168857     -77.314597     -60.930758      423.60728      48.963582      74.803858    
  26570000   298.32729      0.95023735     0.95023727     0.98303913     2.657         -21.807248      2.2071248      222            16.977954     -22.071248      40.304795      32.700317      423.72315      49.136266      74.63321     
  26580000   299.0014       0.95036696     0.95036688     0.96975482     2.658          18.682171      3.7456582      219           -27.34965      -37.456582     -57.024306      12.431937      423.83901      49.210271      74.490439    
  26590000   299.5643       0.95042708     0.95042699     0.93875809     2.659         -18.668794      7.0527397      212           -4.4950678     -70.527397      29.515179      27.527015      423.95488      49.269618      74.375675    
  26600000   300.34093      0.95061645     0.95061637     0.92547377     2.66          -27.386266     -2.1279739      209           -6.6929099      21.279739     -18.575166     -22.783302      424.07074      49.434966      74.091889    
  26610000   298.27984      0.94918614     0.94918606     0.94761429     2.661          18.236589     -2.0043698      214           -4.4948246      20.043698      6.9611101     -40.489282      424.18661      49.495673      74.092282    
  26620000   300.22244      0.95363334     0.95363326     0.97418292     2.662         -31.159351     -2.8418345      220           -5.2246085      28.418345     -26.980835     -17.111336      424.30248      49.415608      73.846075    
  26630000   300.96123      0.94828748     0.9482874      0.94761429     2.663          34.55038       8.147641       214           -7.0590963     -81.47641       51.884648      8.4144729      424.41834      49.549741      74.041124    
  26640000   300.22938      0.95131719     0.95131711     0.97418292     2.664          19.338264      4.2820199      220           -25.14582      -42.820199      4.1006385     -36.7179        424.53421      49.395131      74.01613     
  26650000   298.8192       0.94940874     0.94940866     0.96532671     2.665         -10.653532      7.1125771      218           -30.975939     -71.125771     -17.079151     -4.7228949      424.65008      49.570793      73.881933    
  26660000   300.55949      0.95201214     0.95201205     0.94761429     2.666         -6.1912169      5.3161949      214           -29.183488     -53.161949     -17.105243     -17.283273      424.76594      49.592767      73.627158    
  26670000   300.41928      0.94905946     0.94905938     0.93875809     2.667         -7.8284914     -0.41284491     212           -33.075416      4.1284491     -60.920575     -42.434123      424.88181      49.65711       73.740411    
  26680000   300.75252      0.95000227     0.95000219     0.92547377     2.668         -77.264345      0.82157164     209           -6.7753704     -8.2157164      26.972614     -39.083009      424.99768      49.403245      74.025589    
  26690000   302.20072      0.94934851     0.94934843     0.93432998     2.669         -24.562127      3.3443522      211           -34.093955     -33.443522     -7.7392844     -61.099059      425.11354      49.434757      74.00917     
  26700000   300.52232      0.94986237     0.94986229     0.96089861     2.67          -34.958457     -2.2199709      217            46.348118      22.199709      116.78039      0.064255922    425.22941      49.057852      74.517118    
  26710000   300.9846       0.94854026     0.94854017     0.97861102     2.671         -23.319637      0.48451158     221           -37.058074     -4.8451158     -84.619355     -21.709751      425.34527      49.233332      74.33476     
  26720000   299.29727      0.94806644     0.94806635     0.9564705      2.672         -13.26364       5.5477992      216           -42.089252     -55.477992     -81.117099      10.327335      425.46114      49.301148      74.249383    
  26730000   299.68285      0.94926282     0.94926273     0.92547377     2.673         -33.624447      3.6002485      209           -52.192102     -36.002485     -37.09867      -83.475151      425.57701      49.213698      74.26735     
  26740000   299.70262      0.94850749     0.9485074      1.0051796      2.674         -88.989351      3.7547563      227           -17.20277      -37.547563      13.072885     -27.133633      425.69287      49.472853      73.917021    
  26750000   300.02301      0.95000222     0.95000213     0.9520424      2.675          28.046247      4.9942111      215            6.2205993     -49.942111     -3.0022609      71.606169      425.80874      49.511271      73.723389    
  26760000   298.83079      0.95061107     0.95061099     0.94761429     2.676          10.290444      1.3768334      214           -20.176233     -13.768334     -21.938445     -24.821921      425.92461      49.443642      73.756874    
  26770000   299.4681       0.95000864     0.95000856     0.96975482     2.677          64.871164      8.8317646      219           -48.843279     -88.317646     -40.422271     -17.789919      426.04047      49.4426        73.785128    
  26780000   299.74113      0.94974174     0.94974165     0.98303913     2.678         -31.635744      10.577928      222           -62.868571     -105.77928     -20.174174     -62.652263      426.15634      49.539392      73.641632    
  26790000   300.24903      0.94936415     0.94936406     0.96089861     2.679          34.203899      17.352019      217           -92.293072     -173.52019     -30.226207     -73.13282       426.2722       49.405853      73.849967    
  26800000   301.73273      0.94959186     0.94959178     0.94318619     2.68           54.499713      0.66347207     213           -17.29998      -6.6347207     -18.422988     -26.84223       426.38807      49.324475      73.933973    
  26810000   297.60081      0.9490475      0.94904742     0.93432998     2.681          18.230042      0.13535864     211            8.2365702     -1.3535864     -2.4780013      28.541298      426.50394      49.381363      73.871085    
  26820000   301.59799      0.95080152     0.95080143     0.96532671     2.682         -7.8609128     -0.86616854     218            8.9577799      8.6616854      7.7339004      10.477754      426.6198       49.125297      74.099024    
  26830000   300.90057      0.95000247     0.95000239     0.96089861     2.683         -51.923733     -2.726947       217            31.143054      27.26947       17.479676      48.680016      426.73567      49.161175      74.087104    
  26840000   297.59828      0.95159174     0.95159166     0.96532671     2.684         -3.8383448     -1.6029084      218            25.338227      16.029084      25.477514      34.508083      426.85154      49.110749      74.019216    
  26850000   299.86821      0.95297898     0.95297889     0.9564705      2.685          10.213907      1.097469       216           -13.960712     -10.97469      -11.072968     -19.834479      426.9674       49.16612       73.808194    
  26860000   300.04542      0.95106854     0.95106846     0.9520424      2.686          46.7187       -1.0702896      215            18.226308      10.702896     -4.4378396      48.413867      427.08327      49.371565      73.628725    
  26870000   297.28293      0.95063507     0.95063499     0.92104567     2.687         -53.763043     -1.2690722      208            22.200471      12.690722      1.4738006      52.436889      427.19914      49.485315      73.47304     
  26880000   298.50694      0.95063859     0.95063851     0.97861102     2.688         -46.160317      1.30101        221           -22.402994     -13.0101       -41.340566     -12.858317      427.315        49.210052      73.863714    
  26890000   301.03594      0.95022447     0.95022438     0.99632344     2.689          30.730267      7.3120355      225           -21.567747     -73.120355     -26.245395      34.662508      427.43087      49.378596      73.623714    
  26900000   298.79891      0.95167047     0.95167039     0.92990188     2.69          -19.404226      4.8972212      210           -0.49095379    -48.972212     -8.7403556      56.239706      427.54673      49.496837      73.316363    
  26910000   299.90891      0.94887621     0.94887612     0.99632344     2.691         -22.122551      5.0214133      225           -26.786881     -50.214133     -21.185913     -8.9605987      427.6626       49.558923      73.42025     
  26920000   299.93742      0.95020644     0.95020636     0.97861102     2.692         -42.490444     -0.33909679     221            5.4317296      3.3909679     -25.098618      38.002839      427.77847      49.61153       73.219885    
  26930000   300.97205      0.94830718     0.9483071      0.93875809     2.693          28.102386      2.7218382      212            2.0116699     -27.218382      28.374286      4.8791055      427.89433      49.683278      73.240742    
  26940000   301.93066      0.95104893     0.95104885     0.91661757     2.694         -20.463954     -1.8658203      207            14.61729       18.658203      8.2971629      16.896504      428.0102       49.561354      73.189438    
  26950000   298.61549      0.9504188      0.95041872     0.94761429     2.695          2.3203448      9.4402268      214           -12.005147     -94.402268      27.267575      31.119252      428.12607      49.681602      73.040926    
  26960000   299.2675       0.94987494     0.94987485     0.99189534     2.696         -24.108502     -0.42612336     224           -27.257142      4.2612336     -31.950941     -54.081719      428.24193      49.601395      73.181119    
  26970000   298.92143      0.94907838     0.94907829     0.94761429     2.697          7.7232027      5.5433024      214           -6.0414818     -55.433024     -35.241065      72.549644      428.3578       49.760302      72.988895    
  26980000   299.61436      0.94836646     0.94836637     0.96975482     2.698         -9.7791485      3.6898975      219           -23.836458     -36.898975      28.738821     -63.34922       428.47366      49.653497      73.181009    
  26990000   300.03108      0.95113741     0.95113732     0.96532671     2.699         -3.9985986     -1.2349341      218           -8.6572113      12.349341      5.2652962     -43.586271      428.58953      49.538552      73.117346    
  27000000   298.77021      0.94986596     0.94986588     0.96532671     2.7            63.746686      2.8404251      218            9.0578046     -28.404251      48.13805       7.4396153      428.7054       49.458215      73.314324    
  27010000   300.18491      0.95190299     0.95190291     0.98303913     2.701         -9.4280034     -0.20894716     222            43.947446      2.0894716      97.243048      32.50982       428.82126      49.587411      72.947113    
  27020000   300.02352      0.95257262     0.95257254     0.97418292     2.702          5.3440046      5.8066775      220           -11.757516     -58.066775      0.21016722     22.584061      428.93713      49.320437      73.270625    
  27030000   300.03445      0.94944276     0.94944268     0.96532671     2.703         -13.830847      6.1959955      218           -63.687548     -61.959955     -26.786015     -102.31667      429.053        49.465898      73.276197    
  27040000   299.84559      0.95037906     0.95037897     0.96532671     2.704         -12.607005      3.2395502      218            0.39140769    -32.395502      6.7215845      26.848141      429.16886      49.249161      73.506315    
  27050000   300.11895      0.95097535     0.95097527     0.92547377     2.705         -85.015849      0.14090593     209            6.5061608     -1.4090593      19.344185      1.5833572      429.28473      49.302939      73.360291    
  27060000   299.4047       0.95073055     0.95073046     0.93432998     2.706         -8.911803       4.226129       211            24.338965     -42.26129       30.286469      84.991716      429.4006       49.123367      73.627548    
  27070000   300.844        0.95263489     0.95263481     0.9564705      2.707          58.087414      4.0490712      216           -12.973351     -40.490712      11.899459     -10.328799      429.51646      49.369619      73.094125    
  27080000   300.65005      0.94846238     0.94846229     0.94318619     2.708          25.044304      7.4858387      213           -38.042918     -74.858387      5.787492      -45.05786       429.63233      49.438861      73.29309     
  27090000   300.32666      0.9489729      0.94897281     0.96532671     2.709          24.158423      8.3735687      218           -49.281784     -83.735687     -42.464636     -21.645028      429.74819      49.155705      73.655767    
  27100000   300.34352      0.95200136     0.95200127     0.9564705      2.71           108.76118     -1.3750805      216            21.104943      13.750805      73.526882     -23.962858      429.86406      48.829328      73.892285    
  27110000   301.41937      0.95173415     0.95173406     0.94318619     2.711          25.285457     -1.1435079      213            9.6825817      11.435079      26.125842     -8.5131761      429.97993      48.789328      73.953695    
  27120000   301.63107      0.95216589     0.9521658      0.93432998     2.712         -26.821645      1.7745471      211           -3.3380993     -17.745471      32.979337     -25.248164      430.09579      48.750014      73.959845    
  27130000   300.69014      0.95348821     0.95348812     0.96975482     2.713          71.245019      5.3113596      219           -28.071586     -53.113596     -18.405585     -12.695577      430.21166      49.172393      73.203139    
  27140000   300.33692      0.95019615     0.95019606     0.93875809     2.714         -79.927334      8.1052746      212           -35.672319     -81.052746      0.46153003    -26.425741      430.32753      49.168642      73.442584    
  27150000   298.39572      0.94964978     0.9496497      0.93432998     2.715          9.7081368      5.0226015      211           -17.557589     -50.226015      20.631509     -23.07826       430.44339      49.298429      73.271647    
  27160000   302.50294      0.95001895     0.95001886     0.91218946     2.716          4.965227      -2.9094596      206           -15.419955      29.094596     -40.758463     -34.595997      430.55926      49.336162      73.167463    
  27170000   302.98393      0.95046846     0.95046838     0.96089861     2.717          7.5553522      0.37698821     217            4.763588      -3.7698821      12.961667      5.0989793      430.67513      49.029903      73.569875    
  27180000   300.30986      0.95482769     0.95482761     0.94318619     2.718          93.882225     -1.0113684      213            3.9862342      10.113684      21.359612     -19.514593      430.79099      48.645197      73.793306    
  27190000   302.39243      0.95297112     0.95297104     0.96089861     2.719         -2.8921638      0.60917539     217           -9.7778317     -6.0917539     -44.49768       21.255939      430.90686      48.734936      73.781079    
  27200000   298.99094      0.95191387     0.95191379     0.99189534     2.72           23.180975      3.5394448      224           -52.759864     -35.394448     -32.835198     -90.049945      431.02272      48.829158      73.70068     
  27210000   300.19769      0.95115402     0.95115394     0.96089861     2.721         -1.8187823      11.686395      217           -64.456756     -116.86395     -42.32195      -34.184367      431.13859      48.818504      73.755828    
  27220000   300.59759      0.94883723     0.94883714     0.92990188     2.722          66.697862      2.7745811      210           -8.8322906     -27.745811     -1.9095259      3.1584652      431.25446      49.028063      73.600117    
  27230000   301.51036      0.95461905     0.95461896     0.94761429     2.723         -21.093503     -5.8700357      214            41.304057      58.700357      70.176045     -4.9642304      431.37032      48.926289      73.286827    
  27240000   299.20451      0.95078082     0.95078074     0.94761429     2.724         -31.000016      10.275259      214           -58.908817     -102.75259     -19.15266      -54.8212        431.48619      49.056286      73.367982    
  27250000   300.81232      0.94935741     0.94935733     0.94761429     2.725         -16.789561      5.8085133      214           -11.188091     -58.085133      10.847195      13.673664      431.60206      48.899819      73.693308    
  27260000   299.53457      0.9521061      0.95210602     0.9564705      2.726         -73.796873      4.5976557      216           -45.115108     -45.976557     -49.738386     -39.63038       431.71792      48.885343      73.482591    
  27270000   299.93159      0.95015372     0.95015364     0.93875809     2.727         -13.531096      8.0116029      212           -57.035529     -80.116029     -119.14774      28.157187      431.83379      48.975201      73.478762    
  27280000   302.13878      0.95198337     0.95198328     0.96089861     2.728         -16.711038      7.7500432      217           -48.957097     -77.500432     -66.554656     -2.8162021      431.94965      48.904873      73.423304    
  27290000   301.98196      0.95230041     0.95230033     0.92990188     2.729         -27.061        -2.2105525      210            23.406619      22.105525      24.783094      23.331237      432.06552      48.707582      73.6764      
  27300000   299.45365      0.95039791     0.95039782     0.92990188     2.73          -17.900637      6.960796       210           -30.666103     -69.60796      -0.35187666    -22.038472      432.18139      48.682787      73.841684    
  27310000   298.92839      0.94999546     0.94999537     0.92990188     2.731         -16.256968      6.7323213      210           -28.891153     -67.323213      17.048171     -36.398419      432.29725      48.797744      73.679183    
  27320000   299.20796      0.95227259     0.9522725      0.96975482     2.732          15.790633      3.2590596      219           -6.2013179     -32.590596      19.812165     -5.8255229      432.41312      48.566323      73.833454    
  27330000   301.92407      0.95217118     0.9521711      0.9564705      2.733          35.95918      -1.5810071      216            22.679685      15.810071      17.854338      34.374647      432.52899      48.536615      73.86672     
  27340000   299.17094      0.95048601     0.95048593     0.97418292     2.734          7.8965949      3.6938618      220           -18.778783     -36.938618      13.451796     -32.849526      432.64485      48.32498       74.301845    
  27350000   300.77469      0.9530339      0.95303381     0.97861102     2.735         -9.0539904     -3.0268876      221            65.161858      30.268876      97.24236       67.974339      432.76072      48.11006       74.414313    
  27360000   300.49832      0.94924352     0.94924344     0.91218946     2.736         -43.702316      0.94684162     206           -10.207092     -9.4684162     -36.197416      15.044555      432.87659      48.087124      74.72708     
  27370000   301.38753      0.94842148     0.9484214      0.9520424      2.737          82.696105      2.1366611      215           -22.800594     -21.366611     -56.827083      9.791912       432.99245      48.11191       74.733315    
  27380000   298.79618      0.94917308     0.949173       0.96089861     2.738         -20.108182      4.1998979      217           -18.861949     -41.998979      30.119174     -44.70604       433.10832      48.270974      74.408158    
  27390000   300.36075      0.94976183     0.94976175     0.91661757     2.739          29.888845      3.5570251      207           -10.747786     -35.570251      18.596852     -15.269959      433.22418      48.318208      74.26947     
  27400000   301.56688      0.95234936     0.95234928     0.92990188     2.74          -12.003483      5.3263557      210           -25.302812     -53.263557     -4.0233348     -18.621543      433.34005      48.394623      73.930954    
  27410000   298.54695      0.95290872     0.95290863     0.97418292     2.741         -5.1683937     -5.0080515      220            32.119336      50.080515      63.964943     -17.687449      433.45592      48.228172      74.122749    
  27420000   300.34172      0.95152152     0.95152144     0.93432998     2.742          13.401146      8.1706991      211           -36.021799     -81.706991      6.5292491     -32.887655      433.57178      48.393623      73.957256    
  27430000   301.27387      0.95064569     0.95064561     1.0007515      2.743          7.2087153      4.486125       226            8.2357951     -44.86125       32.91989       36.648745      433.68765      48.384847      74.019038    
  27440000   300.08888      0.95137988     0.9513798      0.93432998     2.744         -11.086275      6.1800486      211           -29.134474     -61.800486     -36.449789      10.846852      433.80352      48.324317      74.03478     
  27450000   299.82433      0.95200308     0.952003       0.92990188     2.745         -17.127893     -7.1171107      210            44.999573      71.171107     -3.3602907      67.187901      433.91938      48.185198      74.180114    
  27460000   300.38077      0.9526046      0.95260451     0.92547377     2.746          21.399552      0.042146202    209           -8.9503295     -0.42146202    -26.695745      0.26621837     434.03525      48.229715      74.045076    
  27470000   301.94141      0.95123153     0.95123145     0.93432998     2.747          15.279997      8.9634836      211           -70.176153     -89.634836     -61.196984     -59.69664       434.15111      48.209295      74.163567    
  27480000   301.29864      0.95044699     0.9504469      0.9520424      2.748         -2.7551961     -0.1700771      215            0.66634185     1.700771       11.659885     -11.361631      434.26698      48.114255      74.351559    
  27490000   300.63605      0.95100111     0.95100103     0.9520424      2.749         -31.370312     -0.45787795     215            20.819768      4.5787795      20.95395       36.926575      434.38285      48.158096      74.220787    
  27500000   301.05696      0.95146925     0.95146917     0.90333325     2.75          -8.8957665      1.4014792      204           -0.24108565    -14.014792      12.883181      0.40835401     434.49871      48.158627      74.163668    
  27510000   300.22069      0.95243018     0.9524301      0.96089861     2.751         -6.3521918      3.6597031      217           -3.228585      -36.597031     -6.3807465      33.292023      434.61458      48.150082      74.082236    
  27520000   298.6136       0.947576       0.94757591     0.97861102     2.752          4.7105763      7.5641371      221            0.41906996    -75.641371      28.920786      47.977795      434.73045      48.247731      74.29123     
  27530000   296.97972      0.95081153     0.95081145     0.92990188     2.753          8.2886139      3.2099066      210           -5.7069833     -32.099066      2.5260554      12.452061      434.84631      48.263029      73.995234    
  27540000   299.67937      0.95087468     0.9508746      0.96975482     2.754         -52.491085     -0.81079931     219            2.690481       8.1079931      10.868022     -10.904572      434.96218      48.124389      74.183709    
  27550000   300.45672      0.95320349     0.95320341     0.96975482     2.755          3.1630692     -1.3316295      219           -10.673513      13.316295     -34.909722     -10.427113      435.07805      47.966964      74.225567    
  27560000   299.88021      0.95140509     0.95140501     0.96089861     2.756         -9.6713615      1.6859494      217           -5.1913654     -16.859494     -5.857192       7.1425898      435.19391      48.121805      74.106851    
  27570000   299.92987      0.95123816     0.95123808     0.92104567     2.757          24.637723      0.78324698     208            4.3833773     -7.8324698      39.776734     -18.794132      435.30978      48.145522      74.063626    
  27580000   299.89374      0.95384487     0.95384478     0.9520424      2.758          7.0466118     -1.1495935      215            8.1426695      11.495935      9.6164739      3.3155999      435.42564      47.855281      74.289414    
  27590000   299.59533      0.94928816     0.94928808     0.96089861     2.759          42.63072       2.7611874      217           -13.423255     -27.611874      22.456335     -35.114226      435.54151      47.83474       74.658201    
  27600000   299.63412      0.95203419     0.95203411     0.96089861     2.76          -24.723128      2.369866       217           -5.190938      -23.69866       2.2470468      5.878799       435.65738      47.942701      74.255467    
  27610000   300.83704      0.95083794     0.95083785     0.94761429     2.761         -11.334022     -0.65015379     214           -20.626904      6.5015379     -41.894961     -26.487289      435.77324      48.147574      74.012842    
  27620000   303.26883      0.94952318     0.9495231      0.93875809     2.762          51.521427      9.7643231      212           -58.084743     -97.643231      4.1190243     -80.730021      435.88911      48.108238      74.156207    
  27630000   299.79993      0.95140401     0.95140393     0.96975482     2.763         -32.928658      1.5799731      219           -5.4475557     -15.799731      38.163962     -38.706899      436.00498      48.18136       73.87765     
  27640000   302.2583       0.95204358     0.95204349     0.97418292     2.764         -27.027692     -4.0105363      220            35.418062      40.105363      62.628549      3.5202731      436.12084      48.143361      73.866662    
  27650000   302.01412      0.94803979     0.94803971     0.99632344     2.765          9.2038628      4.2215421      225           -62.363706     -42.215421     -97.989636     -46.886061      436.23671      48.162751      74.12906     
  27660000   300.928        0.95223699     0.95223691     0.98303913     2.766         -65.90376      -0.28957471     222            6.5220059      2.8957471     -0.13358411     16.803855      436.35257      48.369111      73.467938    
  27670000   298.45666      0.9501561      0.95015602     0.92990188     2.767          57.180679      4.6102251      210            4.7040498     -46.102251      7.2872405      52.92716       436.46844      48.582601      73.285825    
  27680000   300.47884      0.9536973      0.95369722     0.89004894     2.768         -17.672813     -2.8381174      201            30.260936      28.381174      29.412057      32.989576      436.58431      48.393489      73.279575    
  27690000   302.09043      0.95115511     0.95115502     0.96532671     2.769          58.86449       6.7453879      218           -16.32087      -67.453879      13.197673      5.2935967      436.70017      48.423221      73.410835    
  27700000   299.86509      0.95086598     0.9508659      0.96089861     2.77          -84.033853      4.1054105      217           -25.039075     -41.054105     -36.54757       2.4844512      436.81604      48.287805      73.619556    
  27710000   299.34169      0.95079289     0.95079281     0.96975482     2.771          24.039178      1.8078037      219            22.675162     -18.078037     -11.546928      97.650453      436.93191      48.345575      73.517738    
  27720000   300.73802      0.95084586     0.95084577     0.92990188     2.772          54.385535      4.5620976      210           -11.267112     -45.620976      14.00577      -2.1861295      437.04777      48.253896      73.633787    
  27730000   298.22636      0.95062477     0.95062469     0.97418292     2.773         -27.197069      2.3536319      220            17.111937     -23.536319      21.175832      53.696297      437.16364      48.325683      73.522013    
  27740000   301.40463      0.94922438     0.94922429     0.89447704     2.774         -0.15644791     6.7276883      202           -44.350836     -67.276883     -19.112551     -46.663074      437.27951      48.462816      73.402677    
  27750000   298.92368      0.95201938     0.95201929     0.9520424      2.775          8.6305333      7.8914097      215           -4.2467559     -78.914097      16.749084      49.424746      437.39537      48.490326      73.126279    
  27760000   300.54297      0.9499776      0.94997751     0.96089861     2.776          56.153681      1.1978823      217            27.12724      -11.978823      52.330119      41.030425      437.51124      48.308965      73.539089    
  27770000   299.01665      0.95073605     0.95073597     0.9564705      2.777         -17.354597      9.5187691      216           -39.88302      -95.187691      42.421562     -66.882931      437.6271       48.392846      73.333635    
  27780000   300.40723      0.95364697     0.95364688     0.96532671     2.778         -42.779652      1.3248862      218            28.80291      -13.248862      47.178405      52.479186      437.74297      48.205217      73.37493     
  27790000   300.41196      0.95091269     0.9509126      0.97861102     2.779          10.587855      15.001509      221           -36.559401     -150.01509     -21.425706      61.762589      437.85884      48.06908       73.774789    
  27800000   299.28771      0.95025468     0.9502546      0.9564705      2.78           12.49392       15.249367      216           -27.484361     -152.49367      25.778635      44.261954      437.9747       47.81383       74.200353    
  27810000   299.15005      0.95122719     0.9512271      0.98303913     2.781         -24.800916      1.7385611      222           -2.514086      -17.385611      15.841664     -5.9983106      438.09057      47.696717      74.286843    
  27820000   299.59937      0.95166797     0.95166788     0.94761429     2.782          21.855659      11.471322      214           -36.390798     -114.71322     -64.762804      70.303634      438.20644      47.961346      73.823219    
  27830000   300.93233      0.95122896     0.95122887     0.89447704     2.783          48.183237      3.9999351      202            1.1718257     -39.999351      0.84897339     42.665855      438.3223       47.828955      74.042152    
  27840000   301.35714      0.9508892      0.95088912     0.9564705      2.784         -21.452923      8.7248909      216           -33.648636     -87.248909      20.196801     -33.893801      438.43817      47.873551      73.980053    
  27850000   301.35876      0.95001898     0.95001889     0.96975482     2.785         -5.0562911      9.4158781      219           -17.699918     -94.158781      20.848975      20.210052      438.55404      47.68542       74.320316    
  27860000   298.68338      0.9534637      0.95346362     0.9520424      2.786          44.175172      1.7984181      215           -42.132689     -17.984181     -37.982934     -70.430952      438.6699       47.908671      73.687263    
  27870000   299.21962      0.95166288     0.9516628      0.96089861     2.787          17.383042      7.1175196      217           -32.104468     -71.175196     -51.622328      26.48412       438.78577      47.828195      73.931394    
  27880000   300.89387      0.95384672     0.95384663     0.93875809     2.788          27.916352      2.6572271      212            7.8631474     -26.572271      12.346505      37.815207      438.90163      47.601335      74.094101    
  27890000   300.78277      0.95135966     0.95135958     0.96089861     2.789          24.935384      8.1346443      217           -70.393394     -81.346443     -51.458398     -78.375341      439.0175       47.561018      74.331148    
  27900000   301.79432      0.95065277     0.95065269     0.94318619     2.79          -28.218921     -2.0963444      213            30.375473      20.963444     -14.633047      84.796023      439.13337      47.582279      74.333565    
  27910000   300.05367      0.95073052     0.95073044     0.98303913     2.791          88.786079      14.324152      222           -70.196599     -143.24152     -28.831342     -38.516934      439.24923      47.590158      74.295577    
  27920000   299.47488      0.95215624     0.95215616     0.96532671     2.792          13.456626      5.5210219      218           -15.739731     -55.210219      0.35570738     7.6353197      439.3651       47.468544      74.354776    
  27930000   299.64141      0.95228447     0.95228439     0.96532671     2.793         -8.0505431      3.0781639      218           -34.297975     -30.781639     -13.599401     -58.512884      439.48097      47.636837      74.062584    
  27940000   297.35152      0.95281167     0.95281159     0.9520424      2.794         -5.8722506      4.1366141      215            13.108266     -41.366141      30.92356       49.767378      439.59683      47.584339      74.083738    
  27950000   299.26609      0.95322485     0.95322477     0.92104567     2.795          13.89031      -4.6767422      208           -7.5974323      46.767422     -74.458406      4.8986871      439.7127       47.434784      74.265525    
  27960000   299.12572      0.95213225     0.95213216     0.91661757     2.796          19.142106      0.13359737     207           -17.510811     -1.3359737     -33.290674     -17.905784      439.82856      47.364593      74.441316    
  27970000   300.49494      0.95368361     0.95368353     0.99189534     2.797         -12.691668     -3.8395075      224            25.590127      38.395075      15.7428        22.632507      439.94443      47.571004      73.978257    
  27980000   301.85647      0.95063059     0.9506305      0.93432998     2.798          7.0181462      11.251624      211           -61.683713     -112.51624     -9.1688791     -63.366021      440.0603       47.628641      74.106515    
  27990000   299.20429      0.95279907     0.95279899     0.98746723     2.799          23.173009      8.5183233      223           -31.001636     -85.183233     -16.041855      8.2201801      440.17616      47.777224      73.688513    
  28000000   299.54155      0.95217825     0.95217817     0.93432998     2.8           -62.348849     -0.0017847062   211           -2.1173118      0.017847062   -21.200965      14.831183      440.29203      47.773234      73.723311    
  28010000   299.81311      0.95135092     0.95135084     0.91218946     2.801         -34.46918       1.0222758      206           -5.9255895     -10.222758     -25.108243      17.554233      440.4079       47.90664       73.562588    
  28020000   302.4538       0.95421601     0.95421592     0.96975482     2.802          24.682861      0.17770765     219            13.551188     -1.7770765      15.376718      27.053921      440.52376      47.975611      73.217011    
  28030000   300.90202      0.95158402     0.95158393     0.98303913     2.803         -11.13321      -2.8364742      222            3.6415763      28.364742     -24.800984      7.3609715      440.63963      47.956971      73.428747    
  28040000   301.44788      0.95120791     0.95120783     0.97861102     2.804         -23.408929      1.8281276      221           -10.500587     -18.281276     -42.447057      29.226571      440.7555       47.871631      73.569387    
  28050000   301.9982       0.95354068     0.9535406      0.9520424      2.805          21.152201      1.875219       215            15.291794     -18.75219       50.269065      14.358507      440.87136      47.991916      73.186226    
  28060000   301.66355      0.9511171      0.95111701     0.92104567     2.806          54.403283      9.5172352      208           -35.705618     -95.172352      29.299074     -41.243575      440.98723      47.962757      73.398032    
  28070000   301.33541      0.95113384     0.95113375     0.96532671     2.807         -14.731929      8.9595585      218           -27.315648     -89.595585     -15.289984      22.938624      441.10309      48.0628        73.224725    
  28080000   300.54901      0.95042474     0.95042466     0.9520424      2.808          13.606554      12.327266      215           -52.744054     -123.27266     -13.779187     -21.180316      441.21896      47.983215      73.381623    
  28090000   298.13721      0.95312911     0.95312903     0.93432998     2.809         -51.016681     -4.0308014      211           -10.062192      40.308014     -56.161586     -14.333004      441.33483      48.159132      72.886982    
  28100000   299.20993      0.95128339     0.9512833      0.93432998     2.81           21.01163       9.9087623      211           -34.267523     -99.087623     -32.027755      28.312808      441.45069      48.198949      72.94892     
  28110000   301.40144      0.95042407     0.95042398     0.92547377     2.811         -34.737756     -0.87641459     209           -22.861611      8.7641459     -66.682256     -10.666724      441.56656      48.087031      73.165608    
  28120000   298.11124      0.94966523     0.94966515     0.9520424      2.812         -34.089055      1.4757687      215           -15.161656     -14.757687      2.9191837     -33.646464      441.68243      47.646617      73.881519    
  28130000   301.28302      0.94996251     0.94996242     0.94318619     2.813          3.6559969      9.6960011      213           -95.778665     -96.960011     -67.998184     -122.3778       441.79829      47.586287      73.932644    
  28140000   299.11415      0.9536106      0.95361052     0.93875809     2.814          57.207701     -0.67534023     212            10.453681      6.7534023      24.467089      0.14055184     441.91416      47.568735      73.657667    
  28150000   296.72426      0.94955725     0.94955717     0.92547377     2.815         -40.394785     -4.1442174      209            18.929125      41.442174      22.135743     -6.7905433      442.03002      47.697641      73.752837    
  28160000   299.84442      0.9507274      0.95072732     0.9520424      2.816         -11.662435      8.8976453      215           -24.335943     -88.976453      46.296449     -30.327825      442.14589      47.690265      73.654149    
  28170000   300.14347      0.95215261     0.95215253     0.97418292     2.817          3.7438668      1.2022649      220            21.739245     -12.022649      38.117404      39.122979      442.26176      47.715271      73.486101    
  28180000   298.9709       0.9503121      0.95031201     0.9564705      2.818          43.083167      8.7305418      216           -33.013626     -87.305418      55.007946     -66.743408      442.37762      47.763734      73.534455    
  28190000   297.73544      0.95116192     0.95116184     0.98746723     2.819          19.584435      3.4945238      223            19.660633     -34.945238      28.202218      65.724917      442.49349      47.927503      73.198539    
  28200000   301.81293      0.95302262     0.95302254     0.94761429     2.82          -18.80972       4.3688821      214           -11.058409     -43.688821     -67.582819      78.096413      442.60936      47.65995       73.446511    
  28210000   300.36703      0.94988177     0.94988168     0.96089861     2.821         -34.101827      12.649262      217           -21.302551     -126.49262      27.437126      35.147839      442.72522      47.598314      73.765479    
  28220000   300.04199      0.95259575     0.95259567     0.9520424      2.822          33.126735      3.9501544      215           -5.2881146     -39.501544      0.45121393     23.185986      442.84109      47.393285      73.854198    
  28230000   300.54197      0.95089393     0.95089385     0.92990188     2.823          5.4178247      1.6902229      210           -18.135498     -16.902229     -6.4711824     -31.033084      442.95696      47.495361      73.808054    
  28240000   298.91086      0.95184086     0.95184078     0.97418292     2.824         -29.561546      5.7467975      220           -19.319374     -57.467975     -38.375864      37.885719      443.07282      47.383103      73.889988    
  28250000   298.83391      0.9498681      0.94986802     0.91661757     2.825          10.547047      9.3858024      207           -59.695603     -93.858024     -41.585531     -43.643253      443.18869      47.445052      73.927437    
  28260000   299.99991      0.95051514     0.95051506     0.97861102     2.826         -0.51416618     0.49330335     221           -10.767048     -4.9330335      8.000586      -35.368697      443.30455      47.357066      73.995026    
  28270000   299.28799      0.95130784     0.95130776     0.9564705      2.827          27.665906      7.9564391      216           -48.096604     -79.564391     -69.036105      4.3106845      443.42042      47.400151      73.846865    
  28280000   299.07843      0.94916789     0.9491678      0.9564705      2.828          1.967167       14.706443      216           -52.730477     -147.06443     -30.346166      19.219167      443.53629      47.249838      74.229415    
  28290000   299.26277      0.95332139     0.95332131     0.90776136     2.829          63.836515     -1.0456411      205           -17.1131        10.456411     -76.176725      14.381014      443.65215      47.245967      73.892759    
  28300000   299.62849      0.95211847     0.95211839     0.92547377     2.83           8.257241       3.9538801      209           -31.585629     -39.538801     -28.166787     -27.051298      443.76802      47.161466      74.099328    
  28310000   298.9204       0.95292478     0.9529247      0.96532671     2.831         -32.114021      7.406126       218           -18.495764     -74.06126      -19.744427      38.318395      443.88389      47.347874      73.725897    
  28320000   300.49816      0.94891744     0.94891736     0.97418292     2.832         -14.388354      0.20667659     220           -8.024182      -2.0667659      8.7461177     -30.751898      443.99975      47.348411      74.017086    
  28330000   297.94815      0.95378742     0.95378733     0.94318619     2.833          29.500617      6.1482425      213           -4.7572843     -61.482425      37.0469        10.163673      444.11562      47.177074      73.88732     
  28340000   301.79035      0.95456791     0.95456782     0.92104567     2.834          17.54064      -3.988381       208            29.304301      39.88381       23.939133      24.089961      444.23148      47.176155      73.809088    
  28350000   300.52158      0.9519921      0.95199202     0.98303913     2.835          22.85669      -4.6720783      222            47.334284      46.720783      105.10059     -9.8185211      444.34735      47.238712      73.891514    
  28360000   299.28686      0.95106412     0.95106404     0.94318619     2.836          8.6173413      0.1462371      213            14.659384     -1.462371       31.787216      13.653309      444.46322      47.257208      73.91539     
  28370000   301.07375      0.95311234     0.95311226     0.92547377     2.837          52.95992       0.96782231     209            15.430992     -9.6782231      38.531092      17.440106      444.57908      47.086263      74.005025    
  28380000   300.19885      0.9522387      0.95223861     0.9520424      2.838          33.702797      5.6829232      215           -38.692297     -56.829232     -81.017334      21.769674      444.69495      47.146404      73.959157    
  28390000   300.15069      0.951287       0.95128691     0.94761429     2.839         -27.707353      1.5074055      214           -28.24824      -15.074055     -57.555184     -12.115483      444.81082      47.086323      74.108304    
  28400000   299.53801      0.95136363     0.95136355     0.97861102     2.84           26.584738      8.6329071      221           -25.503402     -86.329071      36.246406     -26.42754       444.92668      46.98704       74.239574    
  28410000   299.28041      0.95401336     0.95401327     1.018464       2.841          1.0656862     -0.55159098     230            21.468283      5.5159098     -11.454699      70.343639      445.04255      47.189965      73.695829    
  28420000   298.86898      0.95202487     0.95202478     0.93875809     2.842          13.018111      1.2117952      212           -17.385048     -12.117952     -48.338617      8.3014254      445.15842      47.360136      73.565252    
  28430000   300.79885      0.95207543     0.95207535     0.93875809     2.843          7.965013      -0.61726278     212           -11.470135      6.1726278      3.6346993     -44.217732      445.27428      47.249665      73.714147    
  28440000   298.0565       0.95161402     0.95161393     0.92547377     2.844         -53.890427      0.29889736     209           -11.671021     -2.9889736      14.399414     -46.423504      445.39015      47.208819      73.794497    
  28450000   299.17961      0.95276737     0.95276728     0.9520424      2.845          57.847993      3.8211535      215            3.8953505     -38.211535     -29.933968      79.831555      445.50601      47.183135      73.726108    
  28460000   299.881        0.95173959     0.95173951     0.96975482     2.846          16.786378      8.3005628      219           -38.985653     -83.005628     -14.685874     -19.265459      445.62188      47.244165      73.691218    
  28470000   301.20395      0.94947174     0.94947165     0.94761429     2.847          10.992266      10.255323      214           -57.91181      -102.55323     -66.641142     -4.5410607      445.73775      47.376424      73.641872    
  28480000   300.28025      0.95021365     0.95021356     0.9564705      2.848          17.480052      5.8097201      216           -27.994957     -58.097201     -11.590441     -14.297228      445.85361      47.403613      73.523057    
  28490000   300.32818      0.95027234     0.95027226     0.9520424      2.849         -10.5256        3.0088776      215           -1.510573      -30.088776      16.327415      9.2296422      445.96948      47.208339      73.803439    
  28500000   301.62566      0.95147937     0.95147929     0.92990188     2.85           6.3461052      7.0140194      210           -32.243941     -70.140194     -2.4806817     -24.110948      446.08535      47.042457      73.950518    
  28510000   302.0737       0.95178103     0.95178095     0.93432998     2.851          42.880588      5.9908778      211           -28.789885     -59.908778     -2.8043125     -23.656565      446.20121      46.954493      74.046341    
  28520000   300.20757      0.95296346     0.95296337     0.92990188     2.852         -2.6569979      2.8529599      210            9.2336741     -28.529599      27.901737      28.328884      446.31708      47.014278      73.841247    
  28530000   300.34063      0.9515403      0.95154022     0.94318619     2.853         -12.846837      7.4626088      213           -40.013869     -74.626088     -0.070633948   -45.344887      446.43295      47.252811      73.559282    
  28540000   299.44932      0.95262229     0.9526222      0.94761429     2.854          3.7959142      2.7956167      214            22.937595     -27.956167      79.72347       17.045481      446.54881      47.226498      73.497596    
  28550000   298.29945      0.9527426      0.95274252     0.96532671     2.855          29.021364      2.1776734      218            13.520266     -21.776734      9.4924626      52.845071      446.66468      47.209981      73.494956    
  28560000   300.38333      0.95142883     0.95142875     0.97861102     2.856         -7.3422431      9.6341895      221           -28.543644     -96.341895      7.9790571      2.731905       446.78054      47.04164       73.840654    
  28570000   300.2564       0.9512921      0.95129201     0.96089861     2.857         -12.592338      10.172573      217           -69.493169     -101.72573     -47.768738     -58.985036      446.89641      46.984238      73.922324    
  28580000   301.7422       0.9509998      0.95099972     0.94318619     2.858          56.654715      2.7998517      213            6.7355526     -27.998517      36.280671      11.924503      447.01228      47.156176      73.656334    
  28590000   300.37227      0.94980473     0.94980465     0.96089861     2.859          59.336791      11.875924      217           -83.579312     -118.75924     -111.61105     -20.367642      447.12814      47.055001      73.888428    
  28600000   300.16058      0.95319079     0.95319071     0.90333325     2.86          -44.422733      7.7752538      204           -46.724149     -77.752538     -54.791159     -7.6287484      447.24401      47.059004      73.600617    
  28610000   300.26879      0.95197652     0.95197644     0.90776136     2.861         -70.484885      5.9415128      205            2.4643462     -59.415128      38.336122      28.472044      447.35988      46.851978      74.00096     
  28620000   297.9516       0.95129962     0.95129954     0.91661757     2.862          1.9241677      8.0006608      207           -36.311687     -80.006608     -10.305185     -18.623268      447.47574      46.931196      73.909474    
  28630000   298.28474      0.95285758     0.9528575      0.96532671     2.863          12.253218      5.8647286      218           -11.048733     -58.647286      28.585294     -3.0842085      447.59161      46.965499      73.715647    
  28640000   300.01515      0.95070803     0.95070794     0.93875809     2.864          17.323081      7.9237901      212           -49.07003      -79.237901     -42.345467     -25.626724      447.70747      46.954898      73.879874    
  28650000   299.12044      0.95065811     0.95065803     0.9564705      2.865         -20.141784      0.5683189      216           -14.189524     -5.683189       25.917456     -62.802839      447.82334      46.766364      74.162415    
  28660000   301.2293       0.95298826     0.95298818     0.92104567     2.866         -24.285976     -2.4765921      208            34.029295      24.765921      43.936606      33.385358      447.93921      46.741755      74.000883    
  28670000   300.16054      0.95124447     0.95124438     0.92990188     2.867         -33.495321      7.3477177      210           -20.850739     -73.477177      9.030563       1.8943981      448.05507      46.789072      74.042415    
  28680000   300.87269      0.95325618     0.95325609     0.9564705      2.868         -15.896754      1.0137986      216            42.106988     -10.137986      44.981106      91.477844      448.17094      46.96961       73.583134    
  28690000   300.75086      0.95273126     0.95273118     0.96532671     2.869         -16.620843      2.3109833      218           -17.801035     -23.109833     -41.981992      11.688721      448.28681      46.640039      74.124756    
  28700000   301.77795      0.95139166     0.95139157     0.94318619     2.87           32.615452      5.3954901      213           -38.803128     -53.954901     -0.78798773    -61.666496      448.40267      46.648714      74.196146    
  28710000   299.68268      0.95250015     0.95250007     0.94318619     2.871         -20.128248     -5.132431       213            36.46586       51.32431       12.126769      45.9465        448.51854      46.558859      74.233643    
  28720000   298.47339      0.9524531      0.95245302     0.96975482     2.872         -8.3472771      4.3330025      219           -27.21826      -43.330025     -57.116107      18.791352      448.63441      46.619258      74.121981    
  28730000   300.13726      0.9536626      0.95366252     0.96089861     2.873          60.824539      4.9439008      217           -10.877828     -49.439008      16.616036      0.18948859     448.75027      46.525605      74.157836    
  28740000   299.15697      0.95238715     0.95238707     0.93875809     2.874          55.820383      8.7029322      212           -46.78537      -87.029322     -27.112667     -26.214122      448.86614      46.614222      74.096848    
  28750000   300.25349      0.9537639      0.95376381     0.93432998     2.875         -8.6005626     -2.5512922      211            40.669351      25.512922      65.821957      30.673174      448.982        46.449958      74.232385    
  28760000   299.49425      0.953577       0.95357692     0.94318619     2.876          55.083047      3.2086709      213            28.282414     -32.086709      50.33617       66.597781      449.09787      46.491487      74.161475    
  28770000   301.48716      0.95353711     0.95353703     0.94318619     2.877         -9.9877055      2.4423072      213           -15.3211       -24.423072      16.852079     -38.392307      449.21374      46.492384      74.144016    
  28780000   298.99089      0.95469072     0.95469063     0.92104567     2.878         -14.226321      5.7269357      208            16.582478     -57.269357      28.198318      78.818474      449.3296       46.71457       73.683198    
  28790000   299.93719      0.95101949     0.95101941     0.99189534     2.879         -3.746511       4.0405884      224           -32.788362     -40.405884     -25.138547     -32.820656      449.44547      46.780813      73.843855    
  28800000   299.26665      0.95343831     0.95343823     0.9520424      2.88           5.3151322      8.2764198      215           -37.28798      -82.764198      4.3159721     -33.415714      449.56134      46.538325      74.021223    
  28810000   300.40327      0.95198028     0.95198019     0.96089861     2.881         -10.196426     -0.45917283     217            12.51183       4.5917283     -5.7243208      38.668083      449.6772       46.472934      74.219776    
  28820000   298.13404      0.95354119     0.9535411      0.99632344     2.882          12.886113     -0.61936322     225            36.27109       6.1936322      78.425033      24.194606      449.79307      46.377494      74.231641    
  28830000   300.77232      0.95445377     0.95445369     0.94318619     2.883          17.157125      1.8458326      213            12.104111     -18.458326      63.878269     -9.1076099      449.90893      46.493443      73.956666    
  28840000   300.02853      0.95107821     0.95107812     0.9520424      2.884          18.979608      1.7702854      215           -15.569388     -17.702854     -8.8832384     -20.122071      450.0248       46.53214       74.138338    
  28850000   299.45291      0.95295153     0.95295145     0.9564705      2.885         -56.782003     -0.49770089     216           -13.707081      4.9770089     -3.1883528     -42.909898      450.14067      46.426277      74.142227    
  28860000   301.66848      0.9515669      0.95156681     0.97418292     2.886         -8.3185984      8.3086646      220            3.3280056     -83.086646      46.720205      46.350458      450.25653      46.296294      74.439419    
  28870000   298.1326       0.94917808     0.94917799     0.9520424      2.887         -59.232278      3.0905505      215           -24.6829       -30.905505     -38.551886     -4.5913088      450.3724       46.588888      74.139004    
  28880000   300.95125      0.95035645     0.95035637     0.98303913     2.888          22.159772     -0.35028331     222           -9.2035131      3.5028331     -29.905712     -1.2076608      450.48827      46.511414      74.151339    
  28890000   299.03225      0.9520405      0.95204042     0.97418292     2.889          33.218978      2.0546357      220            35.461645     -20.546357      84.871785      42.059506      450.60413      46.480349      74.050599    
  28900000   299.54217      0.95221133     0.95221124     0.94318619     2.89           15.634273      4.6264384      213           -27.058744     -46.264384     -11.30541      -23.606437      450.72         46.285608      74.329704    
  28910000   301.70437      0.9540503      0.95405021     0.94318619     2.891          66.132626      9.2749456      213           -48.036615     -92.749456     -43.988364     -7.3720257      450.83587      46.439751      73.921188    
  28920000   301.53409      0.95044935     0.95044927     0.94761429     2.892          24.629436      2.0916944      214            9.7258914     -20.916944      34.380156      15.714461      450.95173      46.361334      74.307661    
  28930000   301.28134      0.95378247     0.95378239     0.9564705      2.893          10.999582      4.307489       216           -28.574445     -43.07489      -20.251606     -22.39684       451.0676       46.457479      73.875757    
  28940000   299.0721       0.95686044     0.95686035     0.96532671     2.894          6.9890367     -0.29403973     218            27.271125      2.9403973      34.847739      44.025239      451.18346      46.345316      73.797377    
  28950000   299.35906      0.95354236     0.95354227     0.96089861     2.895          69.289622      10.525555      217           -38.638904     -105.25555     -29.621216      18.960052      451.29933      46.470184      73.836224    
  28960000   299.30564      0.95309868     0.95309859     0.96975482     2.896          26.281292     -2.0085025      219            13.057348      20.085025      3.8612321      15.225787      451.4152       46.250873      74.201824    
  28970000   296.99369      0.94939848     0.9493984      0.94761429     2.897          28.816722      4.1996519      214           -18.110288     -41.996519      18.085821     -30.420167      451.53106      46.323864      74.35456     
  28980000   299.29349      0.95209448     0.95209439     0.97861102     2.898         -20.495073      8.0361532      221           -24.798676     -80.361532      5.0048796      0.96062615     451.64693      46.168143      74.37501     
  28990000   299.72441      0.9527831      0.95278302     0.94761429     2.899          31.341514      7.8870906      214           -32.720397     -78.870906      10.532138     -29.822424      451.7628       46.049041      74.49437     
  29000000   300.07271      0.94968761     0.94968753     0.93432998     2.9           -19.87496       10.971911      211           -37.34898      -109.71911      31.761973     -34.089806      451.87866      46.287504      74.33309     
  29010000   300.88947      0.95395494     0.95395486     0.94761429     2.901         -28.485893     -2.6498057      214           -11.349218      26.498057     -10.837703     -49.708008      451.99453      46.095595      74.289611    
  29020000   300.55214      0.95327416     0.95327408     0.96975482     2.902         -37.075054      1.3507284      219           -13.374971     -13.507284      5.7750566     -32.392687      452.11039      46.113939      74.294047    
  29030000   300.03734      0.95255892     0.95255884     0.96089861     2.903          20.194498      3.4622203      217           -23.788321     -34.622203     -2.6597682     -34.082993      452.22626      45.971061      74.561802    
  29040000   297.0924       0.95272837     0.95272829     0.94318619     2.904          11.717111      2.7874938      213           -8.3593475     -27.874938      19.645891     -16.848996      452.34213      46.080277      74.352802    
  29050000   298.92243      0.95397751     0.95397743     0.96975482     2.905         -43.126013     -2.1453106      219            5.8952024      21.453106      0.65809875    -4.4255976      452.45799      46.146202      74.130372    
  29060000   301.92112      0.95416406     0.95416397     0.9564705      2.906         -1.36859       -1.8249747      216           -8.2157901      18.249747     -34.753142     -8.1439751      452.57386      46.280255      73.882281    
  29070000   300.28457      0.95409972     0.95409964     0.98303913     2.907         -51.363121     -0.23502472     222           -11.472987      2.3502472     -37.260615      0.49140726     452.68973      46.524549      73.480478    
  29080000   299.05418      0.95382628     0.95382619     0.96532671     2.908         -2.1784048      5.6277031      218           -31.733666     -56.277031     -27.640165     -11.283801      452.80559      46.423579      73.642558    
  29090000   300.68914      0.95321679     0.95321671     0.97861102     2.909         -45.946597      0.8389544      221            11.047189     -8.389544       42.768902     -1.2377913      452.92146      46.186122      74.049558    
  29100000   302.54668      0.95519045     0.95519037     0.96089861     2.91          -16.868725     -4.5872738      217            21.716995      45.872738      11.986399      7.2918485      453.03733      46.150952      73.933953    
  29110000   300.50707      0.95390895     0.95390887     0.96089861     2.911          1.3019211      5.5980068      217           -21.493463     -55.980068     -11.449726      2.9494056      453.15319      46.108573      74.082376    
  29120000   302.24206      0.95304406     0.95304398     0.94761429     2.912         -23.066012      3.3770635      214           -21.288764     -33.770635      11.408936     -41.504594      453.26906      46.06503       74.200723    
  29130000   300.39211      0.95425419     0.95425411     0.99632344     2.913          2.1844732     -5.0971796      225            19.715531      50.971796     -45.595478      53.770274      453.38492      46.174718      73.911693    
  29140000   299.18518      0.95398629     0.95398621     0.94318619     2.914          6.7024919      0.30718192     213           -9.2295654     -3.0718192      3.3376974     -27.954575      453.50079      45.966528      74.248326    
  29150000   300.4702       0.95351073     0.95351065     0.9564705      2.915          50.349603     -2.785803       216            7.0958727      27.85803      -1.484919      -5.0854931      453.61666      46.130777      74.001957    
  29160000   300.55503      0.95354771     0.95354762     1.0051796      2.916         -16.411462      1.2744577      227            2.9472667     -12.744577      27.299496     -5.7131189      453.73252      46.102456      74.025637    
  29170000   301.6161       0.95214651     0.95214642     0.96975482     2.917          24.837354      7.2480085      219           -34.10539      -72.480085      2.2045018     -32.040588      453.84839      46.123979      74.081064    
  29180000   300.45981      0.95303989     0.9530398      0.96089861     2.918         -22.288301     -2.7220248      217            20.19535       27.220248      28.359166      5.0066349      453.96426      45.846441      74.440655    
  29190000   302.22021      0.95271228     0.95271219     0.94318619     2.919          53.837157      8.3169832      213           -16.353993     -83.169832      11.113805      22.994048      454.08012      45.879557      74.393516    
  29200000   301.89519      0.9518052      0.95180512     0.96089861     2.92           23.858068      5.0820945      217           -37.276762     -50.820945      0.55352836    -61.56287       454.19599      46.075046      74.129558    
  29210000   300.35283      0.95391407     0.95391399     0.94761429     2.921          37.847428      2.1053839      214            4.9186028     -21.053839     -14.479373      50.28902       454.31186      45.899776      74.22918     
  29220000   299.45596      0.95210132     0.95210124     0.96532671     2.922         -3.5990504      3.5684912      218           -8.0370439     -35.684912      3.2180158      8.3557644      454.42772      45.835663      74.455546    
  29230000   299.78338      0.95272231     0.95272222     0.97418292     2.923         -10.609461      0.84946753     220            10.842739     -8.4946753      30.104996      10.917897      454.54359      45.605007      74.76428     
  29240000   300.20239      0.95243294     0.95243286     0.98746723     2.924         -11.851433      11.744801      223           -17.176881     -117.44801      24.806351      41.111012      454.65945      45.631339      74.72479     
  29250000   299.71473      0.95184692     0.95184684     0.92990188     2.925         -42.595299      8.0421952      210           -34.511748     -80.421952     -46.612168      23.498876      454.77532      45.718928      74.608535    
  29260000   300.26962      0.95292103     0.95292095     0.97861102     2.926         -22.731649      3.9543384      221           -19.949129     -39.543384      24.747913     -45.051916      454.89119      45.717524      74.507744    
  29270000   299.40134      0.95259009     0.95259001     0.98303913     2.927         -11.696566     -1.3946105      222            29.251063      13.946105      45.27884       28.528243      455.00705      45.751371      74.459524    
  29280000   299.64757      0.95347442     0.95347433     0.9564705      2.928          29.190211      3.2354223      216           -40.260572     -32.354223     -73.282746     -15.144748      455.12292      45.728454      74.408797    
  29290000   300.03276      0.95486598     0.95486589     0.97418292     2.929         -22.279121      5.2970981      220           -21.775703     -52.970981      30.380994     -42.737121      455.23879      45.626206      74.447912    
  29300000   301.06953      0.95396394     0.95396385     0.97418292     2.93          -60.944163     -0.77427678     220            4.4500717      7.7427678     -19.606225      25.213673      455.35465      45.729294      74.331402    
  29310000   299.86339      0.95169737     0.95169729     0.94761429     2.931         -16.506831      7.300135       214           -44.52157      -73.00135      -51.626673     -8.9366865      455.47052      45.940535      74.146962    
  29320000   300.70244      0.9503002      0.95030012     1.0007515      2.932          4.5013713      5.1693207      226            14.58839      -51.693207      35.554409      59.903968      455.58638      46.004213      74.134334    
  29330000   300.23248      0.95554882     0.95554874     0.97418292     2.933         -49.008601      2.0897888      220           -16.143253     -20.897888     -14.570804     -12.961066      455.70225      45.81175       74.018046    
  29340000   299.76204      0.95345501     0.95345493     0.9520424      2.934         -29.041831      1.8029912      215           -23.130549     -18.029912     -6.2672055     -45.09453       455.81812      45.771902      74.226299    
  29350000   297.99833      0.95280145     0.95280137     0.92547377     2.935          48.919422      6.411575       209           -6.6915283     -64.11575       75.774078     -31.732913      455.93398      45.642628      74.46866     
  29360000   300.87021      0.95269462     0.95269453     0.96089861     2.936          62.485034      0.88513252     217           -7.6835417     -8.8513252      12.192824     -26.392124      456.04985      45.662668      74.425411    
  29370000   299.76587      0.9550333      0.95503321     0.96532671     2.937         -34.934222      7.8748861      218           -27.921279     -78.748861     -11.519181      6.5042042      456.16572      45.617382      74.297985    
  29380000   300.43987      0.95166594     0.95166585     0.98303913     2.938          6.9527459      8.9276393      222           -60.041909     -89.276393     -39.706033     -51.143303      456.28158      45.601252      74.568313    
  29390000   299.40172      0.95689302     0.95689294     0.98303913     2.939         -37.935697      0.20455921     222           -1.9146144     -2.0455921     -8.5947319      4.8964809      456.39745      45.637325      74.083548    
  29400000   300.30301      0.95171782     0.95171773     0.96089861     2.94           52.060566      7.5482459      217           -35.550624     -75.482459     -19.562849     -11.606565      456.51332      45.943224      73.971672    
  29410000   301.53329      0.95426481     0.95426473     0.94318619     2.941          12.866701     -2.4147834      213            46.643612      24.147834      90.379097      25.403904      456.62918      45.643292      74.240181    
  29420000   299.68786      0.95337467     0.95337459     0.93875809     2.942          23.031867      3.9192586      212           -20.65065      -39.192586     -14.156139     -8.603226       456.74505      45.808661      74.022457    
  29430000   299.76566      0.95377882     0.95377874     0.93432998     2.943          51.07103       5.1255099      211           -24.693076     -51.255099     -13.238163     -9.5859658      456.86091      45.798159      73.989288    
  29440000   300.30283      0.95130472     0.95130464     0.96089861     2.944         -34.998564      6.2432012      217           -39.97278      -62.432012     -37.229259     -20.257067      456.97678      46.081789      73.70644     
  29450000   299.63364      0.95175099     0.9517509      0.96532671     2.945          11.354881      11.623158      218           -46.967147     -116.23158      15.80547      -40.475325      457.09265      45.959931      73.848489    
  29460000   299.7483       0.95556887     0.95556878     0.96089861     2.946          41.641156      1.659054       217           -18.492092     -16.59054       11.04982      -49.935556      457.20851      45.616702      74.088085    
  29470000   299.86423      0.95484448     0.9548444      0.9564705      2.947          40.79788       3.5002879      216           -5.0966842     -35.002879     -17.558143      37.27097       457.32438      45.753554      73.903791    
  29480000   298.89596      0.95273494     0.95273486     0.94761429     2.948          26.683381      6.3391706      214            27.419455     -63.391706      98.002955      47.647117      457.44025      45.522329      74.424789    
  29490000   298.2476       0.95049457     0.95049449     0.96089861     2.949          19.2805        4.2294265      217           -28.993334     -42.294265     -51.691747      7.00601        457.55611      45.521122      74.583299    
  29500000   301.48177      0.95171042     0.95171034     0.92990188     2.95          -65.826386      7.3367049      210           -23.788952     -73.367049     -45.498392      47.498586      457.67198      45.40142       74.665498    
  29510000   298.84739      0.95262431     0.95262422     0.96975482     2.951          21.514261      3.6411701      219           -18.528278     -36.411701      9.6138989     -28.787032      457.78784      45.307359      74.729811    
  29520000   300.53927      0.95193971     0.95193962     0.96089861     2.952         -10.327445      10.175955      217           -57.528136     -101.75955     -34.011879     -36.81298       457.90371      45.636167      74.225953    
  29530000   298.52895      0.9533926      0.95339252     0.92104567     2.953          39.979782     -4.9161307      208           -0.80223084     49.161307     -34.929984     -16.638016      458.01958      45.609638      74.137187    
  29540000   299.28128      0.95235454     0.95235445     0.93432998     2.954         -19.658704      6.7278794      211           -4.9869744     -67.278794      24.288316      28.029554      458.13544      45.791287      73.904887    
  29550000   298.90518      0.95354521     0.95354513     0.94318619     2.955          2.2277219      0.75783055     213            0.99478121    -7.5783055      27.821385     -17.258735      458.25131      45.866517      73.672903    
  29560000   298.70721      0.95184962     0.95184953     0.96532671     2.956         -50.414952     -0.04642314     218            13.301424      0.4642314      16.67891       22.76113       458.36718      45.913524      73.709942    
  29570000   302.42372      0.9501831      0.95018302     0.94318619     2.957          48.659608      15.804811      213           -53.909036     -158.04811     -3.8549441      0.17594304     458.48304      45.646006      74.253203    
  29580000   300.80475      0.94994811     0.94994803     0.96975482     2.958         -22.007159      3.0323478      219           -57.979045     -30.323478     -78.835716     -64.777942      458.59891      45.758784      74.069801    
  29590000   299.57355      0.95614425     0.95614417     0.94761429     2.959          26.167587      4.6192395      214           -2.8191807     -46.192395      14.300769      23.434084      458.71478      45.536558      73.930256    
  29600000   301.70078      0.95490088     0.95490079     0.97418292     2.96           28.533575      4.2911307      220           -2.3644335     -42.911307      10.286493      25.531513      458.83064      45.554843      73.97812     
  29610000   299.55543      0.95353533     0.95353525     0.93875809     2.961          38.895746      3.6753354      212           -45.647687     -36.753354      8.8970957     -109.0868       458.94651      45.581178      74.022569    
  29620000   298.92775      0.95351169     0.95351161     0.96089861     2.962          4.2213657      3.4656705      217            3.314874      -34.656705      73.703262     -29.101935      459.06237      45.458559      74.205342    
  29630000   300.2885       0.95320257     0.95320248     0.98303913     2.963          75.837573      0.44525265     222           -28.085531     -4.4525265     -50.031285     -29.77278       459.17824      45.6236        73.942222    
  29640000   298.27995      0.95538702     0.95538693     0.98303913     2.964         -19.800376      4.4195187      222           -28.215811     -44.195187      51.613768     -92.066015      459.29411      45.471037      74.002004    
  29650000   300.52007      0.9535934      0.95359331     0.93875809     2.965          30.763319     -2.3649848      212            35.697183      23.649848      50.951126      32.490576      459.40997      45.47477       74.116411    
  29660000   300.30367      0.95234122     0.95234113     0.94761429     2.966         -35.612026      2.1467821      214           -20.06353      -21.467821      8.8860452     -47.608813      459.52584      45.583287      74.018519    
  29670000   300.72752      0.95582256     0.95582247     0.9564705      2.967          19.256793      4.9101014      216           -25.320193     -49.101014     -28.059778      1.2002124      459.64171      45.459497      73.93111     
  29680000   299.66532      0.95535278     0.9553527      0.97861102     2.968          40.013461      6.7555997      221           -1.0713089     -67.555997      66.434686     -2.0926153      459.75757      45.543606      73.812255    
  29690000   300.96789      0.95294004     0.95293996     0.94318619     2.969          8.3262807      9.3892087      213           -11.111755     -93.892087      16.031845      44.524978      459.87344      45.647364      73.812335    
  29700000   299.74765      0.95170508     0.951705       0.92990188     2.97          -22.29955       0.40382949     210            9.6560589     -4.0382949      30.677913      2.3285586      459.9893       45.603503      73.960565    
  29710000   300.15525      0.95511891     0.95511883     0.9564705      2.971          68.022241      1.6646653      216           -3.2713897     -16.646653     -24.399978      31.232462      460.10517      45.524334      73.805784    
  29720000   300.3728       0.9518673      0.95186721     0.9564705      2.972          42.753796      2.4758503      216           -10.04966      -24.758503     -4.3161754     -1.0743021      460.22104      45.570759      73.963835    
  29730000   299.08847      0.95360129     0.95360121     0.93875809     2.973          17.53905      -1.2131682      212            10.316041      12.131682      25.974516     -7.1580753      460.3369       45.446477      74.012607    
  29740000   299.38075      0.95368687     0.95368679     0.93432998     2.974          61.229045      12.888389      211           -53.126659     -128.88389     -24.036485     -6.459606       460.45277      45.488216      73.919454    
  29750000   301.01869      0.95385717     0.95385708     0.9564705      2.975         -3.1779634      0.96727238     216            3.0258804     -9.6727238     -4.6596125      23.409977      460.56864      45.455351      73.941087    
  29760000   297.12356      0.95420284     0.95420275     0.91661757     2.976          46.261865      2.8809041      207           -3.0202832     -28.809041      41.73772      -21.989529      460.6845       45.378364      74.021079    
  29770000   300.24659      0.9546975      0.95469742     0.9520424      2.977         -10.370872     -3.9598571      215           -11.67464       39.598571      0.84558536    -75.468075      460.80037      45.313465      74.070056    
  29780000   300.45424      0.95348697     0.95348688     0.92547377     2.978          27.723033      3.4897273      209            10.0274       -34.897273      56.647889      8.3315845      460.91624      45.553044      73.755494    
  29790000   299.06676      0.9549563      0.95495621     0.97418292     2.979          27.570652      2.4779043      220            8.5855025     -24.779043      4.3227341      46.212816      461.0321       45.469325      73.759061    
  29800000   300.28255      0.95371537     0.95371529     0.9520424      2.98          -49.525714     -2.3938497      215            13.050334      23.938497      45.2795       -30.066994      461.14797      45.485254      73.810618    
  29810000   298.66827      0.95420869     0.9542086      0.96975482     2.981          44.203202      2.8669487      219           -21.723446     -28.669487     -29.910486     -6.590366       461.26383      45.37175       73.938434    
  29820000   300.4058       0.95544969     0.95544961     0.92990188     2.982          35.689021      1.3975538      210            22.488131     -13.975538      42.0399        39.400029      461.3797       45.429673      73.729728    
  29830000   299.89762      0.95348952     0.95348944     0.91661757     2.983         -12.58355       2.7421446      207           -12.690045     -27.421446     -13.44178       2.79309        461.49557      45.335643      74.015949    
  29840000   299.54263      0.95287182     0.95287174     0.99189534     2.984          39.252945      3.6178208      224           -29.688028     -36.178208     -53.760953      0.87507705     461.61143      45.229961      74.218351    
  29850000   298.21202      0.95183649     0.9518364      0.9520424      2.985          48.40287       5.7971724      215           -33.317948     -57.971724     -16.991141     -24.990979      461.7273       45.245487      74.254946    
  29860000   301.08675      0.95400957     0.95400948     0.94761429     2.986          29.327602      8.4953882      214           -3.060863      -84.953882      64.558582      11.212711      461.84317      44.835839      74.743942    
  29870000   299.85278      0.9542952      0.95429512     0.96975482     2.987         -33.444355      1.3636429      219           -13.547352     -13.636429     -37.220409      10.214782      461.95903      44.972627      74.475614    
  29880000   298.84117      0.95170969     0.95170961     0.92104567     2.988          13.530738      1.4255504      208            17.831176     -14.255504      14.65212       53.096912      462.0749       45.181068      74.31478     
  29890000   299.91936      0.95561022     0.95561013     0.93432998     2.989          13.528736     -2.8288237      211            17.994344      28.288237      54.980283     -29.285489      462.19077      45.026614      74.24671     
  29900000   298.66552      0.95302953     0.95302945     0.92547377     2.99          -14.492748      2.0342068      209           -5.9227183     -20.342068     -27.675219      30.249132      462.30663      45.190558      74.159086    
  29910000   300.78432      0.95261185     0.95261176     0.99632344     2.991          67.741766      12.179631      225           -60.796956     -121.79631     -43.330305     -17.264257      462.4225       45.153287      74.234237    
  29920000   298.73717      0.95488273     0.95488265     0.92104567     2.992         -2.5819367      0.16742783     208            21.977156     -1.6742783      56.531006      11.07474       462.53836      44.759692      74.690207    
  29930000   297.42097      0.95219815     0.95219806     0.94761429     2.993         -5.1434869      1.6652226      214           -8.6867387     -16.652226     -53.015347      43.607357      462.65423      44.958632      74.550678    
  29940000   298.89266      0.9553038      0.95530371     0.94318619     2.994         -6.0200825     -4.430532       213            61.429754      44.30532       40.501351      99.482592      462.7701       44.863324      74.447534    
  29950000   299.43929      0.9537237      0.95372362     0.89447704     2.995          22.759493      1.4943285      202           -27.250475     -14.943285     -36.79289      -30.015251      462.88596      44.863974      74.551129    
  29960000   299.34631      0.95634774     0.95634765     0.9564705      2.996         -19.806562     -3.2255178      216            5.0541597      32.255178      12.325051     -29.41775       463.00183      44.796288      74.440277    
  29970000   300.323        0.95280938     0.95280929     0.97861102     2.997         -20.39106       3.5939742      221            2.2463408     -35.939742      18.604978      24.073786      463.1177       44.907508      74.513025    
  29980000   299.29981      0.95169604     0.95169595     0.9520424      2.998         -31.059006      7.6287494      215           -61.280395     -76.287494     -74.218746     -33.334943      463.23356      44.888488      74.613137    
  29990000   299.82261      0.95293149     0.95293141     0.9520424      2.999         -24.966975      2.0426396      215           -3.3871162     -20.426396     -17.646651      27.911699      463.34943      44.981286      74.344076    
  30000000   300.23743      0.95272706     0.95272698     0.97861102     3              38.3543       -2.2166892      221            17.890735      22.166892     -18.201733      49.707045      463.46529      44.99763       74.314437    
Loop time of 15157.8 on 16 procs for 30000000 steps with 12350 atoms

Performance: 171.002 ns/day, 0.140 hours/ns, 1979.184 timesteps/s, 24.443 Matom-step/s
97.8% CPU use with 16 MPI tasks x no OpenMP threads

MPI task timing breakdown:
Section |  min time  |  avg time  |  max time  |%varavg| %total
---------------------------------------------------------------
Pair    | 5523.1     | 5649.2     | 5755.6     |  98.2 | 37.27
Bond    | 2121.7     | 2137.5     | 2192.9     |  38.9 | 14.10
Neigh   | 626.68     | 627.6      | 628.46     |   1.8 |  4.14
Comm    | 4182.6     | 4293.7     | 4442.7     | 125.5 | 28.33
Output  | 3.5001     | 3.9719     | 4.4166     |  14.8 |  0.03
Modify  | 2079.7     | 2095.3     | 2107.6     |  18.5 | 13.82
Other   |            | 350.5      |            |       |  2.31

Nlocal:        771.875 ave         790 max         759 min
Histogram: 1 2 1 6 1 3 0 0 1 1
Nghost:        4069.75 ave        4106 max        4048 min
Histogram: 2 2 3 3 2 2 0 0 1 1
Neighs:        26125.6 ave       27534 max       25081 min
Histogram: 3 1 2 1 1 4 2 0 0 2

Total # of neighbors = 418010
Ave neighs/atom = 33.846964
Ave special neighs/atom = 5.76
Neighbor list builds = 527233
Dangerous builds = 0
Total wall time: 5:05:13
