LAMMPS (29 Aug 2024)
# LAMMPS输入文件示例：使用Martini 3粗粒化力场计算PDMS的均方回转半径
# -----------------------------------------------------
# 1. 初始化设置
# -----------------------------------------------------
units               real
dimension           3
boundary            p p p
atom_style          full

# 读取包含PDMS分子结构的data文件
read_data           bad_pdms_100_box.data
Reading data file ...
  orthogonal box = (-1.9905 -2.134501 -2.405997) to (241.4995 241.3355 241.104)
  2 by 2 by 4 MPI processor grid
  reading atoms ...
  98100 atoms
  scanning bonds ...
  1 = max bonds/atom
  scanning angles ...
  1 = max angles/atom
  scanning dihedrals ...
  1 = max dihedrals/atom
  orthogonal box = (-1.9905 -2.134501 -2.405997) to (241.4995 241.3355 241.104)
  2 by 2 by 4 MPI processor grid
  reading bonds ...
  97119 bonds
  reading angles ...
  96138 angles
  reading dihedrals ...
  95157 dihedrals
Finding 1-2 1-3 1-4 neighbors ...
  special bond factors lj:    0        0        0       
  special bond factors coul:  0        0        0       
     2 = max # of 1-2 neighbors
     2 = max # of 1-3 neighbors
     4 = max # of 1-4 neighbors
     6 = max # of special neighbors
  special bonds CPU = 0.006 seconds
  read_data CPU = 0.609 seconds

# -----------------------------------------------------
# 2. 力场参数设置（Martini 3参数）
# -----------------------------------------------------
# 定义非键相互作用（示例：Lennard-Jones势，截断距离可参考Martini 3常用取值）
pair_style lj/cut   12.0
pair_coeff          1 1 0.7337 5.1
special_bonds       lj 0.0 0.0 0.5
Finding 1-2 1-3 1-4 neighbors ...
  special bond factors lj:    0        0        0.5     
  special bond factors coul:  0        0        0       
     2 = max # of 1-2 neighbors
     2 = max # of 1-3 neighbors
     4 = max # of 1-4 neighbors
     6 = max # of special neighbors
  special bonds CPU = 0.004 seconds
# 定义键、角、二面角势（示例参数，实际参数请参考相关文献）
bond_style          harmonic
bond_coeff          1 13.243 4.48
angle_style         harmonic
angle_coeff         1 5.48 86.0
dihedral_style      harmonic
dihedral_coeff      1 0.3346  1  1
# -----------------------------------------------------
# 3. 邻域列表设置
# -----------------------------------------------------
neigh_modify    one 1000
neighbor        1 bin
neigh_modify    delay 0 every 1 check yes

# -----------------------------------------------------
# 4. 能量最小化与预平衡
# -----------------------------------------------------
minimize        1.0e-4 1.0e-6 1000 10000

CITE-CITE-CITE-CITE-CITE-CITE-CITE-CITE-CITE-CITE-CITE-CITE-CITE

Your simulation uses code contributions which should be cited:

- Type Label Framework: https://doi.org/10.1021/acs.jpcb.3c08419

@Article{Gissinger24,
 author = {Jacob R. Gissinger, Ilia Nikiforov, Yaser Afshar, Brendon Waters, Moon-ki Choi, Daniel S. Karls, Alexander Stukowski, Wonpil Im, Hendrik Heinz, Axel Kohlmeyer, and Ellad B. Tadmor},
 title = {Type Label Framework for Bonded Force Fields in LAMMPS},
 journal = {J. Phys. Chem. B},
 year =    2024,
 volume =  128,
 number =  13,
 pages =   {3282–-3297}
}

CITE-CITE-CITE-CITE-CITE-CITE-CITE-CITE-CITE-CITE-CITE-CITE-CITE

Generated 0 of 0 mixed pair_coeff terms from geometric mixing rule
Neighbor list info ...
  update: every = 1 steps, delay = 0 steps, check = yes
  max neighbors/atom: 1000, page size: 100000
  master list distance cutoff = 13
  ghost atom cutoff = 13
  binsize = 6.5, bins = 38 38 38
  1 neighbor lists, perpetual/occasional/extra = 1 0 0
  (1) pair lj/cut, perpetual
      attributes: half, newton on
      pair build: half/bin/newton
      stencil: half/bin/3d
      bin: standard
Per MPI rank memory allocation (min/avg/max) = 10.14 | 10.19 | 10.56 Mbytes
   Step          Temp          E_pair         E_mol          TotEng         Press     
         0   0              9.8057299e+09  278921.67      9.8060088e+09  1.8652243e+08
      1000   0             -396437.55      172593.66     -223843.89      481.38985    
Loop time of 6.6112 on 16 procs for 1000 steps with 98100 atoms

98.1% CPU use with 16 MPI tasks x no OpenMP threads

Minimization stats:
  Stopping criterion = max iterations
  Energy initial, next-to-last, final = 
      9806008793.66089  -223748.441074558  -223843.890171984
  Force two-norm initial, final = 2.3504058e+09 122.16233
  Force max component initial, final = 1.649037e+08 23.808162
  Final line search alpha, max atom move = 0.0048955005 0.11655287
  Iterations, force evaluations = 1000 1000

MPI task timing breakdown:
Section |  min time  |  avg time  |  max time  |%varavg| %total
---------------------------------------------------------------
Pair    | 2.3036     | 2.8857     | 3.6248     |  20.6 | 43.65
Bond    | 0.51581    | 0.62617    | 0.73482    |   7.6 |  9.47
Neigh   | 1.3352     | 1.3373     | 1.3405     |   0.1 | 20.23
Comm    | 0.7355     | 1.4466     | 2.2211     |  33.7 | 21.88
Output  | 9.1994e-05 | 9.6899e-05 | 0.0001633  |   0.0 |  0.00
Modify  | 0          | 0          | 0          |   0.0 |  0.00
Other   |            | 0.3154     |            |       |  4.77

Nlocal:        6131.25 ave        7010 max        5353 min
Histogram: 1 2 2 2 1 5 0 0 1 2
Nghost:        5354.25 ave        6402 max        4472 min
Histogram: 4 4 0 0 0 0 1 3 3 1
Neighs:         213944 ave      249449 max      169267 min
Histogram: 1 0 1 2 2 5 1 1 0 3

Total # of neighbors = 3423112
Ave neighs/atom = 34.894108
Ave special neighs/atom = 5.88
Neighbor list builds = 125
Dangerous builds = 0
fix             1 all npt temp 600.0 600.0 100.0 iso 1.0 1.0 1000
timestep        1
thermo_style    custom step temp press density vol
thermo          10000
run             500000
Generated 0 of 0 mixed pair_coeff terms from geometric mixing rule
Per MPI rank memory allocation (min/avg/max) = 9.018 | 9.066 | 9.435 Mbytes
   Step          Temp          Press         Density         Volume    
      1000   0              481.38985      0.8124697      14435884     
     10000   601.01351     -23.914773      0.69769135     16810755     
     20000   601.84305      4.8948221      0.76610402     15309564     
     30000   598.12921     -0.88994865     0.79388343     14773855     
     40000   600.72667     -16.97659       0.80187464     14626624     
     50000   598.87897      31.225691      0.80515233     14567080     
     60000   598.67697      11.823483      0.80496276     14570511     
     70000   601.02148     -2.6908279      0.80615784     14548911     
     80000   600.30615      13.668035      0.80690181     14535497     
     90000   602.62871      4.1085344      0.80523057     14565665     
    100000   599.23881      27.987597      0.8052856      14564669     
    110000   600.44385     -24.621424      0.80554031     14560064     
    120000   602.03745     -30.146381      0.80512661     14567545     
    130000   599.2909       8.9419701      0.8067402      14538408     
    140000   599.34818     -17.42335       0.80415127     14585214     
    150000   601.0156       10.224911      0.80500857     14569682     
    160000   599.57898     -11.526231      0.80453665     14578228     
    170000   599.50225     -14.364687      0.80449877     14578914     
    180000   600.32464      14.418323      0.80636308     14545208     
    190000   598.1369      -13.824118      0.80505819     14568784     
    200000   600.65209     -12.511082      0.80693295     14534936     
    210000   600.64885     -4.8304738      0.80623224     14547568     
    220000   600.80682     -5.9050229      0.80503078     14569280     
    230000   598.50477     -22.680087      0.80584536     14554552     
    240000   598.76302     -2.6648429      0.80599324     14551882     
    250000   598.05642      7.2223981      0.80511392     14567775     
    260000   599.16994      4.439379       0.80642964     14544007     
    270000   598.76137      21.224189      0.80569473     14557273     
    280000   601.67043      5.7290799      0.80662069     14540562     
    290000   602.76674     -9.8814245      0.80683017     14536787     
    300000   596.37923     -4.2718684      0.80373363     14592793     
    310000   598.87328     -15.346465      0.80369705     14593457     
    320000   600.68579      0.48396939     0.80460212     14577041     
    330000   600.25107     -4.5704779      0.80430594     14582409     
    340000   598.06635     -10.150032      0.80614637     14549118     
    350000   598.64152      4.0236546      0.80628175     14546675     
    360000   598.95001      5.8273798      0.80629013     14546524     
    370000   603.84182     -13.628304      0.80537329     14563084     
    380000   598.24283      3.8142728      0.80582042     14555003     
    390000   599.76567      17.52324       0.80480758     14573320     
    400000   604.26559      24.55398       0.80519331     14566339     
    410000   599.82282      13.738942      0.80634989     14545446     
    420000   600.07478     -34.204348      0.80492843     14571132     
    430000   601.07555      21.093057      0.80569316     14557302     
    440000   599.86564     -34.466964      0.80478706     14573692     
    450000   599.0702       3.5457857      0.80607682     14550373     
    460000   600.9527       0.1514997      0.80481104     14573257     
    470000   600.47681      5.4322875      0.80538938     14562793     
    480000   601.06308      15.018396      0.80609453     14550053     
    490000   598.70005     -1.8353776      0.80562936     14558455     
    500000   599.91411     -9.9256082      0.80587303     14554053     
    501000   598.57767      9.1353278      0.8066035      14540872     
Loop time of 1742.98 on 16 procs for 500000 steps with 98100 atoms

Performance: 24.785 ns/day, 0.968 hours/ns, 286.866 timesteps/s, 28.142 Matom-step/s
99.0% CPU use with 16 MPI tasks x no OpenMP threads

MPI task timing breakdown:
Section |  min time  |  avg time  |  max time  |%varavg| %total
---------------------------------------------------------------
Pair    | 824.62     | 856.09     | 894.82     |  56.2 | 49.12
Bond    | 346.09     | 355.05     | 372.96     |  34.2 | 20.37
Neigh   | 121.96     | 122.01     | 122.08     |   0.4 |  7.00
Comm    | 226.71     | 279.08     | 316.37     | 121.0 | 16.01
Output  | 0.0031832  | 0.00335    | 0.0048152  |   0.7 |  0.00
Modify  | 106.4      | 110.76     | 113.9      |  26.0 |  6.35
Other   |            | 19.98      |            |       |  1.15

Nlocal:        6131.25 ave        6177 max        6073 min
Histogram: 1 0 1 2 3 1 4 1 1 2
Nghost:        6731.94 ave        6786 max        6671 min
Histogram: 2 0 1 1 4 1 3 1 0 3
Neighs:         175432 ave      179026 max      170306 min
Histogram: 1 0 0 2 2 3 4 2 0 2

Total # of neighbors = 2806910
Ave neighs/atom = 28.612742
Ave special neighs/atom = 5.88
Neighbor list builds = 13819
Dangerous builds = 0
unfix           1

# variable        lambda equal ramp(0.8,1.0)
# fix             2 all adapt 1 pair lj/cut/soft lambda * * v_lambda

# fix             3 all npt temp 600.0 600.0 100.0 iso 1.0 1.0 1000
# timestep        1
# thermo_style    custom step temp press density vol
# thermo          10000
# run             50000
# unfix           3

# -----------------------------------------------------
# 5. 计算均方回转半径
# -----------------------------------------------------
# 使用compute gyration命令计算整个体系的回转半径
fix             equil all npt temp 600.0 600.0 100.0 iso 1.0 1.0 1000
compute 1 all msd com yes
variable msdx equal c_1[1]
variable msdy equal c_1[2]
variable msdz equal c_1[3]
variable msd equal  c_1[4]
variable istep equal step
fix 2 all print 1 "${istep} ${msdx} ${msdy} ${msdz} ${msd}" screen no file msd.dat
group           pdms1 id <= 100
100 atoms in group pdms1
group           pdms2 id 101:200
100 atoms in group pdms2
group           pdms3 id 201:300
100 atoms in group pdms3
group           pdms4 id 301:400
100 atoms in group pdms4
group           pdms5 id 401:500
100 atoms in group pdms5
group           pdms6 id 501:600
100 atoms in group pdms6
group           pdms7 id 601:700
100 atoms in group pdms7
group           pdms8 id 701:800
100 atoms in group pdms8
group           pdms9 id 801:900
100 atoms in group pdms9
group           pdms10 id 901:1000
100 atoms in group pdms10
# variable        d_end equal "sqrt((x[1]-x[10])^2 + (y[1]-y[10])^2 + (z[1]-z[10])^2)"
compute         rg1 pdms1 gyration
compute         rg2 pdms2 gyration
compute         rg3 pdms3 gyration
compute         rg4 pdms4 gyration
compute         rg5 pdms5 gyration
compute         rg6 pdms6 gyration
compute         rg7 pdms7 gyration
compute         rg8 pdms8 gyration
compute         rg9 pdms9 gyration
compute         rg10 pdms10 gyration
# fix             avg pdms ave/time 1000 800 1000000 c_rg v_d_end file avg.txt
# 输出热力学信息及回转半径数据，每隔1000步输出一次
thermo_style    custom step temp pe ke etotal c_rg1 c_rg2 c_rg3 c_rg4 c_rg5 c_rg6 c_rg7 c_rg8 c_rg9 c_rg10 press density vol
# fix             avg pdms ave/time 1000 800 1000000 c_rg v_d_end file avg.txt
# 输出热力学信息及回转半径数据，每隔1000步输出一次
thermo          10000
# 输出轨迹文件，便于后续可视化与分析
dump            traj all custom 1000 dump.pdms.lammpstrj id type x y z
# 运行模拟，记录回转半径数据（后续可统计分析均值与波动）
run             1000000
Generated 0 of 0 mixed pair_coeff terms from geometric mixing rule
Per MPI rank memory allocation (min/avg/max) = 9.41 | 9.467 | 9.818 Mbytes
   Step          Temp          PotEng         KinEng         TotEng         c_rg1          c_rg2          c_rg3          c_rg4          c_rg5          c_rg6          c_rg7          c_rg8          c_rg9          c_rg10         Press         Density         Volume    
    501000   598.57767     -127668.99      175032.78      47363.788      22.260066      20.15591       24.868157      22.24532       25.149492      23.421413      20.962256      21.716138      22.290432      20.022228      9.1353278      0.8066035      14540872     
    510000   597.49687     -126333.68      174716.74      48383.056      22.306985      20.463924      26.65875       22.417776      25.403907      24.445852      21.878361      21.512331      22.054861      20.884631      34.348658      0.80512957     14567492     
    520000   602.16963     -126332         176083.12      49751.124      22.136658      20.431462      24.781791      22.67048       25.755065      23.742604      21.275394      22.068743      22.719519      21.318634     -13.659914      0.80367414     14593873     
    530000   597.04824     -127583.42      174585.55      47002.138      22.202889      20.422699      24.091526      22.627623      26.193026      22.576812      20.904688      22.640256      21.404075      21.261122     -10.937687      0.80572261     14556770     
    540000   599.88905     -126288.2       175416.25      49128.045      21.727097      20.672449      23.41395       23.666207      25.555836      22.908818      21.063851      22.628303      20.786407      20.707481      11.484127      0.80460312     14577023     
    550000   600.58629     -125708.18      175620.13      49911.948      21.07639       20.89861       22.8929        23.258762      25.164105      22.771521      20.869105      21.392828      22.866767      20.717991     -3.4326598      0.80421446     14584068     
    560000   597.11324     -126207.58      174604.56      48396.98       20.72368       19.853978      22.924759      22.294582      26.255649      22.901169      22.224707      20.861163      22.213549      20.132529     -2.3366991      0.80572757     14556680     
    570000   601.74447     -126632.31      175958.8       49326.488      20.643359      19.331862      23.464688      23.037886      24.524547      22.292018      21.214376      20.702122      23.158425      19.482408      7.5123817      0.80569169     14557328     
    580000   601.20569     -126849.03      175801.25      48952.222      19.9458        19.269532      23.203919      24.292613      23.89918       21.735253      21.015673      21.548493      22.671105      19.060626      16.183575      0.80554747     14559935     
    590000   602.32041     -126436.09      176127.21      49691.125      20.057124      18.794276      22.996211      22.970348      24.340096      22.617802      21.594046      21.679471      22.474792      19.064676      22.341914      0.80552242     14560387     
    600000   599.79965     -126359.75      175390.11      49030.357      19.575717      19.069602      21.849977      23.014827      25.502865      23.820699      21.600295      23.005912      23.727939      19.027317      22.44919       0.8055493      14559902     
    610000   599.78648     -126907.1       175386.25      48479.155      19.404905      19.764098      22.557524      21.424806      24.945078      25.017785      21.709129      23.68897       22.369039      19.050838     -0.39621545     0.80524658     14565375     
    620000   599.04688     -125928.66      175169.98      49241.322      19.561296      19.660532      23.468431      22.538359      24.973645      25.149182      22.930926      24.504705      21.134103      19.934253      4.5390694      0.804247       14583478     
    630000   601.13497     -126043.38      175780.57      49737.196      18.364295      19.799576      23.724549      23.127583      25.053026      23.949846      23.505111      25.884515      21.726523      20.609681      6.6777117      0.80384279     14590811     
    640000   599.2985      -127909.49      175243.56      47334.073      17.766281      20.487416      22.315543      23.589365      23.858128      23.269533      23.41643       26.260281      21.823495      20.905631      26.896647      0.8066254      14540478     
    650000   602.76734     -126829.31      176257.9       49428.59       17.688603      19.631528      22.76579       23.360373      24.083826      22.484923      22.152915      26.301471      22.183272      20.941124      32.857503      0.80696299     14534395     
    660000   599.60452     -127080.96      175333.05      48252.082      17.145707      20.024727      23.927583      21.899277      24.714433      22.961484      22.87338       26.899213      22.090003      21.198507     -14.152229      0.8044292      14580175     
    670000   598.89674     -126572.77      175126.08      48553.316      18.022692      19.353395      24.134647      22.075411      24.733153      22.307115      23.196542      26.886028      21.552911      21.048903     -5.9389988      0.80368519     14593673     
    680000   600.60646     -127635.72      175626.03      47990.311      17.894162      19.001028      23.277796      22.727994      24.768391      22.777735      23.372758      26.546258      21.07929       20.517615      2.681303       0.8076856      14521391     
    690000   600.68153     -127062.68      175647.98      48585.298      17.760645      18.736245      24.086402      22.722794      25.779496      22.782198      23.448515      26.344446      22.030487      21.751702     -14.595035      0.80475755     14574226     
    700000   597.6965      -126025.08      174775.11      48750.037      17.388091      18.232161      24.306899      21.814978      26.63831       22.039009      23.453661      25.67654       22.265057      22.106888      7.3264457      0.80459223     14577221     
    710000   598.42002     -125827.23      174986.68      49159.451      17.602626      18.224704      24.243412      22.149212      26.884137      21.8446        23.434372      25.816503      21.966575      20.968056     -26.925414      0.80304899     14605234     
    720000   597.54799     -126729.36      174731.69      48002.324      18.195655      19.052996      23.23323       22.354985      26.393429      22.675784      22.643026      24.722658      21.582497      21.096548     -2.3623693      0.80470391     14575198     
    730000   598.47255     -127375.08      175002.04      47626.962      16.99236       20.397437      22.943483      22.436627      24.104804      21.967958      22.7839        24.706663      21.538435      21.853759      21.247623      0.80573218     14556597     
    740000   598.16663     -127331         174912.59      47581.582      16.755264      19.49997       23.290216      22.115404      24.28126       22.617093      22.600103      24.408013      20.329805      21.364698      0.84514225     0.8067659      14537945     
    750000   599.71279     -126847.51      175364.71      48517.199      16.248321      20.420811      23.509361      21.343393      24.525943      22.6299        21.620781      24.621975      21.078841      22.118909     -22.710394      0.80516686     14566817     
    760000   600.18        -126577.45      175501.33      48923.871      16.185228      20.833997      23.149692      21.274418      24.647252      23.375432      21.692436      23.95744       21.019694      23.447748      2.6727201      0.80578313     14555676     
    770000   602.15362     -126926.65      176078.44      49151.786      16.30369       21.29458       23.738348      20.43071       25.124908      22.768252      22.059764      24.223793      21.819444      22.031413      29.753483      0.80565339     14558020     
    780000   601.67472     -126440.93      175938.4       49497.473      16.364393      21.906708      22.401946      21.897329      25.770023      22.989437      23.238257      24.921789      21.332674      22.255998     -13.644323      0.80555456     14559807     
    790000   601.72285     -126289.33      175952.48      49663.145      17.203732      20.946092      23.292077      21.06927       26.687334      23.391303      23.548555      23.428933      20.820839      21.954171     -8.394466       0.80340892     14598691     
    800000   598.37015     -127509.57      174972.1       47462.533      17.846043      21.761302      23.357515      20.052837      25.94806       24.490023      24.25238       23.286333      21.39637       22.042878      5.5083544      0.80505269     14568883     
    810000   600.70634     -126903.46      175655.23      48751.776      18.432956      23.199395      23.412836      21.138778      25.507075      24.03797       23.67992       23.842361      21.717682      21.637686      7.1700661      0.80558666     14559226     
    820000   599.14387     -127218.69      175198.34      47979.658      18.917236      23.206424      22.094725      20.1766        25.887099      24.924382      24.696763      23.324327      21.430298      22.5041        25.540921      0.80749726     14524778     
    830000   598.89442     -127386.25      175125.4       47739.149      18.832996      23.81498       23.030338      21.144798      26.010717      25.286641      24.124926      24.156546      21.302197      21.637129     -10.103642      0.80442629     14580228     
    840000   599.31352     -126746.92      175247.95      48501.033      19.103447      24.15676       23.427019      21.599344      26.121263      25.479756      24.097359      25.063227      21.822794      22.792183      7.9260754      0.80493422     14571027     
    850000   599.17781     -126050.88      175208.27      49157.39       19.177007      24.374698      23.559495      21.889105      25.693339      25.656727      24.51314       24.994794      22.52265       22.851981     -16.237995      0.80454662     14578047     
    860000   597.90283     -126226.74      174835.45      48608.708      18.651969      25.199221      22.886573      22.24931       24.289421      26.043226      25.374094      25.691838      22.148103      22.592482     -10.514564      0.80474907     14574380     
    870000   599.62945     -126778.76      175340.34      48561.582      19.202931      24.716241      24.145034      21.874294      24.98038       24.829201      23.012552      25.680613      22.414487      24.469403     -4.7647582      0.8031769      14602908     
    880000   600.80621     -127635.94      175684.44      48048.493      18.661138      25.304656      22.535101      21.725726      25.087795      25.787283      22.287895      25.103434      22.372558      24.194491      7.3742815      0.80808192     14514269     
    890000   599.38076     -127123.01      175267.62      48144.608      17.836894      25.183125      24.46447       21.297891      24.108537      25.26476       22.594349      24.742625      21.871475      24.775456     -11.925736      0.80553933     14560082     
    900000   598.84298     -126387.7       175110.36      48722.66       17.80134       25.133662      25.529343      21.832638      23.711593      24.877534      22.34401       24.626181      21.143039      24.053869      1.161439       0.80562327     14558565     
    910000   601.14633     -125524.06      175783.89      50259.834      18.734876      25.618443      24.931777      21.467721      24.174648      23.773295      22.20574       24.465449      22.140318      24.153419     -4.0206247      0.80369928     14593417     
    920000   598.49733     -128046.86      175009.29      46962.427      18.602827      25.310915      25.8759        20.80908       23.441915      24.380867      23.56044       23.365007      21.92373       23.369363      12.033317      0.80696781     14534308     
    930000   602.345       -126019.01      176134.4       50115.394      19.137792      25.187034      25.188038      22.914416      23.025977      24.908909      23.101041      22.583503      22.30897       24.251045     -7.9630754      0.80337798     14599253     
    940000   599.23698     -126848.11      175225.57      48377.462      18.884125      26.460726      24.48263       23.286783      23.584301      24.468388      23.716932      23.836186      22.813298      23.851848      3.4931682      0.80473467     14574640     
    950000   599.94416     -127053.23      175432.36      48379.134      18.962653      26.837041      25.243303      23.4424        24.232315      24.887192      24.121826      24.053005      21.595816      23.309259     -6.6336912      0.80525188     14565279     
    960000   596.04878     -125907.72      174293.3       48385.574      19.421177      27.023494      24.898501      23.377975      23.95022       24.616012      23.508889      23.172017      22.016784      24.087004      3.2081461      0.80419759     14584374     
    970000   600.56294     -126161.73      175613.3       49451.57       18.992429      27.351217      25.986309      23.707313      23.344521      24.859004      23.555924      23.113409      22.0703        24.335884      24.390037      0.80600645     14551643     
    980000   599.56148     -126252.21      175320.46      49068.255      17.945327      26.878583      25.614851      25.078877      23.316064      23.901122      23.849673      23.010634      22.521917      24.35222      -19.17042       0.80482449     14573014     
    990000   600.02923     -126726.75      175457.24      48730.491      17.540279      26.89583       25.138688      24.767367      23.381866      25.26532       24.119773      23.280825      21.859135      25.016393      12.120536      0.80538818     14562814     
   1000000   599.44337     -126484.36      175285.93      48801.568      16.46849       27.23273       25.081389      24.394346      22.902564      24.271269      24.266274      22.512895      21.83338       24.412941     -23.479242      0.80568146     14557513     
   1010000   599.65421     -126914.3       175347.58      48433.275      16.628468      25.893537      24.914524      23.214875      23.548377      25.038945      24.932651      22.534862      22.709383      23.924168      43.403919      0.80636649     14545146     
   1020000   602.49399     -125299.72      176177.97      50878.25       16.315886      24.965666      25.321784      24.560751      23.067512      24.889762      24.710894      22.561816      23.755093      23.45994       21.195549      0.80379778     14591628     
   1030000   598.3529      -125989.26      174967.05      48977.79       15.952329      24.060081      24.785339      22.691803      22.373         24.833097      24.101011      21.394178      23.802704      23.921835     -15.005545      0.80363942     14594504     
   1040000   599.01491     -126864.81      175160.64      48295.83       16.646535      23.810775      24.840623      22.694654      22.549504      25.097606      24.432452      21.310805      23.601142      23.985922      1.2337783      0.80634276     14545574     
   1050000   600.5389      -126682.24      175606.27      48924.027      16.243659      23.863498      25.57719       23.157574      21.351442      25.013254      26.552796      21.242579      23.760963      23.409755     -2.2134118      0.80647646     14543163     
   1060000   599.1568      -127732.03      175202.13      47470.094      16.575395      24.145832      25.412918      23.344502      22.053838      25.505743      25.225943      20.464165      24.891361      23.817217     -11.08738       0.8076264      14522456     
   1070000   601.45739     -126472.04      175874.85      49402.817      16.200632      24.320224      25.032943      23.195403      22.97624       26.473101      24.446502      21.898093      24.181765      22.68436       26.183336      0.80594673     14552722     
   1080000   600.62629     -125861.8       175631.83      49770.029      16.708765      25.1841        25.157819      22.319061      23.424297      25.651069      23.121259      22.663895      23.127806      22.12392       25.99396       0.80522476     14565770     
   1090000   599.5714      -126382.03      175323.36      48941.328      17.6428        25.301809      25.068919      24.10073       23.432073      26.054144      24.592611      21.8141        24.233882      22.294587      7.5061323      0.8032546      14601496     
   1100000   599.74484     -127190.21      175374.08      48183.869      17.95411       25.054045      25.571038      24.85452       24.046561      25.800949      23.943833      21.92492       22.94425       22.188875      7.8849102      0.80503947     14569122     
   1110000   597.70413     -126885.76      174777.34      47891.586      17.764997      23.439769      26.830951      23.463265      24.403923      25.655701      24.094521      21.495924      22.87328       22.297593     -7.7864303      0.80604815     14550891     
   1120000   600.8504      -125991.35      175697.36      49706.009      16.931484      22.847942      25.86294       24.547367      24.578622      25.109074      24.460005      22.623194      22.596218      23.152657      12.13225       0.80370014     14593401     
   1130000   599.49272     -126925.1       175300.36      48375.254      16.874696      22.787807      27.419954      24.941781      24.945665      25.175417      24.403664      22.807931      22.099874      23.180249      26.431774      0.80659903     14540953     
   1140000   601.74537     -126315.68      175959.06      49643.379      16.928513      22.884735      25.296143      25.479988      25.496105      25.089039      25.49742       22.712055      22.981796      22.891209      5.9682551      0.80514795     14567159     
   1150000   600.16508     -127051.98      175496.96      48444.979      16.805035      23.03644       24.69317       26.063621      25.668151      26.111553      26.380699      23.465993      20.96182       23.392259     -22.038723      0.80565891     14557921     
   1160000   601.22897     -126288.1       175808.06      49519.965      17.271786      24.062762      24.487751      25.927668      25.496914      26.36307       25.522597      23.30506       20.854544      23.318962      8.2513198      0.80416007     14585055     
   1170000   599.69584     -125309.37      175359.75      50050.384      17.942425      24.558095      24.825833      25.471045      25.491579      26.671711      26.073391      23.920567      20.938138      23.350344     -3.9298438      0.80488217     14571970     
   1180000   601.70909     -126024.87      175948.46      49923.589      16.047001      24.906063      24.883893      25.316332      24.919193      26.481777      26.618586      23.785249      20.077021      22.375399      9.3675339      0.80421194     14584114     
   1190000   599.08163     -127101.17      175180.14      48078.979      15.037423      24.51689       25.484543      25.073885      25.818757      26.300915      27.310454      23.404109      19.761452      20.831145     -2.9377937      0.80662538     14540478     
   1200000   600.47329     -126373.02      175587.09      49214.07       14.941515      23.123828      25.114314      25.000558      25.058145      26.435325      27.019432      24.952418      19.101587      21.536986     -12.669996      0.80407186     14586655     
   1210000   600.1411      -126311.27      175489.95      49178.68       14.91281       23.375587      24.229017      24.772435      24.255706      25.663244      27.418447      22.763761      20.518642      21.226534      16.953819      0.80456205     14577768     
   1220000   601.00461     -126301.56      175742.45      49440.891      15.137131      23.419185      24.185337      25.214873      24.439771      24.626241      27.53745       22.131126      19.969883      20.844278      21.596645      0.80401697     14587650     
   1230000   600.20462     -125730.5       175508.53      49778.027      16.22491       24.847392      23.752982      24.447113      24.220426      25.026052      27.680786      23.402275      19.235132      20.916071     -9.288573       0.80501565     14569553     
   1240000   602.93506     -126611.23      176306.94      49695.711      15.188369      25.583409      24.876562      25.312296      25.398607      24.514221      29.016194      23.584157      19.628213      20.959239      8.1009762      0.80447956     14579262     
   1250000   601.34897     -126335.91      175843.15      49507.243      16.302447      25.681437      25.676144      25.975545      25.623371      24.677779      28.694954      23.669336      19.784032      20.648776      16.90108       0.80469402     14575377     
   1260000   599.14327     -127202.15      175198.17      47996.019      16.878871      26.394998      25.331784      25.101624      25.63596       23.931384      28.246819      22.765035      20.341886      19.401844      23.068494      0.80645992     14543461     
   1270000   599.24286     -126737.08      175227.29      48490.214      17.912182      26.475212      25.868936      25.802552      26.430728      23.473367      29.395449      24.077528      19.022672      20.001485     -0.65752813     0.80521775     14565897     
   1280000   599.85762     -126147.32      175407.06      49259.733      16.992406      24.341176      25.47382       24.032165      25.21322       22.944359      29.052127      23.913271      20.225775      20.814842     -21.443735      0.80309968     14604312     
   1290000   599.90451     -125533.8       175420.77      49886.969      16.387494      24.146911      25.704269      23.219616      25.42169       22.810118      29.640962      24.488509      19.020497      20.948042     -22.51322       0.80271638     14611286     
   1300000   597.53491     -126245.43      174727.86      48482.428      16.175666      24.13045       26.335784      23.212082      23.921031      22.338972      29.857991      24.472511      18.588257      20.475681      2.6879441      0.80422601     14583859     
   1310000   603.94788     -126495.24      176603.11      50107.873      17.135854      24.307464      26.604685      22.654396      24.111093      22.649133      29.339467      24.616952      18.01593       21.664663      30.673565      0.80567002     14557720     
   1320000   600.58797     -125181.06      175620.62      50439.564      17.287922      25.48151       26.857318      23.460432      24.733494      21.869118      29.939334      24.895731      18.887298      21.916897      4.9783115      0.80297124     14606648     
   1330000   597.00879     -126642.44      174574.02      47931.575      16.66558       25.583595      26.904969      23.904615      25.390057      22.520774      29.583972      24.774824      18.154143      20.450205      13.535797      0.80604027     14551033     
   1340000   602.73423     -126545.07      176248.22      49703.152      16.896547      25.709732      26.87379       25.50292       25.296646      22.638651      28.162439      23.547741      18.312214      21.181201      2.6015634      0.80571146     14556971     
   1350000   601.53555     -126618.9       175897.71      49278.81       17.945631      25.982566      26.524179      24.56062       24.718625      22.111369      27.621396      23.905591      18.51987       20.46958       9.4402176      0.80582483     14554923     
   1360000   597.84576     -127395.14      174818.76      47423.619      18.11274       24.217037      26.789115      24.943773      25.496254      22.055376      26.962807      24.023559      18.981355      20.449183      9.9842019      0.80527208     14564914     
   1370000   599.50462     -125230.67      175303.83      50073.164      17.649739      24.878327      25.2338        24.090085      25.551398      22.026506      26.882808      25.239542      17.975796      20.573558      9.5212993      0.80440194     14580669     
   1380000   596.71286     -126298.51      174487.48      48188.974      17.003617      24.930489      25.919651      24.281432      25.816166      22.107871      27.256414      25.2332        17.603115      20.642603      10.132797      0.80648147     14543073     
   1390000   597.79254     -125991.35      174803.2       48811.845      17.310641      24.592054      25.501918      25.134638      25.182413      23.633555      26.823785      24.979257      17.853145      19.890311     -14.028155      0.80394912     14588882     
   1400000   598.73921     -126776.31      175080.02      48303.708      15.995275      25.004779      27.477487      25.798067      24.641497      23.725848      27.958835      25.010037      18.121874      19.857855     -10.197733      0.80552148     14560404     
   1410000   599.11875     -126979.01      175191         48211.989      17.243925      25.129119      27.122204      25.522461      25.447436      23.712308      28.447433      24.4686        19.028696      19.96656      -1.4320827      0.80471334     14575027     
   1420000   598.47206     -124555.92      175001.9       50445.977      16.375125      24.791343      27.117042      26.834794      25.143325      22.151844      31.262008      25.519284      19.053507      20.491488     -36.547022      0.80267758     14611992     
   1430000   601.54829     -125517.13      175901.43      50384.301      15.938891      24.368268      27.313601      26.213893      24.767246      22.848937      30.424377      25.831779      19.663252      20.285288      3.3090039      0.80441878     14580364     
   1440000   598.57739     -124987.48      175032.7       50045.219      16.120949      23.900514      27.76737       26.246324      26.027434      22.484993      30.550541      25.048466      19.783467      20.024675      1.4533943      0.80446537     14579519     
   1450000   599.02803     -126095.34      175164.47      49069.133      16.07069       24.406927      29.452983      24.996491      24.898688      23.279063      30.152808      23.768953      19.238085      19.990678     -18.190141      0.80541402     14562347     
   1460000   601.97188     -125734.59      176025.3       50290.703      16.803425      24.216799      29.9398        25.302447      24.828438      23.917681      30.61052       22.81062       18.865813      20.378443      6.4008825      0.80373129     14592836     
   1470000   600.18673     -125739.9       175503.29      49763.393      16.550668      23.944835      28.918586      24.583659      25.652642      22.372068      30.37808       22.388564      19.294895      21.142275     -12.223119      0.80329252     14600806     
   1480000   601.1346      -126156.46      175780.46      49624.003      17.147725      24.201683      29.105809      24.506414      25.196215      23.847368      30.676861      20.692779      18.767499      20.530344      16.258634      0.80549516     14560880     
   1490000   601.71681     -126129.64      175950.71      49821.075      17.283333      24.252862      28.976304      24.919059      25.120232      23.78641       30.308833      21.699876      18.168139      20.051507     -11.000417      0.80335549     14599662     
   1500000   602.11044     -125762.47      176065.81      50303.344      17.440997      24.066657      28.390423      24.987761      24.803391      24.158566      32.149983      21.865287      18.019897      21.466354      19.089466      0.80514061     14567292     
   1501000   600.30488     -126116.52      175537.84      49421.324      17.740449      23.891475      28.580114      24.966294      24.826502      24.54101       32.194244      22.08034       17.949602      21.617276     -4.2198731      0.80519385     14566329     
Loop time of 3620.51 on 16 procs for 1000000 steps with 98100 atoms

Performance: 23.864 ns/day, 1.006 hours/ns, 276.204 timesteps/s, 27.096 Matom-step/s
98.9% CPU use with 16 MPI tasks x no OpenMP threads

MPI task timing breakdown:
Section |  min time  |  avg time  |  max time  |%varavg| %total
---------------------------------------------------------------
Pair    | 1674.5     | 1717.4     | 1788.1     |  72.9 | 47.44
Bond    | 690.29     | 710.52     | 739.95     |  46.1 | 19.62
Neigh   | 242.3      | 242.46     | 242.64     |   0.5 |  6.70
Comm    | 465.71     | 558.6      | 613.45     | 160.7 | 15.43
Output  | 6.7345     | 8.295      | 9.8106     |  33.1 |  0.23
Modify  | 332.84     | 341.82     | 350.33     |  27.8 |  9.44
Other   |            | 41.39      |            |       |  1.14

Nlocal:        6131.25 ave        6194 max        6041 min
Histogram: 1 0 1 0 2 4 4 2 1 1
Nghost:        6711.94 ave        6811 max        6634 min
Histogram: 1 2 2 0 4 5 1 0 0 1
Neighs:         175012 ave      177922 max      171415 min
Histogram: 2 0 0 3 2 0 2 5 0 2

Total # of neighbors = 2800188
Ave neighs/atom = 28.54422
Ave special neighs/atom = 5.88
Neighbor list builds = 27435
Dangerous builds = 0
unfix           equil
# -----------------------------------------------------
# 6. 数据输出
# -----------------------------------------------------


# # 写出最终体系数据文件
# write_data      pdms_out.data
Total wall time: 1:29:31
