LAMMPS (29 Aug 2024)
# LAMMPS输入文件示例：使用Martini 3粗粒化力场计算PDMS的均方回转半径
# -----------------------------------------------------
# 1. 初始化设置
# -----------------------------------------------------
units               real
dimension           3
boundary            p p p
atom_style          full

# 读取包含PDMS分子结构的data文件
read_data           bad_pdms_50_box.data
Reading data file ...
  orthogonal box = (-5.002 -4.881 -5.027) to (134.004 134.002 134)
  2 by 2 by 4 MPI processor grid
  reading atoms ...
  12350 atoms
  scanning bonds ...
  1 = max bonds/atom
  scanning angles ...
  1 = max angles/atom
  scanning dihedrals ...
  1 = max dihedrals/atom
  orthogonal box = (-5.002 -4.881 -5.027) to (134.004 134.002 134)
  2 by 2 by 4 MPI processor grid
  reading bonds ...
  12103 bonds
  reading angles ...
  11856 angles
  reading dihedrals ...
  11609 dihedrals
Finding 1-2 1-3 1-4 neighbors ...
  special bond factors lj:    0        0        0       
  special bond factors coul:  0        0        0       
     2 = max # of 1-2 neighbors
     2 = max # of 1-3 neighbors
     4 = max # of 1-4 neighbors
     6 = max # of special neighbors
  special bonds CPU = 0.002 seconds
  read_data CPU = 0.085 seconds

# -----------------------------------------------------
# 2. 力场参数设置（Martini 3参数）
# -----------------------------------------------------
# 定义非键相互作用（示例：Lennard-Jones势，截断距离可参考Martini 3常用取值）
pair_style lj/cut   12.0
special_bonds       lj 0.0 0.0 0.5
Finding 1-2 1-3 1-4 neighbors ...
  special bond factors lj:    0        0        0.5     
  special bond factors coul:  0        0        0       
     2 = max # of 1-2 neighbors
     2 = max # of 1-3 neighbors
     4 = max # of 1-4 neighbors
     6 = max # of special neighbors
  special bonds CPU = 0.001 seconds
pair_coeff          1 1 0.7337 5.1
# 定义键、角、二面角势（示例参数，实际参数请参考相关文献）
bond_style          harmonic
bond_coeff          1 13.243 4.48
angle_style         harmonic
angle_coeff         1 5.48 86.0
dihedral_style      harmonic
dihedral_coeff      1 0.3346  1  1
# dihedral_style      class2
# dihedral_coeff      1 0.3346 1.14 0 0 0 0
# dihedral_coeff	    1 mbt   0 0 0 0
# dihedral_coeff	    1 ebt   0 0 0 0 0 0 0 0
# dihedral_coeff	    1 at    0 0 0 0 0 0 0 0
# dihedral_coeff	    1 aat   0 0 0
# dihedral_coeff	    1 bb13  0 0 0

# dihedral_style      charmm
# dihedral_coeff      1 0.3346 1 1 1
# -----------------------------------------------------
# 3. 邻域列表设置
# -----------------------------------------------------
neigh_modify    one 1000
neighbor        1 bin
neigh_modify    delay 0 every 1 check yes

# -----------------------------------------------------
# 4. 能量最小化与预平衡
# -----------------------------------------------------
minimize        1.0e-4 1.0e-6 1000 10000

CITE-CITE-CITE-CITE-CITE-CITE-CITE-CITE-CITE-CITE-CITE-CITE-CITE

Your simulation uses code contributions which should be cited:

- Type Label Framework: https://doi.org/10.1021/acs.jpcb.3c08419

@Article{Gissinger24,
 author = {Jacob R. Gissinger, Ilia Nikiforov, Yaser Afshar, Brendon Waters, Moon-ki Choi, Daniel S. Karls, Alexander Stukowski, Wonpil Im, Hendrik Heinz, Axel Kohlmeyer, and Ellad B. Tadmor},
 title = {Type Label Framework for Bonded Force Fields in LAMMPS},
 journal = {J. Phys. Chem. B},
 year =    2024,
 volume =  128,
 number =  13,
 pages =   {3282–-3297}
}

CITE-CITE-CITE-CITE-CITE-CITE-CITE-CITE-CITE-CITE-CITE-CITE-CITE

Generated 0 of 0 mixed pair_coeff terms from geometric mixing rule
Neighbor list info ...
  update: every = 1 steps, delay = 0 steps, check = yes
  max neighbors/atom: 1000, page size: 100000
  master list distance cutoff = 13
  ghost atom cutoff = 13
  binsize = 6.5, bins = 22 22 22
  1 neighbor lists, perpetual/occasional/extra = 1 0 0
  (1) pair lj/cut, perpetual
      attributes: half, newton on
      pair build: half/bin/newton
      stencil: half/bin/3d
      bin: standard
Per MPI rank memory allocation (min/avg/max) = 8.322 | 8.377 | 8.835 Mbytes
   Step          Temp          E_pair         E_mol          TotEng         Press     
         0   0              3.9089163e+10  48083.546      3.9089211e+10  3.994779e+09 
      1000   0             -46501.708      15382.758     -31118.95       64.90019     
Loop time of 1.09911 on 16 procs for 1000 steps with 12350 atoms

96.3% CPU use with 16 MPI tasks x no OpenMP threads

Minimization stats:
  Stopping criterion = max iterations
  Energy initial, next-to-last, final = 
      39089211425.7266  -31111.5333150795  -31118.9498667529
  Force two-norm initial, final = 3.8331257e+10 35.167927
  Force max component initial, final = 1.7252804e+09 17.390564
  Final line search alpha, max atom move = 0.010087998 0.17543597
  Iterations, force evaluations = 1000 1010

MPI task timing breakdown:
Section |  min time  |  avg time  |  max time  |%varavg| %total
---------------------------------------------------------------
Pair    | 0.078158   | 0.29149    | 0.66185    |  25.9 | 26.52
Bond    | 0.023142   | 0.067312   | 0.11899    |   8.6 |  6.12
Neigh   | 0.22545    | 0.22704    | 0.22922    |   0.2 | 20.66
Comm    | 0.051666   | 0.40874    | 0.6662     |  24.5 | 37.19
Output  | 4.5346e-05 | 4.7263e-05 | 6.871e-05  |   0.0 |  0.00
Modify  | 0          | 0          | 0          |   0.0 |  0.00
Other   |            | 0.1045     |            |       |  9.51

Nlocal:        771.875 ave        1112 max         317 min
Histogram: 1 0 2 1 4 0 3 0 2 3
Nghost:        1462.38 ave        1906 max        1006 min
Histogram: 4 1 3 0 0 0 1 0 2 5
Neighs:        24033.8 ave       40377 max        9581 min
Histogram: 2 1 2 3 1 1 2 1 1 2

Total # of neighbors = 384540
Ave neighs/atom = 31.136842
Ave special neighs/atom = 5.76
Neighbor list builds = 137
Dangerous builds = 0
fix             1 all npt temp 600.0 600.0 100.0 iso 1.0 1.0 1000
timestep        1
thermo_style    custom step temp press density vol
thermo          10000
run             500000
Generated 0 of 0 mixed pair_coeff terms from geometric mixing rule
Per MPI rank memory allocation (min/avg/max) = 7.198 | 7.265 | 7.71 Mbytes
   Step          Temp          Press         Density         Volume    
      1000   0              64.90019       0.55013177     2683995.5    
     10000   599.84301     -3.5327356      0.46825159     3153328.7    
     20000   598.9994       34.95501       0.54419962     2713252.9    
     30000   602.23514     -31.027353      0.61663908     2394514.5    
     40000   594.95588     -43.17986       0.68282532     2162414.3    
     50000   595.23337     -22.148579      0.73239378     2016061.9    
     60000   597.98887      9.1895061      0.7541909      1957795      
     70000   599.43981      89.431811      0.76501868     1930085.2    
     80000   599.32711     -31.151211      0.78109261     1890366.4    
     90000   602.83349      8.8049673      0.7939696      1859707.5    
    100000   603.65623      35.830896      0.79567906     1855712      
    110000   599.42557      50.28411       0.80175383     1841651.6    
    120000   603.64986      56.221762      0.79894134     1848134.7    
    130000   592.24877     -10.843966      0.80543788     1833227.9    
    140000   608.68736     -4.7502928      0.80125718     1842793.1    
    150000   597.97822      65.443395      0.79958947     1846636.6    
    160000   591.73638      8.1793903      0.7974799      1851521.5    
    170000   606.23782      32.626858      0.79657569     1853623.2    
    180000   600.36379      58.800745      0.79957171     1846677.7    
    190000   603.5776      -2.3620872      0.80281269     1839222.6    
    200000   601.85939     -2.151771       0.80001813     1845647.2    
    210000   601.16315      38.94894       0.80075879     1843940.1    
    220000   603.73133      62.154581      0.79302126     1861931.4    
    230000   596.76611     -32.046446      0.79925073     1847419.3    
    240000   597.2714      -27.162095      0.79492215     1857479      
    250000   599.11365     -10.536718      0.80059529     1844316.6    
    260000   594.33711      50.211216      0.79670706     1853317.6    
    270000   596.66301     -4.9054863      0.79401572     1859599.5    
    280000   599.38732      67.12916       0.8007391      1843985.4    
    290000   612.04352     -39.189161      0.7915395      1865417      
    300000   605.5455       21.907685      0.79481537     1857728.6    
    310000   598.82961     -49.191514      0.79167829     1865089.9    
    320000   605.05074      18.542312      0.80071241     1844046.9    
    330000   607.25855      40.619814      0.80038079     1844810.9    
    340000   599.63203     -25.409631      0.79515059     1856945.4    
    350000   599.20471     -19.650855      0.80079391     1843859.2    
    360000   594.80849     -2.4489436      0.79811184     1850055.5    
    370000   599.34036     -18.766304      0.79501808     1857254.9    
    380000   603.1615      -28.519407      0.79937225     1847138.4    
    390000   605.37687     -45.474267      0.79553254     1856053.8    
    400000   597.79469      14.553915      0.7938522      1859982.5    
    410000   592.40041      7.3713664      0.79851175     1849129      
    420000   596.58566     -25.995605      0.79733601     1851855.7    
    430000   608.57921      12.015989      0.79788324     1850585.6    
    440000   602.16422     -52.578449      0.79706709     1852480.4    
    450000   600.13839     -37.771196      0.79698598     1852669      
    460000   598.70823      9.8836332      0.7948115      1857737.6    
    470000   600.26759     -72.195858      0.79176674     1864881.6    
    480000   595.23305      23.486086      0.80040322     1844759.2    
    490000   600.8726       0.3156725      0.7957403      1855569.2    
    500000   597.75865     -38.110607      0.79773044     1850940      
    501000   597.60226      5.79446        0.7976917      1851029.9    
Loop time of 222.13 on 16 procs for 500000 steps with 12350 atoms

Performance: 194.481 ns/day, 0.123 hours/ns, 2250.932 timesteps/s, 27.799 Matom-step/s
98.2% CPU use with 16 MPI tasks x no OpenMP threads

MPI task timing breakdown:
Section |  min time  |  avg time  |  max time  |%varavg| %total
---------------------------------------------------------------
Pair    | 76.574     | 80.998     | 86.006     |  30.0 | 36.46
Bond    | 38.359     | 40.185     | 42.254     |  19.3 | 18.09
Neigh   | 14.635     | 14.649     | 14.661     |   0.2 |  6.59
Comm    | 53.207     | 59.812     | 67.157     |  51.5 | 26.93
Output  | 0.0015272  | 0.001626   | 0.0028547  |   0.8 |  0.00
Modify  | 20.976     | 22.274     | 23.379     |  16.1 | 10.03
Other   |            | 4.21       |            |       |  1.90

Nlocal:        771.875 ave         789 max         735 min
Histogram: 1 0 0 0 2 4 1 1 5 2
Nghost:        2119.44 ave        2145 max        2082 min
Histogram: 2 0 0 1 3 2 2 1 2 3
Neighs:        21847.8 ave       23108 max       19964 min
Histogram: 1 0 0 2 1 4 4 0 2 2

Total # of neighbors = 349565
Ave neighs/atom = 28.304858
Ave special neighs/atom = 5.76
Neighbor list builds = 12828
Dangerous builds = 0
unfix           1

# variable        lambda equal ramp(0.8,1.0)
# fix             2 all adapt 1 pair lj/cut/soft lambda * * v_lambda

# fix             3 all npt temp 600.0 600.0 100.0 iso 1.0 1.0 1000
# timestep        1
# thermo_style    custom step temp press density vol
# thermo          10000
# run             50000
# unfix           3

# -----------------------------------------------------
# 5. 计算均方回转半径
# -----------------------------------------------------
# 使用compute gyration命令计算整个体系的回转半径
fix             equil all npt temp 600.0 600.0 100.0 iso 1.0 1.0 1000
group           pdms1 id <= 50
50 atoms in group pdms1
group           pdms2 id 51:100
50 atoms in group pdms2
group           pdms3 id 101:150
50 atoms in group pdms3
group           pdms4 id 151:200
50 atoms in group pdms4
group           pdms5 id 201:250
50 atoms in group pdms5
group           pdms6 id 251:300
50 atoms in group pdms6
group           pdms7 id 301:350
50 atoms in group pdms7
group           pdms8 id 351:400
50 atoms in group pdms8
group           pdms9 id 401:450
50 atoms in group pdms9
group           pdms10 id 451:500
50 atoms in group pdms10
# variable        d_end equal "sqrt((x[1]-x[10])^2 + (y[1]-y[10])^2 + (z[1]-z[10])^2)"
compute         rg1 pdms1 gyration
compute         rg2 pdms2 gyration
compute         rg3 pdms3 gyration
compute         rg4 pdms4 gyration
compute         rg5 pdms5 gyration
compute         rg6 pdms6 gyration
compute         rg7 pdms7 gyration
compute         rg8 pdms8 gyration
compute         rg9 pdms9 gyration
compute         rg10 pdms10 gyration
# fix             avg pdms ave/time 1000 800 1000000 c_rg v_d_end file avg.txt
# 输出热力学信息及回转半径数据，每隔1000步输出一次

compute 1 all msd com yes
variable msdx equal c_1[1]
variable msdy equal c_1[2]
variable msdz equal c_1[3]
variable msd equal  c_1[4]
variable istep equal step
fix 2 all print 1 "${istep} ${msdx} ${msdy} ${msdz} ${msd}" screen no file msd.dat
# 输出热力学信息及回转半径数据，每隔1000步输出一次
thermo_style    custom step temp pe ke etotal c_rg1 c_rg2 c_rg3 c_rg4 c_rg5 c_rg6 c_rg7 c_rg8 c_rg9 c_rg10 press density vol
thermo          10000
# 输出轨迹文件，便于后续可视化与分析
dump            traj all custom 1000 dump.pdms.lammpstrj id type x y z
# 运行模拟，记录回转半径数据（后续可统计分析均值与波动）
run             1000000
Generated 0 of 0 mixed pair_coeff terms from geometric mixing rule
Per MPI rank memory allocation (min/avg/max) = 7.604 | 7.658 | 8.088 Mbytes
   Step          Temp          PotEng         KinEng         TotEng         c_rg1          c_rg2          c_rg3          c_rg4          c_rg5          c_rg6          c_rg7          c_rg8          c_rg9          c_rg10         Press         Density         Volume    
    501000   597.60226     -15339.426      21997.753      6658.3268      15.419245      24.672459      15.210892      16.750435      13.698128      19.888977      18.130112      23.242747      18.363696      19.48179       5.79446        0.7976917      1851029.9    
    510000   598.41623     -15413.523      22027.715      6614.1925      16.067114      25.053514      15.352757      16.949917      14.46804       17.689521      17.186318      22.588224      17.831646      20.612677      12.398697      0.79862466     1848867.5    
    520000   597.04718     -15388.438      21977.321      6588.883       13.888862      24.230378      15.124965      17.16722       12.322095      17.237471      15.443013      22.940334      19.078364      20.542988      3.7605929      0.79368733     1860368.9    
    530000   601.0396      -15562.704      22124.282      6561.5776      14.719356      24.456378      16.863119      16.227275      14.588113      16.625856      13.734401      24.174076      19.459932      18.941458      12.830891      0.80262657     1839649.1    
    540000   595.63291     -15420.579      21925.261      6504.6818      15.71319       23.457583      17.293235      16.509144      15.910514      18.343442      14.605238      21.915309      19.498955      18.021978      35.733812      0.79578804     1855457.9    
    550000   599.31899     -15360.739      22060.946      6700.2068      16.020161      23.199941      15.406432      16.232384      14.796305      20.805995      14.684503      23.807502      17.605725      15.726986     -91.28772       0.79625177     1854377.3    
    560000   603.06917     -15269.827      22198.99       6929.1634      15.356749      23.526464      15.930223      16.116212      14.38913       19.80905       15.423898      24.25669       17.699016      16.547505     -64.316526      0.79258194     1862963.5    
    570000   597.1713      -15275.71       21981.89       6706.1794      15.686176      24.963052      16.763063      16.437331      15.824392      18.734216      15.229991      24.311879      18.590267      15.835924     -0.15415397     0.79459294     1858248.6    
    580000   603.99277     -15681.407      22232.988      6551.5815      16.586356      23.263741      15.823604      16.117863      16.337972      18.696553      15.841597      23.776227      18.311562      16.503374      75.236749      0.79921244     1847507.8    
    590000   606.84069     -15653.535      22337.82       6684.2853      15.318135      23.264376      16.560484      14.900436      16.37364       19.147761      15.730347      26.075549      18.520889      17.231212     -27.75234       0.79686957     1852939.6    
    600000   598.17569     -15411.242      22018.861      6607.6193      14.95814       23.965648      16.553236      15.131578      16.464503      18.734321      14.431425      27.02806       17.7423        16.492254     -106.69413      0.79677946     1853149.2    
    610000   602.76224     -15900.937      22187.692      6286.7555      15.762983      22.963204      16.165452      15.437468      16.670002      17.847134      14.13284       27.233464      16.983797      17.502917      47.952925      0.80321864     1838293      
    620000   600.32794     -15387.445      22098.085      6710.6404      16.108708      24.591102      15.455949      16.415445      16.438629      18.918644      14.80237       25.137763      16.546385      17.605983     -39.709783      0.79303542     1861898.2    
    630000   602.35593     -15331.365      22172.736      6841.3713      16.96196       23.137827      15.737958      16.037533      15.391792      17.589774      15.364997      22.839758      16.141705      16.654528     -79.358071      0.79560109     1855893.9    
    640000   598.40674     -15688.652      22027.366      6338.7143      18.32289       24.479444      16.491339      16.762317      16.945512      18.94373       15.216288      23.845086      16.922377      16.958071      19.479572      0.80381131     1836937.6    
    650000   603.06246     -15539.62       22198.743      6659.1232      18.655763      23.959629      16.29237       15.749859      17.632859      16.626662      16.511684      23.530892      15.53047       15.505281     -26.182127      0.79789082     1850568      
    660000   595.06621     -15791.918      21904.401      6112.4834      20.399451      22.731594      17.118923      15.905286      16.192493      16.870548      17.257122      23.09265       14.66293       16.203954     -57.087813      0.79873682     1848607.9    
    670000   605.07879     -15550.322      22272.965      6722.6424      20.891357      22.160592      16.937307      15.017002      15.528367      16.76212       17.314232      22.845088      16.142226      16.354112     -63.231293      0.79699387     1852650.7    
    680000   597.69954     -15686.053      22001.334      6315.281       19.734468      22.217895      16.618387      13.839882      14.094337      18.285907      16.471482      22.455654      16.47579       16.085527     -17.55205       0.79919551     1847546.9    
    690000   595.48274     -15425.342      21919.733      6494.3916      18.50333       20.837237      16.459194      14.68654       14.843605      19.112914      16.166647      22.69104       17.142938      16.197601      26.401422      0.79777564     1850835.2    
    700000   602.68623     -15705.354      22184.894      6479.5403      17.642639      20.583186      15.832379      15.912693      14.211328      19.262486      15.463249      21.928604      15.90956       16.350133     -42.462138      0.79933297     1847229.2    
    710000   601.02437     -15741.306      22123.721      6382.4148      17.336995      21.468523      15.963054      15.691332      14.691924      19.091888      14.340013      22.327161      15.114758      16.600824     -16.896763      0.79495923     1857392.4    
    720000   605.63522     -15660.674      22293.447      6632.7725      16.562609      20.290609      15.756159      16.131149      16.417769      19.332931      13.46814       21.313519      15.338144      16.180235     -54.102927      0.79661489     1853532      
    730000   600.17008     -15595.098      22092.275      6497.1767      17.812502      19.941657      15.135853      15.164333      17.557924      21.089006      12.794736      21.320259      16.165631      15.527333     -35.018571      0.79705111     1852517.6    
    740000   604.38777     -15268.187      22247.528      6979.3414      17.236388      18.728843      14.339835      15.762052      16.688034      23.60811       13.3089        20.494235      16.868345      16.470825     -12.853789      0.79145873     1865607.3    
    750000   594.3843      -15596.329      21879.3        6282.9714      18.005438      19.3176        15.113334      15.842316      17.422581      22.320957      12.403535      20.042611      16.90645       15.77371       50.291277      0.79881994     1848415.6    
    760000   603.17423     -15262.086      22202.858      6940.7714      18.067055      20.631979      14.571871      16.656731      16.462963      20.831716      12.274088      20.057588      16.21149       16.560776      41.962035      0.79400599     1859622.3    
    770000   599.45958     -15454.674      22066.121      6611.4468      18.302373      20.756386      15.785778      15.809898      15.884165      18.589691      12.165305      19.811158      16.045389      17.419388      40.832352      0.80101522     1843349.8    
    780000   602.18354     -15235.702      22166.39       6930.6881      17.610398      19.986222      15.346117      16.393792      16.509971      19.474735      12.631538      20.786846      15.928238      17.935685     -2.7985154      0.79707814     1852454.8    
    790000   597.11788     -15834.27       21979.923      6145.6531      16.922223      19.464586      15.709841      14.819312      16.144498      20.549587      13.506199      19.681916      15.843459      17.239088      38.913723      0.80289134     1839042.4    
    800000   601.31974     -15834.395      22134.594      6300.1986      17.609764      18.92153       15.997327      15.3366        15.132621      19.021456      12.102804      21.872482      15.197156      18.046967     -44.345282      0.7993054      1847292.9    
    810000   601.71722     -14948.046      22149.225      7201.1788      16.543737      20.127367      16.903463      15.940091      15.749709      20.663052      14.01159       22.34985       15.377993      18.895101      6.1464718      0.7920468      1864222.2    
    820000   607.46929     -15800.122      22360.959      6560.8365      16.893723      20.264762      15.949575      15.222075      15.10009       19.628989      14.467477      21.90414       15.807529      17.536038      3.453459       0.80069922     1844077.2    
    830000   603.0928      -15222.888      22199.86       6976.972       16.643832      19.000497      16.013104      16.935314      14.692718      19.74286       16.159096      22.032126      15.854047      18.583331     -27.754416      0.79595906     1855059.2    
    840000   603.86833     -15441.682      22228.407      6786.7254      15.744423      18.362017      15.956471      17.408599      14.255971      19.338991      16.428562      21.926299      15.952629      18.007629      3.1024894      0.80037865     1844815.8    
    850000   602.2345      -15485.404      22168.266      6682.8618      17.391657      19.18095       15.603788      20.169897      15.270844      19.602476      16.516234      19.582955      15.092236      18.259494     -10.440199      0.7954369      1856277      
    860000   606.88074     -15679.046      22339.294      6660.2482      18.625477      17.908294      14.864686      19.171645      16.644373      20.393689      16.494306      19.750383      14.890673      17.309627      20.769311      0.79434928     1858818.6    
    870000   597.75792     -15709.223      22003.483      6294.2595      15.157037      19.385075      15.581671      19.824354      15.563718      21.14259       15.861648      17.988296      15.423984      17.018221      4.2379398      0.80033514     1844916.1    
    880000   603.28032     -15768.105      22206.763      6438.6574      15.08991       18.551225      15.345867      18.800144      14.681942      20.130347      17.430349      17.680896      15.717792      18.24262      -22.636468      0.79924083     1847442.2    
    890000   598.79082     -15645.518      22041.504      6395.9862      15.284828      18.32665       15.190804      19.108569      16.058166      20.086531      16.314848      17.802527      15.475189      16.958941      45.953331      0.80232763     1840334.5    
    900000   600.40925     -15506.402      22101.078      6594.6768      15.832593      17.833591      15.095148      18.900402      14.576588      20.426514      15.729393      17.523771      16.355386      16.844455      83.158113      0.79479552     1857775      
    910000   601.618       -15382.936      22145.573      6762.6365      16.806575      16.811272      16.89066       17.773853      14.131269      19.064442      16.242353      17.885988      15.190628      15.810693      35.658681      0.79357168     1860640      
    920000   604.01216     -15388.557      22233.702      6845.1444      17.401493      17.874315      16.745395      17.63113       13.726268      20.184723      15.325095      16.789063      15.027275      17.113567      16.449767      0.7985671      1849000.8    
    930000   602.93223     -15447.45       22193.949      6746.4996      17.858917      18.103388      16.540057      18.883666      14.437625      19.949619      14.835745      17.956908      13.964311      16.368343     -2.9764248      0.79986959     1845989.9    
    940000   585.9801      -15492.784      21569.941      6077.1572      16.455113      16.47393       17.638372      19.01431       13.888761      20.880109      14.965406      16.194886      14.279736      16.920609     -34.017224      0.79590856     1855176.9    
    950000   602.2858      -15415.451      22170.154      6754.7035      16.667519      15.040141      17.75285       21.563364      14.327641      20.125579      14.15173       16.324459      15.839799      17.757394      64.585054      0.79797963     1850362      
    960000   606.25349     -15921.475      22316.205      6394.7302      18.537344      15.237301      15.798895      20.477057      14.904501      20.325457      14.48627       15.599799      13.520268      17.195468      17.696312      0.80094171     1843518.9    
    970000   601.62136     -15641.897      22145.696      6503.7989      17.916886      16.008681      15.494123      18.66545       14.324579      17.731306      15.559444      16.276177      14.506242      16.40944      -2.4234096      0.80381481     1836929.6    
    980000   597.08483     -15758.612      21978.706      6220.0941      18.449188      15.337082      15.508214      18.823987      13.771564      16.727547      15.792503      16.512246      14.404296      17.219707      7.1582649      0.79979228     1846168.4    
    990000   592.17347     -15305.182      21797.919      6492.7375      17.149959      14.83015       16.373615      19.940077      14.856151      16.463093      17.409153      16.949499      14.959248      17.835629     -1.9822057      0.79727226     1852003.8    
   1000000   592.62647     -15624.215      21814.594      6190.3795      16.752522      15.847113      15.442812      19.079403      14.041866      17.29379       16.905149      16.914829      14.888626      17.903335      41.426701      0.79915185     1847647.9    
   1010000   603.97491     -15578.035      22232.331      6654.2954      18.180922      15.341002      15.038792      18.526352      13.826314      18.818104      15.594275      16.960449      15.023467      17.356012     -6.6626135      0.79406006     1859495.6    
   1020000   598.27978     -15337.355      22022.693      6685.3378      16.542288      15.933565      17.365251      20.16496       14.136696      19.370733      16.843358      16.227696      13.753957      18.571892     -72.13678       0.79330186     1861272.9    
   1030000   602.10036     -15430.686      22163.328      6732.6428      18.227674      15.340372      16.88313       20.069142      14.716744      18.540619      16.09401       15.476635      14.014991      19.029848      24.69246       0.79633798     1854176.6    
   1040000   603.4047      -15717.914      22211.341      6493.427       19.293349      15.565562      14.441867      20.022328      15.179602      17.929699      16.491051      17.43902       13.994551      18.615182      35.521653      0.79849296     1849172.5    
   1050000   600.91713     -15789.755      22119.774      6330.0181      19.952843      13.667492      16.325726      20.459179      13.932396      18.728967      15.642679      17.556957      15.247135      17.384674      31.592859      0.79763861     1851153.1    
   1060000   600.38136     -15519.999      22100.052      6580.0534      18.983785      14.452353      15.587471      22.123163      14.087085      18.737448      17.074188      17.82907       14.902888      17.364756      7.264352       0.7989237      1848175.5    
   1070000   603.79856     -15449.189      22225.839      6776.6499      20.626122      14.952755      16.15513       20.791149      13.489165      18.966985      16.261887      19.023642      14.806543      18.221052     -34.390623      0.79697426     1852696.2    
   1080000   598.39384     -15796.273      22026.891      6230.618       19.591235      14.619688      16.624276      19.848182      14.202352      17.906033      15.381555      18.110336      14.205094      17.520428      55.316418      0.80041506     1844731.9    
   1090000   601.54206     -15374.973      22142.777      6767.8047      18.993928      14.68563       16.348734      17.656705      14.629835      17.162084      14.326276      17.938179      14.177041      16.413607     -24.912487      0.79528739     1856625.9    
   1100000   590.80517     -15452.612      21747.552      6294.9403      21.445506      14.971416      17.047693      16.160492      16.428328      15.758341      14.987663      17.648596      14.284375      14.625859     -18.078828      0.79455871     1858328.6    
   1110000   605.71248     -15851.431      22296.29       6444.8595      22.090386      13.725556      17.626349      17.229655      14.807515      16.97439       15.414516      16.93249       14.670096      15.163626     -28.85608       0.80254197     1839843      
   1120000   606.98821     -15709.009      22343.25       6634.2414      20.394494      14.317137      17.55929       18.785924      15.006639      17.559516      15.844939      17.612366      15.416157      15.357004     -13.475249      0.80208033     1840901.9    
   1130000   602.44728     -15352.86       22176.098      6823.2385      20.715781      13.333687      16.906297      19.952928      15.802628      18.536775      15.918771      18.250081      16.198732      16.466175      3.2148121      0.79784358     1850677.6    
   1140000   602.92841     -15841.59       22193.809      6352.2194      20.845112      13.336363      16.920978      20.727477      15.82327       18.038619      16.608551      19.893589      15.350052      16.298295      60.898125      0.80259543     1839720.4    
   1150000   601.01822     -15831.625      22123.495      6291.8697      22.175924      13.830063      16.577819      21.258244      16.673455      18.638409      16.299837      20.70486       15.149409      17.404342     -152.32953      0.79613839     1854641.4    
   1160000   594.49652     -15658.392      21883.431      6225.0392      21.835343      14.289871      15.647766      20.454442      16.378919      17.320016      15.986768      20.247775      12.930868      17.059051      47.267132      0.80169193     1841793.8    
   1170000   605.01805     -15257.044      22270.729      7013.6848      20.754608      14.873424      16.638976      20.202994      16.330801      16.414322      16.31429       19.810335      13.524197      15.838302     -59.843468      0.79675488     1853206.4    
   1180000   594.88259     -15551.663      21897.642      6345.9793      23.176524      13.789188      15.563222      21.049265      17.517149      19.529367      16.436078      20.072367      13.669365      15.999946      19.486905      0.80110565     1843141.7    
   1190000   597.31543     -15865.712      21987.195      6121.4827      21.58001       13.06403       14.941356      20.154721      16.145891      20.178724      15.322933      20.855008      13.810424      15.794812     -12.497067      0.79854261     1849057.5    
   1200000   596.0414      -15803.131      21940.298      6137.167       21.452888      13.774601      15.528443      19.740897      16.256852      19.60457       17.658833      19.855949      13.466979      16.359624     -6.5174929      0.80266907     1839551.6    
   1210000   603.64024     -15277.845      22220.011      6942.1661      20.345379      14.631984      14.685386      21.628086      14.980686      20.788763      17.364392      19.72237       13.33666       14.401613     -21.411864      0.79717093     1852239.1    
   1220000   603.6811      -15437.69       22221.515      6783.8255      21.117514      13.950903      13.681249      20.918679      14.898598      21.835236      17.442425      18.770485      14.239817      15.592073     -11.212348      0.80062109     1844257.2    
   1230000   603.86157     -15150.654      22228.158      7077.5045      22.416853      13.769991      14.533601      21.559213      16.381015      22.798483      17.093711      18.63639       13.462242      14.936106     -11.676868      0.7939179      1859828.6    
   1240000   597.26652     -15154.193      21985.395      6831.2015      21.930537      14.398315      14.578152      19.987448      15.971222      21.985604      16.942385      19.5469        14.175925      15.164199      59.233022      0.79500762     1857279.3    
   1250000   607.64922     -15425.755      22367.582      6941.8274      21.84213       14.360556      15.24488       20.071413      15.982176      22.056926      17.181721      19.804596      16.502407      15.928129      30.512562      0.79639951     1854033.3    
   1260000   600.79115     -15550.628      22115.136      6564.5084      21.223932      13.525462      14.611316      19.258996      17.10058       21.163437      16.115857      20.707624      16.814811      15.695382     -26.469968      0.80074056     1843982      
   1270000   592.38721     -15595.811      21805.787      6209.9756      21.055348      13.116487      15.078123      18.034897      16.700188      22.937961      16.090254      21.292409      17.363273      14.86765      -82.509546      0.79515378     1856937.9    
   1280000   601.60115     -15753.583      22144.953      6391.37        20.740564      12.976198      14.92151       18.013743      17.503749      22.036919      14.763843      20.865064      15.608753      14.242899     -13.204777      0.79944518     1846969.9    
   1290000   605.0605      -15751.758      22272.291      6520.5328      18.80683       13.378481      15.96912       17.586089      15.817874      22.928427      13.635162      22.10228       15.656859      14.832196      4.4179107      0.7995158      1846806.8    
   1300000   599.47647     -15577.329      22066.743      6489.4139      19.25857       13.148355      16.899829      19.130224      15.847443      21.740462      14.696032      22.285516      16.529633      14.350853      34.168568      0.79953303     1846767      
   1310000   602.82951     -15436.273      22190.168      6753.8949      20.09474       13.774409      16.300824      18.753477      15.276126      22.187471      15.604817      21.313292      16.822078      13.763827      30.50363       0.79952727     1846780.3    
   1320000   598.41736     -15650.922      22027.757      6376.8349      20.72938       13.685037      15.761872      19.860039      15.801621      21.27453       15.005036      22.592013      16.880177      14.173688      61.163769      0.80084864     1843733.2    
   1330000   603.10671     -15481.439      22200.372      6718.9331      22.389682      14.350829      15.420325      17.341148      15.211902      20.89146       14.516529      22.925949      17.306338      13.883919     -102.67052      0.79555507     1856001.2    
   1340000   599.09669     -15726.352      22052.763      6326.4107      23.15614       15.347304      16.120213      18.05532       16.267767      22.067625      14.364311      23.449395      16.86721       12.047135      49.454327      0.79897928     1848046.9    
   1350000   594.49769     -15465.952      21883.474      6417.5216      21.287748      15.869497      15.693294      19.185178      16.113446      20.780159      14.384256      22.557441      16.127662      14.495767     -16.637331      0.79815001     1849967      
   1360000   598.83366     -16088.528      22043.081      5954.5528      22.496611      15.396304      17.690938      18.648032      17.804212      21.158061      13.560753      22.197431      16.18674       14.627826      32.87108       0.80291825     1838980.8    
   1370000   594.45788     -15401.09       21882.008      6480.9182      22.348779      15.10632       16.605893      20.023294      18.628361      21.773531      13.369816      21.92491       16.969835      14.475651     -43.157462      0.79699768     1852641.8    
   1380000   603.50311     -15179.823      22214.963      7035.1402      23.713287      15.135455      16.826489      19.543439      18.469161      19.885673      14.335187      22.47585       16.349181      14.824669      13.599828      0.79480477     1857753.3    
   1390000   603.18432     -15287.535      22203.229      6915.6938      24.308655      16.23798       17.404288      20.878903      18.024675      20.905896      15.286752      21.498583      17.875834      14.75747      -4.1245091      0.79461492     1858197.2    
   1400000   601.13488     -15735.562      22127.789      6392.2269      23.036521      16.142411      18.091003      20.728705      17.787142      20.442439      13.554354      21.346954      16.629369      15.332049     -15.95177       0.79705218     1852515.1    
   1410000   600.39553     -15093.199      22100.574      7007.3747      24.247147      16.2448        18.46408       20.887498      18.459478      21.267672      14.856941      22.788318      16.851205      15.46521       2.5752917      0.79729957     1851940.3    
   1420000   595.42545     -15822.052      21917.625      6095.572       22.407901      16.656807      19.903091      21.193757      18.72726       22.385995      13.306889      22.255375      17.905143      14.718864      43.141326      0.80550764     1833069.2    
   1430000   606.6149      -15349.318      22329.509      6980.1903      21.360598      16.679655      18.837105      18.120894      18.484956      21.990703      12.891422      21.608379      15.959647      14.965861     -10.176579      0.7966233      1853512.5    
   1440000   598.43851     -15455.115      22028.536      6573.4209      21.371668      16.593857      17.125805      17.906332      18.987435      21.279791      11.940137      20.197325      16.055077      15.171918      27.083229      0.79634489     1854160.5    
   1450000   598.93706     -15507.674      22046.887      6539.2128      21.192498      17.330423      17.000238      16.612107      19.012943      23.192061      13.069982      20.609024      16.734605      13.295681     -17.57146       0.79427468     1858993.2    
   1460000   598.28439     -15822.224      22022.862      6200.6387      20.995257      18.073588      18.111093      17.025664      16.302124      21.635111      14.213442      19.70892       18.314063      13.395651     -0.80996491     0.79849347     1849171.3    
   1470000   601.11824     -15083.266      22127.176      7043.9099      21.356138      17.02805       17.165511      16.165896      15.762048      20.450963      13.650674      18.774052      16.255538      13.576877      33.726988      0.79204081     1864236.3    
   1480000   597.88354     -15676.16       22008.107      6331.947       21.267768      15.425297      16.184742      16.258846      14.853523      20.677018      13.959712      19.448742      16.889827      13.341517     -5.539822       0.79705908     1852499.1    
   1490000   604.09622     -15426.012      22236.796      6810.7834      21.092747      14.066343      15.950381      16.399344      16.018815      21.226953      13.760649      19.603893      18.736515      12.958662     -20.611706      0.79074267     1867296.7    
   1500000   601.08809     -15625.609      22126.067      6500.4579      21.559441      15.485847      15.200474      16.443136      15.02838       21.905135      13.070457      21.012731      19.376612      11.901058      7.997347       0.80170084     1841773.3    
   1501000   601.50904     -15332.864      22141.562      6808.6977      22.072611      15.477843      14.876592      16.250716      15.44219       22.524584      13.060621      21.108884      19.283082      12.184997      56.713428      0.79670306     1853326.9    
Loop time of 498.095 on 16 procs for 1000000 steps with 12350 atoms

Performance: 173.461 ns/day, 0.138 hours/ns, 2007.648 timesteps/s, 24.794 Matom-step/s
97.8% CPU use with 16 MPI tasks x no OpenMP threads

MPI task timing breakdown:
Section |  min time  |  avg time  |  max time  |%varavg| %total
---------------------------------------------------------------
Pair    | 156.27     | 169.98     | 180.34     |  45.1 | 34.13
Bond    | 77.75      | 81.188     | 85.483     |  20.7 | 16.30
Neigh   | 28.999     | 29.018     | 29.038     |   0.2 |  5.83
Comm    | 104.24     | 118.2      | 136.54     |  74.3 | 23.73
Output  | 0.91412    | 1.1565     | 1.378      |  13.6 |  0.23
Modify  | 88.389     | 90.015     | 91.327     |  11.8 | 18.07
Other   |            | 8.536      |            |       |  1.71

Nlocal:        771.875 ave         794 max         748 min
Histogram: 2 0 1 2 2 2 2 2 2 1
Nghost:         2101.5 ave        2129 max        2069 min
Histogram: 2 2 0 1 2 2 1 1 2 3
Neighs:        21801.2 ave       23027 max       20556 min
Histogram: 2 2 1 2 1 1 1 2 2 2

Total # of neighbors = 348820
Ave neighs/atom = 28.244534
Ave special neighs/atom = 5.76
Neighbor list builds = 25440
Dangerous builds = 0
unfix           equil
# -----------------------------------------------------
# 6. 数据输出
# -----------------------------------------------------


# # 写出最终体系数据文件
# write_data      pdms_out.data
Total wall time: 0:12:01
