LAMMPS (29 Aug 2024)
# LAMMPS输入文件示例：使用Martini 3粗粒化力场计算PDMS的均方回转半径
# -----------------------------------------------------
# 1. 初始化设置
# -----------------------------------------------------
units               real
dimension           3
boundary            p p p
atom_style          full

# 读取包含PDMS分子结构的data文件
read_data           pdms_50_hexane.data
Reading data file ...
  orthogonal box = (-2.200501 -2.215 -2.204502) to (121.1995 121.215 121.2055)
  2 by 4 by 2 MPI processor grid
  reading atoms ...
  20850 atoms
  scanning bonds ...
  1 = max bonds/atom
  scanning angles ...
  1 = max angles/atom
  scanning dihedrals ...
  1 = max dihedrals/atom
  orthogonal box = (-2.200501 -2.215 -2.204502) to (121.1995 121.215 121.2055)
  2 by 4 by 2 MPI processor grid
  reading bonds ...
  10449 bonds
  reading angles ...
  48 angles
  reading dihedrals ...
  47 dihedrals
Finding 1-2 1-3 1-4 neighbors ...
  special bond factors lj:    0        0        0       
  special bond factors coul:  0        0        0       
     2 = max # of 1-2 neighbors
     2 = max # of 1-3 neighbors
     4 = max # of 1-4 neighbors
     6 = max # of special neighbors
  special bonds CPU = 0.002 seconds
  read_data CPU = 0.056 seconds

# -----------------------------------------------------
# 2. 力场参数设置（Martini 3参数）
# -----------------------------------------------------
# 定义非键相互作用（示例：Lennard-Jones势，截断距离可参考Martini 3常用取值）
pair_style lj/cut   12.0
pair_coeff          1 1 0.7337 5.1
pair_coeff          1 2 0.6979 4.3
pair_coeff          2 2 0.5617 4.1
# 定义键、角、二面角势（示例参数，实际参数请参考相关文献）
bond_style          harmonic
bond_coeff          1 5.975 4.05
bond_coeff          2 13.243 4.48
angle_style         harmonic
angle_coeff         1 5.48 86.0
dihedral_style      harmonic
dihedral_coeff      1 0.3346  1  1
# -----------------------------------------------------
# 3. 邻域列表设置
# -----------------------------------------------------
neigh_modify    one 1000
neighbor        1 bin
neigh_modify    delay 0 every 1 check yes

# -----------------------------------------------------
# 4. 能量最小化与预平衡
# -----------------------------------------------------
minimize        1.0e-4 1.0e-6 1000 10000

CITE-CITE-CITE-CITE-CITE-CITE-CITE-CITE-CITE-CITE-CITE-CITE-CITE

Your simulation uses code contributions which should be cited:

- Type Label Framework: https://doi.org/10.1021/acs.jpcb.3c08419

@Article{Gissinger24,
 author = {Jacob R. Gissinger, Ilia Nikiforov, Yaser Afshar, Brendon Waters, Moon-ki Choi, Daniel S. Karls, Alexander Stukowski, Wonpil Im, Hendrik Heinz, Axel Kohlmeyer, and Ellad B. Tadmor},
 title = {Type Label Framework for Bonded Force Fields in LAMMPS},
 journal = {J. Phys. Chem. B},
 year =    2024,
 volume =  128,
 number =  13,
 pages =   {3282–-3297}
}

CITE-CITE-CITE-CITE-CITE-CITE-CITE-CITE-CITE-CITE-CITE-CITE-CITE

Generated 0 of 1 mixed pair_coeff terms from geometric mixing rule
Neighbor list info ...
  update: every = 1 steps, delay = 0 steps, check = yes
  max neighbors/atom: 1000, page size: 100000
  master list distance cutoff = 13
  ghost atom cutoff = 13
  binsize = 6.5, bins = 19 19 19
  1 neighbor lists, perpetual/occasional/extra = 1 0 0
  (1) pair lj/cut, perpetual
      attributes: half, newton on
      pair build: half/bin/newton
      stencil: half/bin/3d
      bin: standard
Per MPI rank memory allocation (min/avg/max) = 8.388 | 8.42 | 8.734 Mbytes
   Step          Temp          E_pair         E_mol          TotEng         Press     
         0   0              2.8250308e+08  194.68765      2.8250328e+08  41507890     
       779   0             -81588.833      16875.228     -64713.605      17266.496    
Loop time of 1.1456 on 16 procs for 779 steps with 20850 atoms

98.3% CPU use with 16 MPI tasks x no OpenMP threads

Minimization stats:
  Stopping criterion = energy tolerance
  Energy initial, next-to-last, final = 
      282503279.457784  -64708.1143149614  -64713.6048871449
  Force two-norm initial, final = 22491815 32.780534
  Force max component initial, final = 744409.33 11.768512
  Final line search alpha, max atom move = 0.021747217 0.25593239
  Iterations, force evaluations = 779 780

MPI task timing breakdown:
Section |  min time  |  avg time  |  max time  |%varavg| %total
---------------------------------------------------------------
Pair    | 0.49466    | 0.58784    | 0.79846    |  11.8 | 51.31
Bond    | 0.0042527  | 0.0053074  | 0.007529   |   1.4 |  0.46
Neigh   | 0.22429    | 0.22603    | 0.22794    |   0.2 | 19.73
Comm    | 0.078387   | 0.25664    | 0.37451    |  16.8 | 22.40
Output  | 0          | 0          | 0          |   0.0 |  0.00
Modify  | 0          | 0          | 0          |   0.0 |  0.00
Other   |            | 0.06979    |            |       |  6.09

Nlocal:        1303.12 ave        1327 max        1287 min
Histogram: 1 5 1 1 2 2 1 1 1 1
Nghost:        3542.31 ave        3576 max        3511 min
Histogram: 2 1 1 2 2 3 2 0 1 2
Neighs:        64900.7 ave       66843 max       63358 min
Histogram: 3 1 2 2 0 3 2 2 0 1

Total # of neighbors = 1038411
Ave neighs/atom = 49.803885
Ave special neighs/atom = 1.0114149
Neighbor list builds = 104
Dangerous builds = 0
fix             1 all npt temp 300.0 300.0 100.0 iso 1.0 1.0 1000
timestep        1
thermo_style    custom step temp press density vol
thermo          10000
run             500000
Generated 0 of 1 mixed pair_coeff terms from geometric mixing rule
Per MPI rank memory allocation (min/avg/max) = 7.266 | 7.296 | 7.612 Mbytes
   Step          Temp          Press         Density         Volume    
       779   0              17266.496      0.9954275      1879690.1    
     10000   296.49312      18.372486      0.63715023     2936662.6    
     20000   297.29983     -8.1397605      0.63537116     2944885.4    
     30000   299.62613      7.5318797      0.63681745     2938197.2    
     40000   299.76785     -13.477124      0.63648348     2939738.9    
     50000   302.02819     -12.718725      0.63711427     2936828.4    
     60000   302.8867       23.393639      0.63821419     2931766.9    
     70000   300.92053     -18.93439       0.63556624     2943981.5    
     80000   297.99253     -3.5346729      0.6350385      2946428.1    
     90000   298.74006      7.6717844      0.63718235     2936514.6    
    100000   296.52195      3.6041627      0.63677388     2938398.2    
    110000   299.75355      16.963037      0.63780302     2933656.9    
    120000   299.16861      0.01887643     0.63713598     2936728.3    
    130000   298.08079      8.8413691      0.63714524     2936685.6    
    140000   301.25593     -13.367851      0.63541208     2944695.8    
    150000   296.82184     -22.055711      0.63626152     2940764.4    
    160000   301.26697     -0.4244877      0.63779806     2933679.8    
    170000   301.66028      7.6095402      0.63626193     2940762.5    
    180000   299.85446      10.997281      0.63512266     2946037.6    
    190000   297.17042      14.980542      0.63808268     2932371.2    
    200000   299.87364      6.2966949      0.63585868     2942627.5    
    210000   300.88813      21.121731      0.63785        2933440.8    
    220000   300.11125     -12.58186       0.63740296     2935498.2    
    230000   299.87334      3.4897116      0.63539977     2944752.8    
    240000   298.94095     -8.3940025      0.63740681     2935480.5    
    250000   298.95845     -22.651069      0.63389086     2951762.5    
    260000   298.40173      55.20157       0.63794045     2933024.9    
    270000   301.78637     -4.0632909      0.63750668     2935020.6    
    280000   299.5781      -3.5275606      0.63533818     2945038.3    
    290000   304.28692      12.684953      0.6368861      2937880.5    
    300000   303.83571      1.1753025      0.6372249      2936318.5    
    310000   300.67985      7.9028257      0.63714917     2936667.5    
    320000   299.92866      9.9123028      0.63926295     2926957.1    
    330000   301.8381       15.963         0.63651074     2939613      
    340000   298.73804      6.3800843      0.63617344     2941171.6    
    350000   295.66685      5.3189411      0.63662504     2939085.3    
    360000   298.5393       5.7532977      0.63859352     2930025.4    
    370000   302.15857      0.3848245      0.63787702     2933316.6    
    380000   302.51804      11.338657      0.63695333     2937570.4    
    390000   298.07185     -11.873491      0.63652247     2939558.8    
    400000   298.61735     -20.423462      0.63665275     2938957.3    
    410000   300.63154      3.6462609      0.63803457     2932592.3    
    420000   300.33142     -24.3175        0.63656778     2939349.6    
    430000   300.33475      5.3590717      0.63645376     2939876.2    
    440000   299.52822      16.849275      0.63662414     2939089.4    
    450000   300.18927      15.537787      0.63784791     2933450.5    
    460000   301.30705      11.468273      0.63673053     2938598.3    
    470000   302.78866      24.632316      0.63696983     2937494.3    
    480000   301.77692     -4.7393774      0.6365772      2939306.1    
    490000   302.19349      2.7117501      0.63657892     2939298.2    
    500000   302.08988     -30.985212      0.63580755     2942864.2    
    500779   301.0994       16.001309      0.63855056     2930222.6    
Loop time of 290.239 on 16 procs for 500000 steps with 20850 atoms

Performance: 148.843 ns/day, 0.161 hours/ns, 1722.717 timesteps/s, 35.919 Matom-step/s
98.3% CPU use with 16 MPI tasks x no OpenMP threads

MPI task timing breakdown:
Section |  min time  |  avg time  |  max time  |%varavg| %total
---------------------------------------------------------------
Pair    | 148.89     | 159.86     | 175.69     |  59.2 | 55.08
Bond    | 3.6646     | 4.1049     | 5.4106     |  24.0 |  1.41
Neigh   | 16.221     | 16.25      | 16.289     |   0.5 |  5.60
Comm    | 58.421     | 74.469     | 84.33      |  86.7 | 25.66
Output  | 0.0015555  | 0.0016477  | 0.0028683  |   0.8 |  0.00
Modify  | 28.612     | 30.076     | 32.36      |  22.0 | 10.36
Other   |            | 5.477      |            |       |  1.89

Nlocal:        1303.12 ave        1345 max        1279 min
Histogram: 1 3 1 5 4 1 0 0 0 1
Nghost:        2881.88 ave        2931 max        2861 min
Histogram: 3 5 1 2 2 2 0 0 0 1
Neighs:        41377.8 ave       43806 max       40217 min
Histogram: 1 3 6 3 1 1 0 0 0 1

Total # of neighbors = 662044
Ave neighs/atom = 31.75271
Ave special neighs/atom = 1.0114149
Neighbor list builds = 10742
Dangerous builds = 0
unfix           1

# variable        lambda equal ramp(0.8,1.0)
# fix             2 all adapt 1 pair lj/cut/soft lambda * * v_lambda

# fix             3 all npt temp 300.0 300.0 100.0 iso 1.0 1.0 1000
# timestep        1
# thermo_style    custom step temp press density vol
# thermo          10000
# run             50000
# unfix           3

# -----------------------------------------------------
# 5. 计算均方回转半径
# -----------------------------------------------------
# 使用compute gyration命令计算整个体系的回转半径
fix             equil all npt temp 300.0 300.0 100.0 iso 1.0 1.0 1000
group           pdms id <= 50
50 atoms in group pdms
variable        d_end equal "sqrt((x[1]-x[50])^2 + (y[1]-y[50])^2 + (z[1]-z[50])^2)"
compute         rg pdms gyration
fix             avg pdms ave/time 1000 800 1000000 c_rg v_d_end file avg.txt
# 输出热力学信息及回转半径数据，每隔1000步输出一次
thermo_style    custom step temp pe ke etotal c_rg v_d_end press density vol
thermo          10000
# 输出轨迹文件，便于后续可视化与分析
dump            traj all custom 1000 dump.pdms.lammpstrj id type x y z
# 运行模拟，记录回转半径数据（后续可统计分析均值与波动）
run             1000000
Generated 0 of 1 mixed pair_coeff terms from geometric mixing rule
Per MPI rank memory allocation (min/avg/max) = 7.271 | 7.323 | 7.629 Mbytes
   Step          Temp          PotEng         KinEng         TotEng          c_rg         v_d_end         Press         Density         Volume    
    500779   301.0994      -82796.648      18712.397     -64084.251      12.551528      31.236519      16.001309      0.63855056     2930222.6    
    510000   300.54483     -82434.645      18677.932     -63756.713      12.121293      28.362734      6.4768424      0.63647527     2939776.8    
    520000   298.36775     -82444.6        18542.633     -63901.967      11.420402      28.097124      10.800116      0.63622641     2940926.7    
    530000   299.856       -82521.352      18635.123     -63886.228      11.503115      28.362448      16.543953      0.63714031     2936708.3    
    540000   298.76349     -82569.744      18567.227     -64002.517      11.853142      27.616062     -1.6450153      0.63680696     2938245.6    
    550000   299.09177     -82498.272      18587.629     -63910.643      11.854117      30.496462     -9.4032046      0.63597771     2942076.8    
    560000   300.10345     -82696.058      18650.502     -64045.556      11.900133      23.993849     -31.482029      0.63648282     2939742      
    570000   299.75406     -82637.062      18628.788     -64008.274      12.268756      27.975891      27.98817       0.63750829     2935013.2    
    580000   300.54739     -82597.749      18678.091     -63919.658      12.887284      29.782722     -2.8557377      0.63719916     2936437.1    
    590000   301.38032     -82522.281      18729.855     -63792.426      12.85536       34.12859       31.505648      0.63768505     2934199.7    
    600000   300.70426     -82440.037      18687.84      -63752.197      12.873929      35.496794      9.8126394      0.63648557     2939729.3    
    610000   301.17451     -82347.716      18717.065     -63630.651      11.968281      37.621275      16.805134      0.63662136     2939102.2    
    620000   300.6255      -82553.109      18682.946     -63870.164      12.211402      36.6571        1.0298168      0.63608215     2941593.7    
    630000   296.87494     -82602.069      18449.86      -64152.209      12.725042      40.648977     -2.675763       0.63712716     2936768.9    
    640000   299.37446     -82583.477      18605.197     -63978.279      12.725172      44.595687      0.28601273     0.63705457     2937103.6    
    650000   303.54259     -82313.565      18864.233     -63449.332      12.066985      41.002896      7.2398334      0.63568681     2943423.1    
    660000   303.29712     -82427.476      18848.978     -63578.498      12.670583      46.292019      0.4830605      0.63666691     2938892      
    670000   298.01201     -82577.585      18520.525     -64057.059      12.654208      43.673251     -13.463043      0.63648739     2939720.9    
    680000   299.14482     -82569.228      18590.926     -63978.302      12.545896      43.6195        21.390711      0.63739986     2935512.5    
    690000   303.21808     -82555.639      18844.066     -63711.573      12.00666       41.353581     -23.270121      0.63630366     2940569.7    
    700000   299.02177     -82260.376      18583.279     -63677.097      11.316007      38.989595     -12.827057      0.63554652     2944072.8    
    710000   299.3963      -82762.689      18606.555     -64156.134      11.464873      40.210696      32.956628      0.63906853     2927847.6    
    720000   299.0772      -82542.818      18586.723     -63956.095      12.046369      42.050967      5.7022181      0.63742577     2935393.2    
    730000   299.64918     -82721.853      18622.27      -64099.582      11.357292      37.746103      11.974095      0.63792041     2933117.1    
    740000   300.26864     -82433.968      18660.768     -63773.2        11.379109      40.533715     -23.19429       0.63579622     2942916.6    
    750000   296.92591     -82519.119      18453.027     -64066.091      11.125487      40.113833     -0.07456352     0.6368333      2938124.1    
    760000   299.31952     -82568.773      18601.783     -63966.99       10.638353      30.877792     -9.23817        0.63706176     2937070.4    
    770000   298.00603     -82357.879      18520.154     -63837.726      11.15438       33.716148     -18.232204      0.63502458     2946492.6    
    780000   299.94004     -82706.473      18640.346     -64066.127      9.9241815      33.866939      9.9210567      0.63758499     2934660.2    
    790000   301.20044     -82418.371      18718.677     -63699.694      10.203858      35.079687      1.7493225      0.63616279     2941220.8    
    800000   300.86099     -82695.37       18697.58      -63997.79       9.6052682      30.699351      15.597693      0.63737711     2935617.3    
    810000   299.85964     -82727.009      18635.349     -64091.659      9.0093315      31.527281     -29.615885      0.63679992     2938278.1    
    820000   298.17113     -82379.455      18530.414     -63849.041      8.7676833      31.78898      -4.2654762      0.63583007     2942759.9    
    830000   301.30532     -82400.922      18725.194     -63675.728      8.5098017      28.968621      6.1146009      0.63630333     2940571.2    
    840000   300.42421     -82658.382      18670.436     -63987.946      8.5667357      29.567417     -18.355317      0.63654231     2939467.2    
    850000   299.96893     -82503.593      18642.142     -63861.451      9.1160839      34.574997     -3.6983383      0.63602537     2941856.3    
    860000   301.01893     -82663.018      18707.396     -63955.622      8.7099845      33.434871      20.933283      0.63771426     2934065.3    
    870000   297.36407     -82307.686      18480.257     -63827.429      9.0555072      33.012938     -2.0437669      0.63568417     2943435.4    
    880000   299.04316     -82379.865      18584.608     -63795.256      9.2510189      34.211306      11.792094      0.6360649      2941673.5    
    890000   299.4064      -82851.678      18607.182     -64244.495      8.9797279      30.233168     -12.654815      0.63783515     2933509.1    
    900000   298.92588     -82551.219      18577.319     -63973.9        9.5170254      32.723365     -31.11999       0.63562561     2943706.5    
    910000   298.89572     -82421.551      18575.445     -63846.106      9.1440716      34.973649     -24.02488       0.63544346     2944550.3    
    920000   298.39175     -82546.044      18544.125     -64001.918      9.03662        34.619517     -2.8281946      0.63645253     2939881.9    
    930000   298.0833      -82719.871      18524.956     -64194.915      8.3572366      32.07748       18.110733      0.63817957     2931926      
    940000   299.1552      -82794.328      18591.571     -64202.757      8.7533621      29.57272       9.6670633      0.63799332     2932781.9    
    950000   301.28044     -82611.539      18723.648     -63887.891      8.4458197      26.697887      13.302154      0.63713157     2936748.6    
    960000   301.04978     -82401.861      18709.313     -63692.548      8.396121       31.65241       9.7888231      0.63602702     2941848.7    
    970000   299.40984     -82624.743      18607.396     -64017.347      8.3203932      27.786306      25.445498      0.63717708     2936538.8    
    980000   302.74622     -82356.692      18814.742     -63541.95       7.8417443      27.451433     -1.1611297      0.63562914     2943690.2    
    990000   300.08874     -82529.939      18649.588     -63880.351      7.7705838      27.533656      0.54167395     0.63633413     2940428.9    
   1000000   298.31515     -82522.98       18539.364     -63983.616      7.6118427      22.947882     -8.4612876      0.6358202      2942805.6    
   1010000   299.08062     -82823.012      18586.936     -64236.076      7.2619119      24.489745     -15.181824      0.63747122     2935183.9    
   1020000   301.16944     -82487.443      18716.75      -63770.693      7.5167267      25.660176     -11.933464      0.63568448     2943433.9    
   1030000   299.64063     -82313.324      18621.739     -63691.585      7.7144169      24.153859     -25.08197       0.63465304     2948217.6    
   1040000   301.95895     -82662.895      18765.815     -63897.08       8.0310426      25.20555       18.863219      0.63733789     2935797.9    
   1050000   301.71094     -82789.166      18750.402     -64038.764      8.1647836      26.512809      3.1333415      0.63769088     2934172.8    
   1060000   299.58398     -82564.569      18618.218     -63946.351      7.7991759      23.253847      8.7708637      0.63702815     2937225.4    
   1070000   300.32822     -82542.869      18664.47      -63878.399      7.6440261      23.296533     -6.5898793      0.63639244     2940159.5    
   1080000   299.5917      -82607.946      18618.698     -63989.248      7.5825299      19.466373      4.6854953      0.63719703     2936446.9    
   1090000   300.65328     -82618.845      18684.672     -63934.173      7.6589422      25.134866     -1.6389151      0.63709074     2936936.8    
   1100000   298.0306      -82677.887      18521.681     -64156.206      7.7048664      25.777912      0.93949454     0.63745214     2935271.7    
   1110000   299.91484     -82431.031      18638.78      -63792.251      8.0201448      21.583302      0.21045804     0.63625202     2940808.4    
   1120000   299.52879     -82626.146      18614.788     -64011.358      8.0425247      20.929695      10.81807       0.63670328     2938724.1    
   1130000   299.51545     -82544.695      18613.959     -63930.736      7.8361163      20.061107     -5.4941164      0.63612825     2941380.6    
   1140000   298.82727     -82472.974      18571.191     -63901.783      8.0794651      19.23317      -24.671394      0.6358737      2942558      
   1150000   301.51672     -82438.578      18738.332     -63700.246      8.4368527      24.691501     -33.940066      0.63560303     2943811.1    
   1160000   301.06892     -82548.572      18710.502     -63838.07       8.6976437      25.775626      2.989185       0.63651277     2939603.6    
   1170000   302.03293     -82455.952      18770.413     -63685.539      8.5795326      24.909894      17.481943      0.63755001     2934821.1    
   1180000   297.23683     -82228.456      18472.35      -63756.106      7.9300322      25.78081      -24.313173      0.63402449     2951140.4    
   1190000   300.52921     -82493.666      18676.961     -63816.705      8.4864882      31.198435      26.351846      0.63719818     2936441.6    
   1200000   300.41843     -82513.313      18670.077     -63843.237      8.8438803      30.875533     -0.95080475     0.63651022     2939615.4    
   1210000   298.61203     -82528.064      18557.815     -63970.249      8.4507446      27.383243     -23.744219      0.6358501      2942667.2    
   1220000   300.83573     -82517.886      18696.011     -63821.875      8.3922547      28.288083      6.7247359      0.63621165     2940994.9    
   1230000   299.75135     -82419.878      18628.62      -63791.258      8.822441       30.593296      10.117303      0.63645812     2939856.1    
   1240000   297.05706     -82631.323      18461.178     -64170.145      9.4659886      32.94012       5.6083472      0.63766584     2934288.1    
   1250000   301.40337     -82447.53       18731.288     -63716.242      9.6248463      29.41944       4.9522656      0.63628531     2940654.5    
   1260000   299.0071      -82629.655      18582.367     -64047.288      9.6214211      33.595829      12.380598      0.63731344     2935910.5    
   1270000   301.4682      -82723.31       18735.317     -63987.994      10.069101      32.178159     -29.009313      0.63600556     2941948      
   1280000   303.13546     -82511.389      18838.932     -63672.458      9.3712365      32.285284     -27.445034      0.63585311     2942653.3    
   1290000   300.98935     -82689.941      18705.558     -63984.383      9.3915267      29.821606      3.485815       0.63690036     2937814.7    
   1300000   301.94812     -82653.833      18765.142     -63888.69       9.9487722      34.717638     -13.007662      0.63680165     2938270.1    
   1310000   299.30108     -82326.688      18600.637     -63726.051      9.7556441      33.160299     -1.0984709      0.63568707     2943421.9    
   1320000   300.8731      -82718.708      18698.333     -64020.375      9.5637586      31.364886      4.4478132      0.63780278     2933658      
   1330000   299.66053     -82576.631      18622.975     -63953.655      9.6009851      30.357131     -22.571042      0.63613467     2941350.8    
   1340000   303.13892     -82776.596      18839.147     -63937.449      9.8066254      31.812509      20.040204      0.63762483     2934476.8    
   1350000   297.57293     -82482.031      18493.238     -63988.793      10.434695      41.891242     -9.8838006      0.63595407     2942186.2    
   1360000   298.4585      -82251.906      18548.273     -63703.633      9.9226442      37.462486      0.46433175     0.63466066     2948182.2    
   1370000   300.13841     -82606.115      18652.674     -63953.44       9.7932327      38.864311     -0.58843305     0.63684099     2938088.6    
   1380000   300.39871     -82542.384      18668.851     -63873.532      8.7987803      32.526089      8.6537593      0.6368063      2938248.7    
   1390000   297.1649      -82567.507      18467.88      -64099.627      8.2282664      25.508342      7.3878458      0.63655908     2939389.8    
   1400000   299.30184     -82760.616      18600.684     -64159.932      8.1578914      27.557955      2.636395       0.63771443     2934064.5    
   1410000   300.19094     -82674.523      18655.939     -64018.584      8.0820835      26.138695      17.722907      0.63756018     2934774.4    
   1420000   299.5103      -82529.277      18613.639     -63915.638      7.7721974      24.937804      16.319967      0.63713291     2936742.4    
   1430000   301.3178      -82584.539      18725.97      -63858.57       7.6407428      24.254619      15.475805      0.63699049     2937399      
   1440000   297.81815     -82565.42       18508.477     -64056.942      7.451897       19.460024     -22.655125      0.63543842     2944573.7    
   1450000   300.52714     -82594.153      18676.833     -63917.32       7.510549       17.03398       1.7478842      0.63765541     2934336      
   1460000   302.93509     -82410.771      18826.48      -63584.292      7.6959583      16.563451      18.598652      0.63575946     2943086.8    
   1470000   301.67423     -82560.242      18748.121     -63812.122      7.6737496      23.061647      9.0296477      0.63663898     2939020.9    
   1480000   301.00455     -82652.586      18706.502     -63946.084      7.1747734      20.670586     -15.732562      0.63673531     2938576.2    
   1490000   300.34947     -82760.515      18665.791     -64094.724      7.2511891      23.877639      8.2296613      0.63790839     2933172.4    
   1500000   299.29441     -82069.755      18600.223     -63469.532      7.288623       20.518666     -30.874384      0.63358189     2953201.9    
   1500779   300.0079      -82722.895      18644.564     -64078.331      7.4215795      20.520865      15.38028       0.6376701      2934268.5    
Loop time of 579.071 on 16 procs for 1000000 steps with 20850 atoms

Performance: 149.204 ns/day, 0.161 hours/ns, 1726.903 timesteps/s, 36.006 Matom-step/s
98.3% CPU use with 16 MPI tasks x no OpenMP threads

MPI task timing breakdown:
Section |  min time  |  avg time  |  max time  |%varavg| %total
---------------------------------------------------------------
Pair    | 291.93     | 315.58     | 337.77     |  68.8 | 54.50
Bond    | 7.1628     | 8.0717     | 10.526     |  31.1 |  1.39
Neigh   | 32.075     | 32.156     | 32.231     |   0.9 |  5.55
Comm    | 129.74     | 151.2      | 174.47     | 101.1 | 26.11
Output  | 1.3868     | 1.7922     | 2.2024     |  18.6 |  0.31
Modify  | 56.945     | 59.41      | 61.269     |  17.1 | 10.26
Other   |            | 10.86      |            |       |  1.88

Nlocal:        1303.12 ave        1348 max        1283 min
Histogram: 4 2 2 3 3 1 0 0 0 1
Nghost:         2881.5 ave        2904 max        2840 min
Histogram: 1 0 0 0 1 3 5 3 1 2
Neighs:        41340.8 ave       44757 max       40316 min
Histogram: 4 4 5 2 0 0 0 0 0 1

Total # of neighbors = 661452
Ave neighs/atom = 31.724317
Ave special neighs/atom = 1.0114149
Neighbor list builds = 21414
Dangerous builds = 0
unfix           equil
# -----------------------------------------------------
# 6. 数据输出
# -----------------------------------------------------


# # 写出最终体系数据文件
# write_data      pdms_out.data
Total wall time: 0:14:30
