LAMMPS (29 Aug 2024)
# LAMMPS输入文件示例：使用Martini 3粗粒化力场计算PDMS的均方回转半径
# -----------------------------------------------------
# 1. 初始化设置
# -----------------------------------------------------
units               real
dimension           3
boundary            p p p
atom_style          full

# 读取包含PDMS分子结构的data文件
read_data           PDMS_10_solvent.data
Reading data file ...
  orthogonal box = (-65 -65 -65) to (65 65 65)
  2 by 2 by 4 MPI processor grid
  reading atoms ...
  18938 atoms
  scanning bonds ...
  1 = max bonds/atom
  scanning angles ...
  1 = max angles/atom
  scanning dihedrals ...
  1 = max dihedrals/atom
  orthogonal box = (-65 -65 -65) to (65 65 65)
  2 by 2 by 4 MPI processor grid
  reading bonds ...
  9 bonds
  reading angles ...
  8 angles
  reading dihedrals ...
  7 dihedrals
Finding 1-2 1-3 1-4 neighbors ...
  special bond factors lj:    0        0        0       
  special bond factors coul:  0        0        0       
     2 = max # of 1-2 neighbors
     2 = max # of 1-3 neighbors
     4 = max # of 1-4 neighbors
     6 = max # of special neighbors
  special bonds CPU = 0.002 seconds
  read_data CPU = 0.032 seconds

# -----------------------------------------------------
# 2. 力场参数设置（Martini 3参数）
# -----------------------------------------------------
# 定义非键相互作用（示例：Lennard-Jones势，截断距离可参考Martini 3常用取值）
pair_style lj/cut   12.0
special_bonds       lj 0.0 0.0 0.5
Finding 1-2 1-3 1-4 neighbors ...
  special bond factors lj:    0        0        0.5     
  special bond factors coul:  0        0        0       
     2 = max # of 1-2 neighbors
     2 = max # of 1-3 neighbors
     4 = max # of 1-4 neighbors
     6 = max # of special neighbors
  special bonds CPU = 0.000 seconds
pair_coeff          1 1 0.7337 5.1
pair_coeff          2 2 0.7337 5.1
pair_coeff          1 2 0.7337 5.1
pair_coeff          1 3 0.5762 4.65
pair_coeff          2 3 0.5762 4.65
pair_coeff          3 3 1.1071 4.7
# 定义键、角、二面角势（示例参数，实际参数请参考相关文献）
bond_style          harmonic
bond_coeff          1 13.243 4.48
angle_style         harmonic
angle_coeff         1 5.48 86.0
dihedral_style      harmonic
dihedral_coeff      1 0.3346  1  1
# -----------------------------------------------------
# 3. 邻域列表设置
# -----------------------------------------------------
neigh_modify    one 1000
neighbor        1 bin
neigh_modify    delay 0 every 1 check yes

# -----------------------------------------------------
# 4. 能量最小化与预平衡
# -----------------------------------------------------
minimize        1.0e-4 1.0e-6 1000 10000

CITE-CITE-CITE-CITE-CITE-CITE-CITE-CITE-CITE-CITE-CITE-CITE-CITE

Your simulation uses code contributions which should be cited:

- Type Label Framework: https://doi.org/10.1021/acs.jpcb.3c08419

@Article{Gissinger24,
 author = {Jacob R. Gissinger, Ilia Nikiforov, Yaser Afshar, Brendon Waters, Moon-ki Choi, Daniel S. Karls, Alexander Stukowski, Wonpil Im, Hendrik Heinz, Axel Kohlmeyer, and Ellad B. Tadmor},
 title = {Type Label Framework for Bonded Force Fields in LAMMPS},
 journal = {J. Phys. Chem. B},
 year =    2024,
 volume =  128,
 number =  13,
 pages =   {3282–-3297}
}

CITE-CITE-CITE-CITE-CITE-CITE-CITE-CITE-CITE-CITE-CITE-CITE-CITE

Generated 0 of 3 mixed pair_coeff terms from geometric mixing rule
Neighbor list info ...
  update: every = 1 steps, delay = 0 steps, check = yes
  max neighbors/atom: 1000, page size: 100000
  master list distance cutoff = 13
  ghost atom cutoff = 13
  binsize = 6.5, bins = 20 20 20
  1 neighbor lists, perpetual/occasional/extra = 1 0 0
  (1) pair lj/cut, perpetual
      attributes: half, newton on
      pair build: half/bin/newton
      stencil: half/bin/3d
      bin: standard
Per MPI rank memory allocation (min/avg/max) = 8.41 | 8.529 | 8.876 Mbytes
   Step          Temp          E_pair         E_mol          TotEng         Press     
         0   0              2.211863e+09   32.609015      2.211863e+09   2.7615566e+08
       328   0             -145195.46      32.635812     -145162.82     -1268.8217    
Loop time of 0.283539 on 16 procs for 328 steps with 18938 atoms

99.3% CPU use with 16 MPI tasks x no OpenMP threads

Minimization stats:
  Stopping criterion = energy tolerance
  Energy initial, next-to-last, final = 
      2211862984.03421  -145149.042340348  -145162.819927483
  Force two-norm initial, final = 4.5238272e+10 31.206785
  Force max component initial, final = 3.1668236e+10 1.4352728
  Final line search alpha, max atom move = 0.010242493 0.014700772
  Iterations, force evaluations = 328 331

MPI task timing breakdown:
Section |  min time  |  avg time  |  max time  |%varavg| %total
---------------------------------------------------------------
Pair    | 0.10612    | 0.14952    | 0.17977    |   6.7 | 52.73
Bond    | 7.7402e-05 | 0.00012929 | 0.0002623  |   0.0 |  0.05
Neigh   | 0.048601   | 0.049423   | 0.049933   |   0.2 | 17.43
Comm    | 0.041474   | 0.065746   | 0.094779   |   6.9 | 23.19
Output  | 0          | 0          | 0          |   0.0 |  0.00
Modify  | 0          | 0          | 0          |   0.0 |  0.00
Other   |            | 0.01872    |            |       |  6.60

Nlocal:        1183.62 ave        1326 max         984 min
Histogram: 4 0 0 0 0 2 2 2 5 1
Nghost:        2791.44 ave        3090 max        2427 min
Histogram: 3 1 0 2 2 0 0 1 5 2
Neighs:        46002.3 ave       55878 max       32259 min
Histogram: 4 0 0 0 0 2 2 2 5 1

Total # of neighbors = 736037
Ave neighs/atom = 38.865614
Ave special neighs/atom = 0.0025345865
Neighbor list builds = 38
Dangerous builds = 0
fix             1 all npt temp 300.0 300.0 100.0 iso 1.0 1.0 1000
timestep        1
thermo_style    custom step temp press density vol
thermo          10000
run             500000
Generated 0 of 3 mixed pair_coeff terms from geometric mixing rule
Per MPI rank memory allocation (min/avg/max) = 7.288 | 7.436 | 7.754 Mbytes
   Step          Temp          Press         Density         Volume    
       328   0             -1268.8217      1.0305893      2197000      
     10000   300.22611     -3.4617221      0.82017683     2760629.8    
     20000   301.59334      24.078642      0.83747319     2703614.4    
     30000   301.38972     -8.2888594      0.87433047     2589643.9    
     40000   298.26205     -9.3873448      0.91491926     2474758.9    
     50000   299.78493      16.381796      0.94295708     2401174.6    
     60000   301.37916     -7.1792101      0.9645312      2347466.4    
     70000   299.616        14.808944      0.98173956     2306319      
     80000   302.085       -9.5738449      0.99216015     2282095.9    
     90000   302.52111      9.9868846      0.99926649     2265866.6    
    100000   299.42349     -18.62466       1.0002669      2263600.3    
    110000   301.91593      27.160508      0.99965167     2264993.6    
    120000   298.67101     -31.07788       0.99861924     2267335.2    
    130000   302.5137       34.537565      1.002727       2258046.9    
    140000   301.54808     -34.17423       0.99891364     2266667      
    150000   299.10287     -47.601245      0.9987311      2267081.3    
    160000   302.52352      10.920932      0.99895055     2266583.3    
    170000   299.05509      14.745846      1.0003051      2263514      
    180000   301.77609     -29.571891      1.0000726      2264040.3    
    190000   298.75975     -6.2665597      1.0003152      2263491.1    
    200000   299.1834       19.058628      1.0007963      2262403      
    210000   300.45218     -49.918593      0.99885995     2266788.9    
    220000   300.13461      21.672714      1.0030146      2257399.5    
    230000   299.13189     -8.4588311      0.9995535      2265216      
    240000   298.53306     -17.407434      1.0015335      2260737.7    
    250000   300.65419      0.69618167     1.002006       2259671.6    
    260000   300.9494       17.432142      1.0019782      2259734.5    
    270000   299.40849     -11.121747      0.99933912     2265702      
    280000   298.68445     -21.85547       1.0017309      2260292.3    
    290000   301.61519     -14.859481      1.0001061      2263964.4    
    300000   298.94146     -33.790495      0.99753619     2269797      
    310000   300.98483     -28.040928      1.0000015      2264201.2    
    320000   297.45304      13.983439      1.0014045      2261029      
    330000   299.53943      2.678537       1.0017716      2260200.4    
    340000   303.4632      -11.717484      0.99999962     2264205.5    
    350000   301.20046     -27.595588      0.99951146     2265311.3    
    360000   300.83274     -21.410259      0.99927867     2265839      
    370000   301.2886      -2.4022179      0.99967414     2264942.7    
    380000   300.75146      13.671965      1.0018616      2259997.3    
    390000   298.11914      0.66938674     1.0018965      2259918.6    
    400000   302.7832      -43.012271      1.0000032      2264197.3    
    410000   300.1876       13.31031       0.99910775     2266226.6    
    420000   300.1525      -20.724823      0.99970308     2264877.1    
    430000   300.04723      18.032303      1.0009311      2262098.4    
    440000   299.33575      36.915923      1.0026315      2258262      
    450000   302.44798      36.022041      1.0010041      2261933.5    
    460000   299.40219      47.523868      1.0026803      2258152.1    
    470000   299.71102     -19.059295      1.002344       2258909.6    
    480000   296.95029      28.569891      1.0025685      2258404      
    490000   301.44718      9.9111936      1.0028709      2257722.9    
    500000   298.10699     -20.583517      0.99887075     2266764.3    
    500328   302.18258     -22.630059      0.99866707     2267226.6    
Loop time of 299.086 on 16 procs for 500000 steps with 18938 atoms

Performance: 144.440 ns/day, 0.166 hours/ns, 1671.761 timesteps/s, 31.660 Matom-step/s
98.5% CPU use with 16 MPI tasks x no OpenMP threads

MPI task timing breakdown:
Section |  min time  |  avg time  |  max time  |%varavg| %total
---------------------------------------------------------------
Pair    | 165.82     | 177.94     | 189.93     |  52.3 | 59.49
Bond    | 0.13961    | 0.19895    | 0.52676    |  21.3 |  0.07
Neigh   | 13.844     | 13.855     | 13.865     |   0.2 |  4.63
Comm    | 61.864     | 73.005     | 84.456     |  76.3 | 24.41
Output  | 0.0016221  | 0.0017122  | 0.0028716  |   0.7 |  0.00
Modify  | 28.041     | 28.846     | 29.632     |  10.5 |  9.64
Other   |            | 5.244      |            |       |  1.75

Nlocal:        1183.62 ave        1198 max        1163 min
Histogram: 2 0 0 2 1 2 2 3 2 2
Nghost:        2945.25 ave        2967 max        2931 min
Histogram: 3 2 2 2 1 2 1 2 0 1
Neighs:        43619.4 ave       44541 max       42653 min
Histogram: 1 2 1 2 0 5 1 1 1 2

Total # of neighbors = 697911
Ave neighs/atom = 36.852413
Ave special neighs/atom = 0.0025345865
Neighbor list builds = 9283
Dangerous builds = 0
unfix           1

# variable        lambda equal ramp(0.8,1.0)
# fix             2 all adapt 1 pair lj/cut/soft lambda * * v_lambda

# fix             3 all npt temp 300.0 300.0 100.0 iso 1.0 1.0 1000
# timestep        1
# thermo_style    custom step temp press density vol
# thermo          10000
# run             50000
# unfix           3

# -----------------------------------------------------
# 5. 计算均方回转半径
# -----------------------------------------------------
# 使用compute gyration命令计算整个体系的回转半径
fix             equil all npt temp 300.0 300.0 100.0 iso 1.0 1.0 1000
group           pdms id <= 10
10 atoms in group pdms
variable        d_end equal "sqrt((x[1]-x[10])^2 + (y[1]-y[10])^2 + (z[1]-z[10])^2)"
compute         rg pdms gyration
fix             avg pdms ave/time 1000 800 1000000 c_rg v_d_end file avg.txt
# 输出热力学信息及回转半径数据，每隔1000步输出一次
thermo_style    custom step temp pe ke etotal c_rg v_d_end press density vol
thermo          10000
# 输出轨迹文件，便于后续可视化与分析
dump            traj all custom 1000 dump.pdms.lammpstrj id type x y z
# 运行模拟，记录回转半径数据（后续可统计分析均值与波动）
run             1000000
Generated 0 of 3 mixed pair_coeff terms from geometric mixing rule
Per MPI rank memory allocation (min/avg/max) = 7.292 | 7.526 | 7.76 Mbytes
   Step          Temp          PotEng         KinEng         TotEng          c_rg         v_d_end         Press         Density         Volume    
    500328   302.18258     -126206.83      17057.481     -109149.35      5.8240458      15.331099     -22.630059      0.99866707     2267226.6    
    510000   300.10012     -126626.62      16939.932     -109686.69      6.7997303      16.528953      26.887382      1.0029124      2257629.4    
    520000   303.20865     -126445.38      17115.4       -109329.98      5.5159491      11.582777      37.240307      1.0019238      2259857.1    
    530000   299.89791     -126382.52      16928.517     -109454         5.9713195      12.91436      -2.1021353      1.0005007      2263071.6    
    540000   300.06139     -126655.72      16937.745     -109717.97      5.5911493      8.0457894     -4.5982724      1.0018375      2260051.7    
    550000   299.04823     -126126.74      16880.555     -109246.18      5.6974539      9.5108672     -13.181585      0.99812308     2268462.3    
    560000   298.634       -126669.59      16857.173     -109812.42      5.8511702      11.455148     -17.409613      1.0018248      2260080.4    
    570000   297.23178     -126405.61      16778.021     -109627.59      6.1069228      12.607512      21.096925      1.0012333      2261415.7    
    580000   300.75602     -126264.12      16976.955     -109287.17      5.6623315      11.366924      1.6136788      0.99945906     2265430.1    
    590000   298.97468     -126382.75      16876.403     -109506.34      5.434387       12.113583      26.519062      1.00131        2261242.3    
    600000   300.69271     -126195.32      16973.382     -109221.94      5.5458899      13.98604      -4.6698993      0.999407       2265548.1    
    610000   298.50256     -126430.12      16849.753     -109580.36      5.0075348      10.098809     -33.199715      0.99979351     2264672.2    
    620000   299.8785      -126113.05      16927.421     -109185.63      4.7944193      8.9433761      31.7886        0.99974733     2264776.8    
    630000   300.69693     -126419.77      16973.62      -109446.15      4.9340831      7.9014519      0.033893792    1.0004047      2263288.6    
    640000   299.84519     -126326.56      16925.541     -109401.02      4.6523292      8.5216468      17.352562      1.0008078      2262377      
    650000   300.60118     -126565.76      16968.215     -109597.54      5.084347       9.6440233     -40.445153      1.0005238      2263019.2    
    660000   301.98608     -126550.78      17046.389     -109504.39      5.1306931      11.335049      8.1673878      1.0018262      2260077.1    
    670000   299.21053     -126744.07      16889.716     -109854.35      6.1071977      15.463257      14.333582      1.002995       2257443.6    
    680000   298.33502     -126280.32      16840.296     -109440.03      6.5799495      18.266427      7.752535       1.0004069      2263283.7    
    690000   303.61298     -126461.92      17138.224     -109323.7       5.9633306      15.278048      32.78031       1.001587       2260617.1    
    700000   298.72177     -126404.2       16862.127     -109542.07      5.5544057      12.144569      22.213495      1.0015481      2260704.8    
    710000   299.33207     -126428.48      16896.577     -109531.91      5.6025938      12.079152     -16.610267      1.0000873      2264007      
    720000   299.58603     -126163.5       16910.912     -109252.59      5.9828688      15.383058     -29.192209      0.9981464      2268409.3    
    730000   300.02148     -126683.66      16935.493     -109748.17      5.514078       14.377343      14.980595      1.0027364      2258025.8    
    740000   299.47156     -126193.47      16904.451     -109289.02      4.8873492      10.87035      -22.959473      0.99871626     2267115      
    750000   300.38359     -126277.22      16955.933     -109321.29      5.0806449      8.934655      -4.2274213      0.99956513     2265189.7    
    760000   300.18284     -126049.51      16944.601     -109104.91      5.0355774      5.8838369      5.9976766      0.9986415      2267284.7    
    770000   297.54611     -126346.45      16795.764     -109550.68      5.0174179      5.3248434     -4.8245737      1.0004767      2263125.9    
    780000   296.10515     -126662.4       16714.425     -109947.98      5.7137663      10.354688      6.5971548      1.0028556      2257757.5    
    790000   302.17301     -126842.82      17056.941     -109785.87      5.8177323      12.332601      24.144438      1.0041262      2254900.4    
    800000   299.79792     -126341.71      16922.873     -109418.83      5.2600714      8.9082088     -4.9383773      1.0002674      2263599.3    
    810000   299.90315     -126200.88      16928.813     -109272.06      5.1774332      11.988365     -14.918374      0.99885255     2266805.6    
    820000   299.48768     -126204.54      16905.361     -109299.17      5.7550516      12.723258     -28.397054      0.99852609     2267546.8    
    830000   300.52621     -126462.79      16963.983     -109498.8       5.8954653      11.929664     -8.9415896      1.0007368      2262537.6    
    840000   303.52799     -126735.61      17133.427     -109602.18      6.3404817      17.222575      15.262421      1.0029173      2257618.4    
    850000   298.96262     -126395.94      16875.722     -109520.21      5.6928903      15.192722      18.186549      1.0012089      2261470.8    
    860000   299.82218     -126270.77      16924.243     -109346.53      5.1106469      11.603108      15.21327       1.000336       2263444.1    
    870000   303.05722     -126491.25      17106.852     -109384.4       5.4110822      11.041827      10.576007      1.0015186      2260771.4    
    880000   297.34984     -126355         16784.685     -109570.32      4.8203063      10.472505     -15.829681      0.99985712     2264528.1    
    890000   297.93202     -126843.99      16817.547     -110026.44      5.1655306      9.4317009     -27.658415      1.0021734      2259294.4    
    900000   299.9531      -126562.67      16931.632     -109631.04      4.7987987      7.8311291     -18.960434      1.0008714      2262233.4    
    910000   300.83141     -126532.98      16981.211     -109551.77      5.2047125      12.208357      16.772251      1.0018046      2260126      
    920000   301.64817     -126514.84      17027.315     -109487.53      5.1256187      6.0026395      0.8617269      1.0015016      2260809.7    
    930000   301.01244     -126173.62      16991.43      -109182.19      5.2866829      8.0032035     -17.413234      0.99841689     2267794.8    
    940000   299.2364      -126482.23      16891.176     -109591.05      4.8542829      5.0301317      23.212317      1.0018388      2260048.9    
    950000   300.38341     -126148.38      16955.923     -109192.46      5.2303888      11.259436     -2.0362854      0.99931468     2265757.4    
    960000   300.26869     -126525.22      16949.447     -109575.77      4.6605848      8.7560344      20.941101      1.0020111      2259660.2    
    970000   299.1306      -126234.5       16885.204     -109349.3       5.3728476      8.6628751     -5.6736995      0.99926615     2265867.4    
    980000   299.7513      -126210.6       16920.242     -109290.36      4.8714112      4.9995262     -29.679578      0.99846924     2267675.9    
    990000   300.29322     -126375.94      16950.832     -109425.11      5.6102161      10.26627       43.232842      1.0017419      2260267.5    
   1000000   302.32439     -126283.16      17065.486     -109217.67      5.1076666      8.5200457      0.10830447     0.9998369      2264574      
   1010000   298.31614     -126234.58      16839.23      -109395.35      5.538384       13.485437      33.07109       1.0004977      2263078.4    
   1020000   299.55166     -126048.53      16908.972     -109139.56      5.4289272      11.262498      37.314629      0.99953085     2265267.4    
   1030000   299.67995     -126224.51      16916.214     -109308.3       5.259971       8.6871898      20.296826      1.0004191      2263256.1    
   1040000   298.22485     -126414.28      16834.077     -109580.2       4.6997785      8.2397181     -34.373437      0.9996361      2265028.8    
   1050000   299.23487     -126483.79      16891.09      -109592.7       5.4662494      9.0683136      34.623157      1.0022395      2259145.2    
   1060000   295.5846      -126247.42      16685.041     -109562.37      5.1624798      9.4815779     -8.5500449      0.99948955     2265361      
   1070000   300.3194      -126244.96      16952.309     -109292.65      5.5253843      13.217074      4.9411182      0.99976453     2264737.9    
   1080000   297.82634     -126292.97      16811.582     -109481.38      5.6279065      10.615096      44.118097      1.0014011      2261036.7    
   1090000   300.16632     -126368.42      16943.668     -109424.76      4.8403227      6.5658458      6.8871218      1.0007258      2262562.5    
   1100000   300.6122      -126420.67      16968.837     -109451.83      5.0604125      7.0920953     -2.4712589      1.0005285      2263008.7    
   1110000   299.91643     -126361.68      16929.563     -109432.12      5.3658306      5.7529294     -6.0790001      1.0002673      2263599.4    
   1120000   297.03297     -126394.2       16766.798     -109627.4       5.3271206      6.7890942     -10.788613      1.0000593      2264070.3    
   1130000   300.14447     -126392.14      16942.435     -109449.7       5.0645263      7.1457392      12.202293      1.0008769      2262220.9    
   1140000   302.37934     -126430.69      17068.588     -109362.1       5.4045727      5.8884906     -14.79667       1.0000895      2264001.9    
   1150000   300.73562     -126240.71      16975.804     -109264.9       4.8538017      5.0186088     -0.88442286     0.99942191     2265514.3    
   1160000   303.12669     -126706.53      17110.774     -109595.75      5.3792433      12.127485      46.496471      1.0038715      2255472.5    
   1170000   297.85438     -126224.08      16813.165     -109410.91      5.494506       10.984593     -1.7401039      0.99960145     2265107.4    
   1180000   299.83029     -126560.85      16924.7       -109636.15      5.4253657      12.576888      7.7974153      1.0017559      2260235.8    
   1190000   301.12751     -126841.21      16997.925     -109843.28      5.224934       12.022678     -35.677008      1.0019578      2259780.5    
   1200000   301.71778     -126420.21      17031.245     -109388.96      5.3790875      10.763322     -5.6337549      1.0003722      2263362.2    
   1210000   302.79526     -126312.7       17092.065     -109220.64      6.6360505      16.680149     -1.947378       0.99984456     2264556.6    
   1220000   299.91247     -126522.17      16929.339     -109592.83      5.9223574      13.191759     -29.194458      1.000469       2263143.2    
   1230000   299.63726     -126298.37      16913.804     -109384.57      5.3704207      12.298197      9.0297751      1.0000337      2264128.2    
   1240000   304.07159     -126259.31      17164.112     -109095.19      4.9032445      7.2851281      16.531957      0.99992604     2264372.1    
   1250000   300.7867      -126277.76      16978.687     -109299.08      4.8149416      7.0081533      17.310783      1.0003996      2263300.1    
   1260000   301.19766     -126497.58      17001.885     -109495.7       5.0690536      9.5374957      36.360499      1.0022888      2259034.1    
   1270000   297.01878     -126349.49      16765.997     -109583.49      5.2175609      11.39942      -30.329528      0.99934327     2265692.5    
   1280000   301.05189     -126229.49      16993.657     -109235.83      5.5557711      10.518688     -9.482052       0.99932654     2265730.5    
   1290000   300.69551     -126274.66      16973.54      -109301.12      5.153605       11.77403       5.73385        0.99985617     2264530.3    
   1300000   300.48788     -126397.42      16961.82      -109435.6       5.6353028      13.215866      13.85716       1.0008387      2262307.2    
   1310000   300.47459     -126383.06      16961.07      -109421.99      5.3216969      13.710393      25.240859      1.0012343      2261413.4    
   1320000   299.89847     -126420.19      16928.549     -109491.64      5.1588577      10.706189     -18.716491      1.0003037      2263517.2    
   1330000   298.43984     -126478.06      16846.213     -109631.85      5.4572017      12.204313     -2.4690646      1.0010005      2261941.4    
   1340000   302.42089     -126355.43      17070.933     -109284.49      6.5810911      19.425524      55.624504      1.0020665      2259535.2    
   1350000   301.10276     -126442.23      16996.528     -109445.7       6.7357424      19.276618      37.84968       1.002296       2259017.9    
   1360000   299.54501     -126374.75      16908.597     -109466.15      6.2359856      17.426592      3.7651572      1.0003247      2263469.6    
   1370000   298.31867     -126258         16839.373     -109418.63      5.8551854      15.233983      32.536917      1.0009439      2262069.4    
   1380000   298.09059     -126624.4       16826.498     -109797.9       5.0342535      9.8525522     -20.419677      1.0013824      2261079      
   1390000   297.67916     -126343.12      16803.274     -109539.85      4.7791359      5.3503861     -41.092335      0.99914504     2266142.1    
   1400000   300.68023     -126115.59      16972.677     -109142.91      4.7188674      9.7367671      0.32816807     0.99888937     2266722.1    
   1410000   297.50821     -126398.41      16793.624     -109604.78      4.6576367      10.17891      -3.758335       1.0004344      2263221.5    
   1420000   300.70369     -126209.32      16974.002     -109235.32      5.0956146      7.4947877      32.508577      1.000452       2263181.7    
   1430000   297.47744     -126385.58      16791.888     -109593.69      4.6169896      8.2803902      24.615888      1.0013182      2261223.8    
   1440000   296.84363     -126412.19      16756.11      -109656.08      4.8772794      8.5307386      5.4851917      1.0008245      2262339.3    
   1450000   297.97598     -126337.82      16820.029     -109517.79      5.0488332      10.134761      22.856709      1.0010445      2261842.2    
   1460000   302.4033      -126774.32      17069.94      -109704.38      5.0954215      10.246986      10.184825      1.0031491      2257096.8    
   1470000   298.87504     -126470.94      16870.778     -109600.16      5.0139137      5.0858973      17.568763      1.0017558      2260236.1    
   1480000   297.24852     -126442.33      16778.966     -109663.36      4.9209324      6.8074148      19.387875      1.0014862      2260844.5    
   1490000   298.48654     -126385.92      16848.849     -109537.08      4.8195661      7.0129772      9.4060968      1.0007242      2262565.9    
   1500000   296.35547     -126020.89      16728.555     -109292.34      4.6565328      5.5127877     -18.716571      0.99818149     2268329.6    
   1500328   299.42424     -126066.07      16901.779     -109164.29      4.6528121      5.3679371     -16.951523      0.99796459     2268822.6    
Loop time of 593.572 on 16 procs for 1000000 steps with 18938 atoms

Performance: 145.559 ns/day, 0.165 hours/ns, 1684.716 timesteps/s, 31.905 Matom-step/s
98.6% CPU use with 16 MPI tasks x no OpenMP threads

MPI task timing breakdown:
Section |  min time  |  avg time  |  max time  |%varavg| %total
---------------------------------------------------------------
Pair    | 347.6      | 360.25     | 373.91     |  30.9 | 60.69
Bond    | 0.28012    | 0.38713    | 1.3501     |  41.0 |  0.07
Neigh   | 27.202     | 27.224     | 27.254     |   0.3 |  4.59
Comm    | 123.05     | 136.45     | 149.82     |  50.5 | 22.99
Output  | 1.3083     | 1.6991     | 2.0835     |  18.1 |  0.29
Modify  | 56.607     | 57.309     | 57.93      |   5.3 |  9.65
Other   |            | 10.25      |            |       |  1.73

Nlocal:        1183.62 ave        1198 max        1169 min
Histogram: 1 2 0 1 4 2 3 1 1 1
Nghost:        2953.81 ave        2987 max        2925 min
Histogram: 2 1 1 3 2 2 2 0 1 2
Neighs:        43586.6 ave       44146 max       42605 min
Histogram: 1 0 1 0 3 3 0 4 1 3

Total # of neighbors = 697386
Ave neighs/atom = 36.824691
Ave special neighs/atom = 0.0025345865
Neighbor list builds = 18540
Dangerous builds = 0
unfix           equil
# -----------------------------------------------------
# 6. 数据输出
# -----------------------------------------------------


# # 写出最终体系数据文件
# write_data      pdms_out.data
Total wall time: 0:14:53
