LAMMPS (29 Aug 2024)
# LAMMPS输入文件示例：使用Martini 3粗粒化力场计算PDMS的均方回转半径
# -----------------------------------------------------
# 1. 初始化设置
# -----------------------------------------------------
units               real
dimension           3
boundary            p p p
atom_style          full

# 读取包含PDMS分子结构的data文件
read_data           PDMS_250_solvent.data
Reading data file ...
  orthogonal box = (-95 -95 -95) to (95 95 95)
  2 by 2 by 4 MPI processor grid
  reading atoms ...
  54330 atoms
  scanning bonds ...
  1 = max bonds/atom
  scanning angles ...
  1 = max angles/atom
  scanning dihedrals ...
  1 = max dihedrals/atom
  orthogonal box = (-95 -95 -95) to (95 95 95)
  2 by 2 by 4 MPI processor grid
  reading bonds ...
  249 bonds
  reading angles ...
  248 angles
  reading dihedrals ...
  247 dihedrals
Finding 1-2 1-3 1-4 neighbors ...
  special bond factors lj:    0        0        0       
  special bond factors coul:  0        0        0       
     2 = max # of 1-2 neighbors
     2 = max # of 1-3 neighbors
     4 = max # of 1-4 neighbors
     6 = max # of special neighbors
  special bonds CPU = 0.002 seconds
  read_data CPU = 0.089 seconds

# -----------------------------------------------------
# 2. 力场参数设置（Martini 3参数）
# -----------------------------------------------------
# 定义非键相互作用（示例：Lennard-Jones势，截断距离可参考Martini 3常用取值）
pair_style lj/cut   12.0
special_bonds       lj 0.0 0.0 0.5
Finding 1-2 1-3 1-4 neighbors ...
  special bond factors lj:    0        0        0.5     
  special bond factors coul:  0        0        0       
     2 = max # of 1-2 neighbors
     2 = max # of 1-3 neighbors
     4 = max # of 1-4 neighbors
     6 = max # of special neighbors
  special bonds CPU = 0.001 seconds
pair_coeff          1 1 0.7337 5.1
pair_coeff          2 2 0.7337 5.1
pair_coeff          1 2 0.7337 5.1
pair_coeff          1 3 0.5762 4.65
pair_coeff          2 3 0.5762 4.65
pair_coeff          3 3 1.1071 4.7
# 定义键、角、二面角势（示例参数，实际参数请参考相关文献）
bond_style          harmonic
bond_coeff          1 13.243 4.48
angle_style         harmonic
angle_coeff         1 5.48 86.0
dihedral_style      harmonic
dihedral_coeff      1 0.3346  1  1
# -----------------------------------------------------
# 3. 邻域列表设置
# -----------------------------------------------------
neigh_modify    one 1000
neighbor        1 bin
neigh_modify    delay 0 every 1 check yes

# -----------------------------------------------------
# 4. 能量最小化与预平衡
# -----------------------------------------------------
minimize        1.0e-4 1.0e-6 1000 10000

CITE-CITE-CITE-CITE-CITE-CITE-CITE-CITE-CITE-CITE-CITE-CITE-CITE

Your simulation uses code contributions which should be cited:

- Type Label Framework: https://doi.org/10.1021/acs.jpcb.3c08419

@Article{Gissinger24,
 author = {Jacob R. Gissinger, Ilia Nikiforov, Yaser Afshar, Brendon Waters, Moon-ki Choi, Daniel S. Karls, Alexander Stukowski, Wonpil Im, Hendrik Heinz, Axel Kohlmeyer, and Ellad B. Tadmor},
 title = {Type Label Framework for Bonded Force Fields in LAMMPS},
 journal = {J. Phys. Chem. B},
 year =    2024,
 volume =  128,
 number =  13,
 pages =   {3282–-3297}
}

CITE-CITE-CITE-CITE-CITE-CITE-CITE-CITE-CITE-CITE-CITE-CITE-CITE

Generated 0 of 3 mixed pair_coeff terms from geometric mixing rule
Neighbor list info ...
  update: every = 1 steps, delay = 0 steps, check = yes
  max neighbors/atom: 1000, page size: 100000
  master list distance cutoff = 13
  ghost atom cutoff = 13
  binsize = 6.5, bins = 30 30 30
  1 neighbor lists, perpetual/occasional/extra = 1 0 0
  (1) pair lj/cut, perpetual
      attributes: half, newton on
      pair build: half/bin/newton
      stencil: half/bin/3d
      bin: standard
Per MPI rank memory allocation (min/avg/max) = 8.691 | 9.142 | 9.607 Mbytes
   Step          Temp          E_pair         E_mol          TotEng         Press     
         0   0              3.594996e+12   704.7394       3.594996e+12   1.4375469e+11
        81   0             -291788.83      2031.3406     -289757.49      3651.4027    
Loop time of 0.235056 on 16 procs for 81 steps with 54330 atoms

96.1% CPU use with 16 MPI tasks x no OpenMP threads

Minimization stats:
  Stopping criterion = energy tolerance
  Energy initial, next-to-last, final = 
      3594996009407.38  -289756.404204867  -289757.494277184
  Force two-norm initial, final = 1.3268849e+14 230.32075
  Force max component initial, final = 7.5451403e+13 23.348508
  Final line search alpha, max atom move = 3.3445083e-05 0.00078089278
  Iterations, force evaluations = 81 99

MPI task timing breakdown:
Section |  min time  |  avg time  |  max time  |%varavg| %total
---------------------------------------------------------------
Pair    | 0.075573   | 0.1161     | 0.17448    |   7.2 | 49.39
Bond    | 4.1696e-05 | 0.00021922 | 0.00095628 |   0.0 |  0.09
Neigh   | 0.033993   | 0.0343     | 0.034761   |   0.1 | 14.59
Comm    | 0.016659   | 0.072344   | 0.11623    |   9.6 | 30.78
Output  | 0          | 0          | 0          |   0.0 |  0.00
Modify  | 0          | 0          | 0          |   0.0 |  0.00
Other   |            | 0.01209    |            |       |  5.14

Nlocal:        3395.62 ave        3699 max        2907 min
Histogram: 2 0 0 2 4 0 0 0 3 5
Nghost:        4842.56 ave        5137 max        4314 min
Histogram: 2 0 0 0 6 0 0 0 0 8
Neighs:         128172 ave      146516 max       95595 min
Histogram: 2 0 0 2 0 3 1 1 2 5

Total # of neighbors = 2050758
Ave neighs/atom = 37.746328
Ave special neighs/atom = 0.027388183
Neighbor list builds = 15
Dangerous builds = 0
fix             1 all npt temp 300.0 300.0 100.0 iso 1.0 1.0 1000
timestep        1
thermo_style    custom step temp press density vol
thermo          10000
run             500000
Generated 0 of 3 mixed pair_coeff terms from geometric mixing rule
Per MPI rank memory allocation (min/avg/max) = 7.566 | 8.041 | 8.482 Mbytes
   Step          Temp          Press         Density         Volume    
        81   0              3651.4027      0.94702285     6859000      
     10000   299.11963     -1.8954172      0.954711       6803765.5    
     20000   300.41901     -16.600561      0.96538036     6728570.4    
     30000   299.01514     -10.580027      0.97825183     6640038.4    
     40000   300.74985      0.92316266     0.98677353     6582695.5    
     50000   300.60109      14.396129      0.99275826     6543012.5    
     60000   299.69539     -7.8290305      0.99756328     6511496.4    
     70000   300.44508     -5.8129871      1.0008413      6490169.5    
     80000   300.84692     -10.194001      1.0005749      6491897.7    
     90000   299.08336     -15.473175      1.0007091      6491027      
    100000   300.46048      11.162991      1.0007333      6490870.2    
    110000   302.51664     -20.320148      1.0003585      6493302.1    
    120000   301.10118      16.740792      1.0008394      6490182      
    130000   300.76392     -0.66695803     0.99996717     6495843      
    140000   298.73935     -19.015684      1.0010483      6488827.6    
    150000   299.88094      9.4706608      1.0011168      6488383.6    
    160000   300.47419      4.059119       1.0001259      6494812.3    
    170000   301.13859      8.9482448      1.001051       6488810.2    
    180000   299.94819      27.780166      1.0017701      6484152.2    
    190000   301.72756     -20.46699       0.99937044     6499721.7    
    200000   299.47214     -14.46744       1.0003168      6493572.7    
    210000   300.72377      10.276809      1.0001837      6494436.6    
    220000   297.87938      9.0826745      1.0003011      6493674.7    
    230000   301.56947      2.6167928      1.0016445      6484965.1    
    240000   298.81056      5.0896886      1.0006459      6491437.2    
    250000   299.69964      4.0526462      0.99965687     6497859.3    
    260000   301.17234     -2.9839393      1.0004042      6493005      
    270000   299.16446     -3.1513947      1.0002779      6493825.4    
    280000   301.66483     -8.4761115      0.99890313     6502762.4    
    290000   299.32708      23.341205      1.0013178      6487080.9    
    300000   299.56538      5.5103793      1.0010042      6489113.6    
    310000   298.99125     -1.8920393      1.0002288      6494143.6    
    320000   299.633        7.2364127      1.0013227      6487049.2    
    330000   299.84248     -11.614943      1.0002112      6494258.4    
    340000   300.13608     -14.84555       1.0005646      6491964.4    
    350000   298.81228      16.26013       1.0009892      6489210.5    
    360000   298.99583     -13.779802      0.99965623     6497863.5    
    370000   299.11707      19.301503      1.000674       6491254.5    
    380000   300.66861     -8.7628373      1.0007145      6490992.2    
    390000   297.70869     -12.55027       0.99920332     6500808.8    
    400000   301.34466      14.707955      1.0011143      6488399.5    
    410000   300.64034     -2.6181127      1.0009379      6489543      
    420000   299.05884     -2.577366       1.0009632      6489378.8    
    430000   298.26306     -25.57168       0.99950509     6498846.1    
    440000   300.60644      25.550363      1.0017114      6484531.8    
    450000   299.44724      16.929014      1.0014176      6486434.6    
    460000   299.06832     -4.1043123      1.0004263      6492861.7    
    470000   300.59537     -3.2024933      0.99956541     6498453.9    
    480000   302.14787      16.610995      1.0000454      6495335.1    
    490000   300.35333     -9.7969861      1.0005706      6491925.5    
    500000   301.12658      6.4568169      1.0009398      6489530.6    
    500081   300.54271     -1.2902029      1.0005566      6492016.4    
Loop time of 823.809 on 16 procs for 500000 steps with 54330 atoms

Performance: 52.439 ns/day, 0.458 hours/ns, 606.937 timesteps/s, 32.975 Matom-step/s
99.0% CPU use with 16 MPI tasks x no OpenMP threads

MPI task timing breakdown:
Section |  min time  |  avg time  |  max time  |%varavg| %total
---------------------------------------------------------------
Pair    | 556.86     | 566.36     | 575.78     |  22.4 | 68.75
Bond    | 0.22729    | 1.2454     | 5.2635     | 149.9 |  0.15
Neigh   | 41.639     | 41.713     | 41.76      |   0.4 |  5.06
Comm    | 129.81     | 138.24     | 143.09     |  32.6 | 16.78
Output  | 0.0022315  | 0.0023488  | 0.0036488  |   0.7 |  0.00
Modify  | 64.374     | 65.036     | 65.626     |   4.3 |  7.89
Other   |            | 11.21      |            |       |  1.36

Nlocal:        3395.62 ave        3420 max        3366 min
Histogram: 2 1 1 0 2 1 3 3 1 2
Nghost:        5236.38 ave        5267 max        5196 min
Histogram: 2 1 0 1 3 0 1 6 1 1
Neighs:         125270 ave      126866 max      123291 min
Histogram: 2 0 1 1 1 4 3 2 0 2

Total # of neighbors = 2004327
Ave neighs/atom = 36.891717
Ave special neighs/atom = 0.027388183
Neighbor list builds = 9869
Dangerous builds = 0
unfix           1

# variable        lambda equal ramp(0.8,1.0)
# fix             2 all adapt 1 pair lj/cut/soft lambda * * v_lambda

# fix             3 all npt temp 300.0 300.0 100.0 iso 1.0 1.0 1000
# timestep        1
# thermo_style    custom step temp press density vol
# thermo          10000
# run             50000
# unfix           3

# -----------------------------------------------------
# 5. 计算均方回转半径
# -----------------------------------------------------
# 使用compute gyration命令计算整个体系的回转半径
fix             equil all npt temp 300.0 300.0 100.0 iso 1.0 1.0 1000
group           pdms id <= 250
250 atoms in group pdms
variable        d_end equal "sqrt((x[1]-x[250])^2 + (y[1]-y[250])^2 + (z[1]-z[250])^2)"
compute         rg pdms gyration
fix             avg pdms ave/time 1000 800 1000000 c_rg v_d_end file avg.txt
# 输出热力学信息及回转半径数据，每隔1000步输出一次
thermo_style    custom step temp pe ke etotal c_rg v_d_end press density vol
thermo          10000
# 输出轨迹文件，便于后续可视化与分析
dump            traj all custom 1000 dump.pdms.lammpstrj id type x y z
# 运行模拟，记录回转半径数据（后续可统计分析均值与波动）
run             1000000
Generated 0 of 3 mixed pair_coeff terms from geometric mixing rule
Per MPI rank memory allocation (min/avg/max) = 7.969 | 8.155 | 8.487 Mbytes
   Step          Temp          PotEng         KinEng         TotEng          c_rg         v_d_end         Press         Density         Volume    
    500081   300.54271     -361550.35      48671.217     -312879.14      15.333304      33.504294     -1.2902029      1.0005566      6492016.4    
    510000   299.97842     -361470.61      48579.834     -312890.78      15.110986      30.508983      11.914261      1.0005202      6492252.2    
    520000   300.50756     -361407.58      48665.525     -312742.05      15.323995      33.291496     -5.8575357      0.99999379     6495670      
    530000   298.23697     -361440.71      48297.817     -313142.89      15.238981      30.026298      0.32940866     1.0002332      6494115.6    
    540000   300.50224     -361230.44      48664.664     -312565.77      15.475998      32.995595     -19.331927      0.99910847     6501426      
    550000   301.21652     -361460.33      48780.338     -312679.99      15.286754      34.102342      2.9964321      1.0003323      6493471.6    
    560000   299.05554     -361235.1       48430.379     -312804.72      15.255894      34.748         7.5622733      1.000008       6495577.7    
    570000   299.07545     -361406.06      48433.604     -312972.46      15.175477      36.075695     -9.9830522      0.99996207     6495876.1    
    580000   301.93323     -361223.17      48896.404     -312326.77      15.314118      36.926106     -0.43355265     0.99963502     6498001.4    
    590000   300.14691     -361348.11      48607.12      -312740.99      15.357949      32.32866       26.143418      1.0011942      6487882      
    600000   298.63844     -361428.45      48362.832     -313065.62      15.408785      32.714271      10.445319      1.0005238      6492229.2    
    610000   301.32877     -361191.3       48798.515     -312392.78      15.300095      29.644736      17.1838        1.0001626      6494573.7    
    620000   298.99179     -361137.36      48420.055     -312717.3       15.267284      29.135783     -19.112912      0.99914924     6501160.7    
    630000   299.64569     -361387.35      48525.951     -312861.4       15.490415      29.946404      13.942087      1.0005441      6492097.6    
    640000   301.31061     -361967.92      48795.575     -313172.35      15.357353      31.228274      4.6068466      1.0014948      6485934.8    
    650000   300.6398      -361871.41      48686.941     -313184.47      15.486814      28.921026      23.628261      1.0018261      6483789.8    
    660000   300.51227     -361667.26      48666.289     -313000.97      15.495967      30.824951     -26.166909      0.99997326     6495803.4    
    670000   300.03652     -361601.5       48589.243     -313012.26      15.233415      31.137434      7.1100755      1.0008221      6490293.8    
    680000   299.01266     -361985.7       48423.434     -313562.26      15.282653      31.650305      10.329574      1.0015762      6485407.2    
    690000   297.95693     -361240.23      48252.465     -312987.77      15.285816      33.752087     -2.5099058      0.99980779     6496878.5    
    700000   300.53857     -361333.7       48670.548     -312663.15      15.144785      34.782144      4.4316143      1.0001302      6494784.1    
    710000   299.36466     -361429.08      48480.439     -312948.64      15.161781      31.982895     -13.745865      0.99986737     6496491.4    
    720000   299.67318     -361273.68      48530.401     -312743.28      15.265183      37.042139     -1.0232707      0.99967255     6497757.4    
    730000   300.75741     -361571.92      48705.988     -312865.93      15.324285      35.383826      3.8567925      1.0004548      6492677      
    740000   298.79243     -361145.17      48387.769     -312757.4       15.571718      33.819709      3.6993097      0.99957005     6498423.7    
    750000   299.55144     -361762.06      48510.686     -313251.38      15.179148      32.056527     -4.96658        1.0008789      6489925.6    
    760000   299.77445     -362485.81      48546.802     -313939.01      15.301329      33.598489      3.7147708      1.0024531      6479734.4    
    770000   299.07269     -361514.89      48433.156     -313081.73      15.384858      30.983092     -12.197226      0.99980579     6496891.5    
    780000   300.84461     -361905.17      48720.109     -313185.06      15.305471      33.183022      8.597814       1.0014257      6486382.3    
    790000   300.66909     -361730.5       48691.684     -313038.82      15.170497      28.144208     -4.6137228      1.0006136      6491646.8    
    800000   299.56598     -361599.98      48513.041     -313086.94      15.108097      32.132966     -0.73990741     1.0007398      6490827.8    
    810000   299.58227     -361368.11      48515.68      -312852.43      15.183555      32.49705      -16.529018      0.99969867     6497587.7    
    820000   300.31885     -361249.91      48634.965     -312614.94      15.245447      33.169626     -7.5825597      0.99960035     6498226.8    
    830000   300.01851     -360884.93      48586.326     -312298.61      15.230826      34.437296     -22.559893      0.99844811     6505725.9    
    840000   300.47681     -361489.46      48660.545     -312828.92      15.209386      31.254791     -27.683145      0.99935341     6499832.4    
    850000   301.61211     -360844.39      48844.402     -311999.99      15.164876      30.344313     -13.069199      0.99841762     6505924.6    
    860000   299.92804     -361259.9       48571.675     -312688.23      15.233237      28.766395      14.94201       1.0001051      6494947.1    
    870000   300.12554     -361348.6       48603.659     -312744.94      15.184188      26.286245     -12.450844      0.99965409     6497877.4    
    880000   300.15427     -360667.2       48608.311     -312058.89      15.471242      30.125615      9.4440323      0.99894284     6502503.9    
    890000   300.48288     -361080.08      48661.529     -312418.55      15.360742      33.933351      24.398738      1.0001815      6494451.3    
    900000   300.82846     -361516.71      48717.493     -312799.21      15.35922       32.102467     -13.204311      0.99985847     6496549.2    
    910000   300.81383     -361506.33      48715.124     -312791.2       15.41424       30.507796     -9.2281379      1.0000195      6495503.1    
    920000   298.25589     -361943.11      48300.88      -313642.23      15.458221      33.629304     -23.098225      1.0006802      6491214.1    
    930000   299.94596     -361784.15      48574.577     -313209.57      15.143857      32.974924     -11.023247      1.000633       6491520.5    
    940000   300.9114      -361818.01      48730.924     -313087.09      15.410555      32.571952      4.7080229      1.000908       6489737.3    
    950000   300.47577     -361129.55      48660.376     -312469.18      15.321109      35.965954     -12.056218      0.99916981     6501026.8    
    960000   299.38454     -361708.14      48483.659     -313224.48      15.170445      31.939154     -7.5558513      1.0006665      6491303      
    970000   301.12121     -361579.4       48764.902     -312814.49      15.347031      34.640617     -4.5465963      1.0003834      6493140.2    
    980000   300.40692     -361881.61      48649.228     -313232.38      15.273765      29.380224     -27.629848      1.0002414      6494062.3    
    990000   299.36901     -361364.71      48481.143     -312883.57      15.384388      30.248482     -9.3260833      0.99982846     6496744.2    
   1000000   299.01513     -361023.18      48423.835     -312599.34      15.306461      31.965964     -3.6176151      0.99921755     6500716.2    
   1010000   302.50706     -361406.57      48989.334     -312417.23      15.412139      28.369121     -2.2726764      0.99996536     6495854.8    
   1020000   299.12233     -361448         48441.195     -313006.8       15.173994      31.144621      13.29508       1.0008019      6490425.3    
   1030000   300.94295     -362015.48      48736.034     -313279.45      15.483231      35.490332     -3.1097376      1.0014229      6486400.1    
   1040000   300.70732     -361759.47      48697.876     -313061.59      15.206185      35.128011     -3.3595618      1.0007178      6490970.5    
   1050000   301.1942      -362020.03      48776.723     -313243.31      15.402216      32.415436     -10.597632      1.0010485      6488826      
   1060000   301.12303     -361526.76      48765.197     -312761.56      15.125707      29.989014      15.431616      1.0010618      6488739.7    
   1070000   301.26915     -361607.19      48788.86      -312818.33      15.360396      32.775944      24.236862      1.0013773      6486695.8    
   1080000   298.97695     -361312.05      48417.651     -312894.4       15.408932      35.762972      13.514502      1.0003286      6493496      
   1090000   302.37908     -361316.3       48968.608     -312347.69      15.452009      37.071792      3.105922       0.9999085      6496224.2    
   1100000   301.52855     -361259.73      48830.868     -312428.86      15.255445      34.662735      10.64031       1.0001445      6494690.9    
   1110000   300.30063     -361535.54      48632.014     -312903.53      15.237213      34.266655      15.005224      1.0008504      6490110.5    
   1120000   300.6607      -361393.96      48690.326     -312703.63      15.313054      37.066799      23.266037      1.0009707      6489330.8    
   1130000   300.46719     -361547.5       48658.987     -312888.51      15.413019      36.313563      7.9461141      1.0004836      6492489.9    
   1140000   300.34846     -361185.23      48639.76      -312545.47      15.268415      36.734777     -13.562233      0.99915552     6501119.8    
   1150000   301.12071     -361707.47      48764.822     -312942.65      15.407189      31.912192     -10.035366      1.0004757      6492541.4    
   1160000   298.36369     -361649.78      48318.338     -313331.44      15.441646      35.151522     -1.2684229      1.0006         6491734.5    
   1170000   299.60488     -362029.1       48519.341     -313509.75      15.600124      32.034192     -14.25055       1.0010669      6488707      
   1180000   299.67098     -361550.27      48530.046     -313020.22      15.571511      32.199333     -16.398485      0.9997728      6497105.8    
   1190000   298.92023     -361254.8       48408.467     -312846.34      15.533004      31.820483     -16.437903      0.99957585     6498386      
   1200000   302.32037     -361448.27      48959.1       -312489.17      15.395184      31.151783     -11.008228      0.9999063      6496238.5    
   1210000   299.60245     -361419.84      48518.947     -312900.89      15.408696      29.522609      4.0132776      1.0001944      6494367      
   1220000   299.46095     -361898.78      48496.033     -313402.75      15.321819      29.823763      8.6552089      1.0016008      6485248.1    
   1230000   301.5659      -361167.81      48836.917     -312330.89      15.314161      30.052248      22.405226      1.0002618      6493929.6    
   1240000   299.04215     -361346.01      48428.211     -312917.8       15.185717      33.524689      35.387556      1.0011564      6488126.6    
   1250000   300.12767     -361608.33      48604.003     -313004.33      15.375719      33.965901     -11.30636       1.0001164      6494873.4    
   1260000   300.59455     -361679.04      48679.613     -312999.42      15.23339       28.982096     -14.76851       1.0003213      6493543.2    
   1270000   301.20154     -361366.69      48777.912     -312588.78      15.270482      25.360773     -3.2320423      0.99999925     6495634.6    
   1280000   299.33379     -361871.02      48475.439     -313395.58      15.374088      32.475371     -13.659405      1.0006126      6491653.1    
   1290000   301.33849     -362109.02      48800.09      -313308.93      15.272883      29.249418     -3.8931868      1.0013505      6486869.3    
   1300000   301.30628     -361092.82      48794.874     -312297.95      15.092979      29.836419     -1.0423857      0.99934257     6499903      
   1310000   299.17306     -361858.27      48449.41      -313408.87      15.358206      29.896781     -2.0350903      1.0010778      6488636.1    
   1320000   299.83674     -361726.77      48556.89      -313169.88      15.188096      29.65146       15.996757      1.001485       6485998.3    
   1330000   298.15064     -361462.58      48283.835     -313178.75      15.459434      32.140207      6.7346363      1.0004969      6492404      
   1340000   300.52047     -361657.12      48667.616     -312989.51      15.378163      30.058107     -0.18264226     1.0006095      6491673.3    
   1350000   299.02072     -361441.42      48424.74      -313016.68      15.197719      32.064648     -24.213704      0.99960101     6498222.4    
   1360000   300.31687     -361191.59      48634.643     -312556.94      15.168201      32.813254     -1.3500666      0.99960122     6498221.1    
   1370000   300.29377     -361716.48      48630.903     -313085.58      15.189998      33.30106       25.451091      1.0013452      6486903.3    
   1380000   297.19566     -361112.11      48129.182     -312982.93      15.107412      30.659456     -18.117293      0.99921949     6500703.6    
   1390000   301.3921      -361301.67      48808.772     -312492.89      15.135181      30.604834      6.4566835      1.0000667      6495196.4    
   1400000   299.74854     -361624.44      48542.606     -313081.83      15.056591      33.585665      34.928956      1.0016277      6485073.8    
   1410000   299.62619     -361402.79      48522.792     -312880         15.284217      35.436913     -17.38856       0.99968601     6497670      
   1420000   299.50375     -361376.66      48502.964     -312873.69      15.222487      32.025561     -5.0065026      0.99996947     6495828      
   1430000   300.1248      -361058.99      48603.539     -312455.45      15.25467       36.029311     -5.4712191      0.99915028     6501153.9    
   1440000   299.19346     -361446.59      48452.713     -312993.88      15.308152      32.954335      6.7135742      1.000639       6491481.5    
   1450000   300.30549     -361333.05      48632.801     -312700.25      15.325783      36.553556     -3.696176       0.99994994     6495954.9    
   1460000   298.53808     -361845.58      48346.578     -313499         15.386801      35.38345      -9.0147835      1.0008216      6490297.4    
   1470000   299.34495     -361380.22      48477.247     -312902.97      15.286315      36.950603     -13.217499      0.99968389     6497683.7    
   1480000   298.90786     -361827.21      48406.463     -313420.74      15.287946      30.801972     -14.46749       1.0007454      6490791.5    
   1490000   300.80114     -361149.29      48713.068     -312436.22      15.380925      32.488627      20.642338      1.0003234      6493529.6    
   1500000   301.10032     -361215.26      48761.52      -312453.74      15.180826      28.59854      -0.24536201     0.99977484     6497092.6    
   1500081   300.73028     -361354.35      48701.593     -312652.75      15.201389      28.987096     -14.243218      0.99953496     6498651.8    
Loop time of 1657.4 on 16 procs for 1000000 steps with 54330 atoms

Performance: 52.130 ns/day, 0.460 hours/ns, 603.355 timesteps/s, 32.780 Matom-step/s
99.0% CPU use with 16 MPI tasks x no OpenMP threads

MPI task timing breakdown:
Section |  min time  |  avg time  |  max time  |%varavg| %total
---------------------------------------------------------------
Pair    | 1124.6     | 1136.8     | 1149.2     |  19.0 | 68.59
Bond    | 0.45413    | 2.464      | 12.806     | 224.8 |  0.15
Neigh   | 81.487     | 81.667     | 81.74      |   0.7 |  4.93
Comm    | 266        | 278.19     | 291.89     |  36.0 | 16.78
Output  | 3.6719     | 4.8339     | 5.9763     |  32.2 |  0.29
Modify  | 128.8      | 130.97     | 132.93     |  11.8 |  7.90
Other   |            | 22.44      |            |       |  1.35

Nlocal:        3395.62 ave        3422 max        3360 min
Histogram: 1 0 0 5 1 1 2 1 4 1
Nghost:        5246.19 ave        5287 max        5210 min
Histogram: 3 0 2 2 1 2 2 2 1 1
Neighs:         125141 ave      126652 max      123354 min
Histogram: 2 1 1 1 1 2 2 4 0 2

Total # of neighbors = 2002253
Ave neighs/atom = 36.853543
Ave special neighs/atom = 0.027388183
Neighbor list builds = 19210
Dangerous builds = 0
unfix           equil
# -----------------------------------------------------
# 6. 数据输出
# -----------------------------------------------------


# # 写出最终体系数据文件
# write_data      pdms_out.data
Total wall time: 0:41:21
