LAMMPS (29 Aug 2024)
# LAMMPS输入文件示例：使用Martini 3粗粒化力场计算PDMS的均方回转半径
# -----------------------------------------------------
# 1. 初始化设置
# -----------------------------------------------------
units               real
dimension           3
boundary            p p p
atom_style          full

# 读取包含PDMS分子结构的data文件
read_data           bad_pdms_150_box.data
Reading data file ...
  orthogonal box = (-2.100004 -1.605996 -2.182997) to (241.31 241.814 241.267)
  2 by 2 by 4 MPI processor grid
  reading atoms ...
  85200 atoms
  scanning bonds ...
  1 = max bonds/atom
  scanning angles ...
  1 = max angles/atom
  scanning dihedrals ...
  1 = max dihedrals/atom
  orthogonal box = (-2.100004 -1.605996 -2.182997) to (241.31 241.814 241.267)
  2 by 2 by 4 MPI processor grid
  reading bonds ...
  84632 bonds
  reading angles ...
  84064 angles
  reading dihedrals ...
  83496 dihedrals
Finding 1-2 1-3 1-4 neighbors ...
  special bond factors lj:    0        0        0       
  special bond factors coul:  0        0        0       
     2 = max # of 1-2 neighbors
     2 = max # of 1-3 neighbors
     4 = max # of 1-4 neighbors
     6 = max # of special neighbors
  special bonds CPU = 0.006 seconds
  read_data CPU = 0.505 seconds

# -----------------------------------------------------
# 2. 力场参数设置（Martini 3参数）
# -----------------------------------------------------
# 定义非键相互作用（示例：Lennard-Jones势，截断距离可参考Martini 3常用取值）
pair_style lj/cut   12.0
pair_coeff          1 1 0.7337 5.1
special_bonds       lj 0.0 0.0 0.5
Finding 1-2 1-3 1-4 neighbors ...
  special bond factors lj:    0        0        0.5     
  special bond factors coul:  0        0        0       
     2 = max # of 1-2 neighbors
     2 = max # of 1-3 neighbors
     4 = max # of 1-4 neighbors
     6 = max # of special neighbors
  special bonds CPU = 0.003 seconds
# 定义键、角、二面角势（示例参数，实际参数请参考相关文献）
bond_style          harmonic
bond_coeff          1 13.243 4.48
angle_style         harmonic
angle_coeff         1 5.48 86.0
dihedral_style      harmonic
dihedral_coeff      1 0.3346  1  1
# -----------------------------------------------------
# 3. 邻域列表设置
# -----------------------------------------------------
neigh_modify    one 1000
neighbor        1 bin
neigh_modify    delay 0 every 1 check yes

# -----------------------------------------------------
# 4. 能量最小化与预平衡
# -----------------------------------------------------
minimize        1.0e-4 1.0e-6 1000 10000

CITE-CITE-CITE-CITE-CITE-CITE-CITE-CITE-CITE-CITE-CITE-CITE-CITE

Your simulation uses code contributions which should be cited:

- Type Label Framework: https://doi.org/10.1021/acs.jpcb.3c08419

@Article{Gissinger24,
 author = {Jacob R. Gissinger, Ilia Nikiforov, Yaser Afshar, Brendon Waters, Moon-ki Choi, Daniel S. Karls, Alexander Stukowski, Wonpil Im, Hendrik Heinz, Axel Kohlmeyer, and Ellad B. Tadmor},
 title = {Type Label Framework for Bonded Force Fields in LAMMPS},
 journal = {J. Phys. Chem. B},
 year =    2024,
 volume =  128,
 number =  13,
 pages =   {3282–-3297}
}

CITE-CITE-CITE-CITE-CITE-CITE-CITE-CITE-CITE-CITE-CITE-CITE-CITE

Generated 0 of 0 mixed pair_coeff terms from geometric mixing rule
Neighbor list info ...
  update: every = 1 steps, delay = 0 steps, check = yes
  max neighbors/atom: 1000, page size: 100000
  master list distance cutoff = 13
  ghost atom cutoff = 13
  binsize = 6.5, bins = 38 38 38
  1 neighbor lists, perpetual/occasional/extra = 1 0 0
  (1) pair lj/cut, perpetual
      attributes: half, newton on
      pair build: half/bin/newton
      stencil: half/bin/3d
      bin: standard
Per MPI rank memory allocation (min/avg/max) = 9.579 | 10.1 | 10.49 Mbytes
   Step          Temp          E_pair         E_mol          TotEng         Press     
         0   0              7.1330728e+15  292577.29      7.1330728e+15  1.3563017e+14
      1000   0             -356013.83      217036.17     -138977.66      1286.532     
Loop time of 7.59842 on 16 procs for 1000 steps with 85200 atoms

97.7% CPU use with 16 MPI tasks x no OpenMP threads

Minimization stats:
  Stopping criterion = max iterations
  Energy initial, next-to-last, final = 
    7.13307282713164e+15  -138825.510733377  -138977.664228731
  Force two-norm initial, final = 4.5441221e+17 165.74161
  Force max component initial, final = 2.4490236e+17 18.904931
  Final line search alpha, max atom move = 0.0052514387 0.099278085
  Iterations, force evaluations = 1000 1020

MPI task timing breakdown:
Section |  min time  |  avg time  |  max time  |%varavg| %total
---------------------------------------------------------------
Pair    | 1.4894     | 2.9339     | 4.5707     |  49.7 | 38.61
Bond    | 0.36833    | 0.55225    | 0.80004    |  16.6 |  7.27
Neigh   | 1.5552     | 1.5599     | 1.5643     |   0.2 | 20.53
Comm    | 0.50565    | 2.1558     | 3.2519     |  52.3 | 28.37
Output  | 8.8077e-05 | 9.4145e-05 | 0.00018169 |   0.0 |  0.00
Modify  | 0          | 0          | 0          |   0.0 |  0.00
Other   |            | 0.3965     |            |       |  5.22

Nlocal:           5325 ave        7143 max        3789 min
Histogram: 4 1 1 2 0 0 3 2 2 1
Nghost:           4473 ave        5972 max        3047 min
Histogram: 2 5 1 0 0 0 0 2 4 2
Neighs:         203478 ave      294709 max      113903 min
Histogram: 3 0 2 3 0 0 3 1 3 1

Total # of neighbors = 3255655
Ave neighs/atom = 38.211913
Ave special neighs/atom = 5.92
Neighbor list builds = 136
Dangerous builds = 0
fix             1 all npt temp 300.0 300.0 100.0 iso 1.0 1.0 1000
timestep        1
thermo_style    custom step temp press density vol
thermo          10000
run             500000
Generated 0 of 0 mixed pair_coeff terms from geometric mixing rule
Per MPI rank memory allocation (min/avg/max) = 8.456 | 8.98 | 9.362 Mbytes
   Step          Temp          Press         Density         Volume    
      1000   0              1286.532       0.70618209     14424622     
     10000   300.85041     -12.975195      0.62467478     16306741     
     20000   300.50418      2.0629731      0.7141563      14263558     
     30000   300.7095      -10.789431      0.77974164     13063827     
     40000   300.57195     -5.368421       0.83153236     12250167     
     50000   299.1887       4.8910757      0.86570449     11766613     
     60000   299.52057      11.386342      0.88632051     11492919     
     70000   300.35744     -0.62354677     0.898634       11335438     
     80000   301.65901      15.347639      0.90886263     11207865     
     90000   299.97098      2.1876794      0.91664903     11112661     
    100000   300.37875      4.6331908      0.92229605     11044621     
    110000   300.28378     -0.70956635     0.92646105     10994968     
    120000   298.92978     -3.5721959      0.93110794     10940096     
    130000   300.0634      -0.97729277     0.93343219     10912855     
    140000   300.69625      13.199595      0.93677232     10873944     
    150000   299.44599     -6.1295384      0.93945935     10842843     
    160000   300.7009      -13.246577      0.94004699     10836065     
    170000   300.11374      13.593329      0.94211504     10812278     
    180000   300.90086      10.857618      0.94442959     10785780     
    190000   298.14058     -12.523807      0.9441857      10788566     
    200000   300.03754      12.308805      0.94669105     10760015     
    210000   299.32066      20.396571      0.94779917     10747435     
    220000   300.41527     -17.886013      0.9482397      10742442     
    230000   301.04754      7.0571266      0.9492983      10730463     
    240000   300.07749      11.463336      0.94945223     10728723     
    250000   299.16136      27.106679      0.95076645     10713893     
    260000   300.593        4.1555766      0.94951717     10727989     
    270000   300.6708       5.0813698      0.94976927     10725142     
    280000   299.69495      18.735239      0.95131856     10707675     
    290000   299.67658      3.5814616      0.95075182     10714058     
    300000   300.07596      20.823307      0.95167451     10703670     
    310000   300.06153     -16.224104      0.95164743     10703975     
    320000   299.34394      12.416615      0.95191455     10700971     
    330000   301.0593       7.2229008      0.95237116     10695840     
    340000   299.24526     -16.101092      0.95214882     10698338     
    350000   299.928        10.919369      0.95310695     10687583     
    360000   300.02669      43.882121      0.95380499     10679762     
    370000   300.20067      4.2061013      0.95341271     10684156     
    380000   300.02035     -2.7898947      0.95232223     10696390     
    390000   299.37318     -11.36238       0.95284484     10690523     
    400000   299.75846      0.49773546     0.9525939      10693339     
    410000   299.95899     -3.3253776      0.95236038     10695961     
    420000   300.77146      6.2357289      0.95343512     10683905     
    430000   300.38612     -4.5049463      0.95264057     10692816     
    440000   300.97913      7.4354043      0.95346161     10683608     
    450000   300.33439     -2.7434999      0.95399143     10677675     
    460000   300.47645     -7.9836221      0.95308801     10687796     
    470000   299.68664     -5.0863301      0.95114361     10709644     
    480000   299.41336      26.850675      0.95423436     10674956     
    490000   299.24735     -5.8608268      0.95230768     10696553     
    500000   301.0223       22.571841      0.954144       10675967     
    501000   298.9633       25.504178      0.95403842     10677149     
Loop time of 1635.66 on 16 procs for 500000 steps with 85200 atoms

Performance: 26.411 ns/day, 0.909 hours/ns, 305.687 timesteps/s, 26.045 Matom-step/s
98.8% CPU use with 16 MPI tasks x no OpenMP threads

MPI task timing breakdown:
Section |  min time  |  avg time  |  max time  |%varavg| %total
---------------------------------------------------------------
Pair    | 776.23     | 838.47     | 871.4      |  97.8 | 51.26
Bond    | 283.91     | 305.79     | 354.98     |  86.1 | 18.70
Neigh   | 81.762     | 81.802     | 81.829     |   0.3 |  5.00
Comm    | 220.44     | 289.23     | 356.59     | 186.7 | 17.68
Output  | 0.0029289  | 0.0030601  | 0.0045089  |   0.7 |  0.00
Modify  | 93.647     | 102.4      | 118.5      |  94.5 |  6.26
Other   |            | 17.97      |            |       |  1.10

Nlocal:           5325 ave        5391 max        5293 min
Histogram: 5 1 2 3 1 1 2 0 0 1
Nghost:        6651.75 ave        6699 max        6602 min
Histogram: 1 3 1 1 1 1 4 1 1 2
Neighs:         180382 ave      184198 max      178137 min
Histogram: 2 2 1 6 1 2 0 1 0 1

Total # of neighbors = 2886112
Ave neighs/atom = 33.874554
Ave special neighs/atom = 5.92
Neighbor list builds = 9824
Dangerous builds = 0
unfix           1

# variable        lambda equal ramp(0.8,1.0)
# fix             2 all adapt 1 pair lj/cut/soft lambda * * v_lambda

# fix             3 all npt temp 300.0 300.0 100.0 iso 1.0 1.0 1000
# timestep        1
# thermo_style    custom step temp press density vol
# thermo          10000
# run             50000
# unfix           3

# -----------------------------------------------------
# 5. 计算均方回转半径
# -----------------------------------------------------
# 使用compute gyration命令计算整个体系的回转半径
fix             equil all npt temp 300.0 300.0 100.0 iso 1.0 1.0 1000
group           pdms1 id <= 150
150 atoms in group pdms1
group           pdms2 id 151:300
150 atoms in group pdms2
group           pdms3 id 301:450
150 atoms in group pdms3
group           pdms4 id 451:600
150 atoms in group pdms4
group           pdms5 id 601:750
150 atoms in group pdms5
group           pdms6 id 751:900
150 atoms in group pdms6
group           pdms7 id 901:1050
150 atoms in group pdms7
group           pdms8 id 1051:1200
150 atoms in group pdms8
group           pdms9 id 1201:1350
150 atoms in group pdms9
group           pdms10 id 1351:1500
150 atoms in group pdms10
# variable        d_end equal "sqrt((x[1]-x[10])^2 + (y[1]-y[10])^2 + (z[1]-z[10])^2)"
compute         rg1 pdms1 gyration
compute         rg2 pdms2 gyration
compute         rg3 pdms3 gyration
compute         rg4 pdms4 gyration
compute         rg5 pdms5 gyration
compute         rg6 pdms6 gyration
compute         rg7 pdms7 gyration
compute         rg8 pdms8 gyration
compute         rg9 pdms9 gyration
compute         rg10 pdms10 gyration
# fix             avg pdms ave/time 1000 800 1000000 c_rg v_d_end file avg.txt
# 输出热力学信息及回转半径数据，每隔1000步输出一次
thermo_style    custom step temp pe ke etotal c_rg1 c_rg2 c_rg3 c_rg4 c_rg5 c_rg6 c_rg7 c_rg8 c_rg9 c_rg10 press density vol
# fix             avg pdms ave/time 1000 800 1000000 c_rg v_d_end file avg.txt
# 输出热力学信息及回转半径数据，每隔1000步输出一次
thermo          10000
# 输出轨迹文件，便于后续可视化与分析
dump            traj all custom 1000 dump.pdms.lammpstrj id type x y z
# 运行模拟，记录回转半径数据（后续可统计分析均值与波动）
run             1000000
Generated 0 of 0 mixed pair_coeff terms from geometric mixing rule
Per MPI rank memory allocation (min/avg/max) = 8.521 | 9.013 | 9.368 Mbytes
   Step          Temp          PotEng         KinEng         TotEng         c_rg1          c_rg2          c_rg3          c_rg4          c_rg5          c_rg6          c_rg7          c_rg8          c_rg9          c_rg10         Press         Density         Volume    
    501000   298.9633      -233151.05      75925.329     -157225.72      19.796773      19.879659      22.094736      20.224353      20.459486      20.516942      19.946615      20.887104      20.489599      22.159526      25.504178      0.95403842     10677149     
    510000   300.74278     -232348.65      76377.249     -155971.4       19.648705      19.701278      21.723249      20.648919      20.677751      20.840871      19.545458      20.787874      20.465183      21.758152     -6.7614345      0.95231154     10696510     
    520000   300.74161     -233450.7       76376.951     -157073.75      19.695026      19.835847      21.757518      20.506843      20.729664      20.389216      19.561403      20.875129      20.596285      21.590744      21.405962      0.95412806     10676145     
    530000   301.0733      -232875.47      76461.189     -156414.28      19.188599      19.998012      21.62207       20.319427      20.73898       20.869045      19.703704      20.727989      20.943025      21.464904      12.775628      0.95309346     10687735     
    540000   299.74067     -233123.58      76122.749     -157000.83      19.461665      19.690034      21.988604      19.949874      20.718864      20.234311      19.703609      20.919982      20.598087      22.055137     -14.731405      0.95320385     10686497     
    550000   300.61063     -233378.33      76343.689     -157034.65      19.23669       19.760532      21.923611      19.460292      20.66298       20.740819      19.620153      21.178374      20.385932      22.087993     -5.6210197      0.95307301     10687964     
    560000   301.74288     -233513.16      76631.235     -156881.93      19.035832      20.01429       22.100332      19.950654      20.983966      20.84523       19.557441      21.183287      20.632903      21.735838      26.218101      0.95443591     10672702     
    570000   299.88337     -233189.8       76158.992     -157030.81      19.689121      19.762916      22.086577      20.101528      21.006642      20.589273      19.88552       21.194055      20.34561       22.002161     -6.4390038      0.95380715     10679737     
    580000   300.80517     -233612.9       76393.093     -157219.81      19.646365      20.036651      22.048311      20.310159      20.865712      20.503759      19.615543      20.804497      20.343998      21.733242      20.295421      0.9548191      10668419     
    590000   301.09696     -233355.56      76467.196     -156888.37      19.582831      19.984419      21.886083      20.455817      21.01192       20.783502      19.634075      20.885986      20.385809      21.669523      14.461021      0.95428241     10674419     
    600000   299.91883     -232677.3       76167.996     -156509.3       20.213473      19.776044      22.010071      20.517635      20.739861      20.627901      19.408436      21.009573      20.348892      21.870531      6.1891694      0.95270491     10692094     
    610000   299.01394     -233160.97      75938.19      -157222.78      20.205307      19.751075      22.083297      20.664981      21.421284      20.336456      19.633226      20.875783      20.536412      21.386454      12.352476      0.95301603     10688603     
    620000   299.63007     -233023.63      76094.662     -156928.96      20.360861      19.793084      21.915281      20.359665      21.186825      21.093135      19.923182      21.198739      20.771243      21.359034      12.9246        0.95409799     10676482     
    630000   300.22257     -233267.3       76245.135     -157022.17      20.385214      20.28745       22.32832       20.254991      21.416761      20.950222      19.55776       21.285433      20.523336      21.239216     -9.2387028      0.95308276     10687855     
    640000   299.71606     -232951.06      76116.5       -156834.56      20.20758       20.391088      21.940134      20.152227      21.766651      20.768538      19.670366      21.243262      20.235666      20.91353       0.069626474    0.95352206     10682931     
    650000   300.49301     -233400.76      76313.816     -157086.95      20.385746      20.39102       21.311486      20.127081      21.232375      20.739611      19.798188      21.101822      20.225045      21.098652     -7.218619       0.95352753     10682869     
    660000   299.92493     -233318.18      76169.546     -157148.63      20.021504      20.036415      21.648609      20.359615      21.634299      20.96164       19.789039      20.904729      20.371412      21.020388      2.9853276      0.95331352     10685267     
    670000   299.51403     -233101.44      76065.192     -157036.25      19.928584      20.027742      21.468338      20.232849      21.113408      21.063011      19.690446      20.910972      20.316176      20.844267      15.647138      0.95430824     10674130     
    680000   299.69492     -232755.17      76111.132     -156644.03      19.660571      19.956977      21.295761      20.154363      21.120369      21.197854      19.492509      21.008418      20.205989      21.019207     -7.6001         0.95272424     10691877     
    690000   300.00083     -232580.37      76188.822     -156391.54      19.903772      19.847839      21.484185      20.294004      20.688369      21.493807      19.725643      21.434004      19.976506      21.216156     -1.8925332      0.95349231     10683264     
    700000   299.97959     -233277.17      76183.426     -157093.75      20.040626      19.996856      21.480513      19.953214      20.86024       21.389819      19.939534      21.04557       20.109697      21.126121      24.556589      0.95464848     10670325     
    710000   300.78164     -232767.29      76387.117     -156380.17      19.593235      19.907783      21.536028      20.796775      21.075291      21.525886      19.538954      20.934775      20.477031      20.721035      11.324944      0.95349732     10683208     
    720000   301.20397     -232425.99      76494.373     -155931.61      19.907589      19.473316      22.120189      20.56797       21.063442      21.524961      19.427407      21.174286      20.270581      20.9895        12.415795      0.95220379     10697720     
    730000   300.08407     -233211.23      76209.961     -157001.26      20.094703      19.632879      21.537577      20.134373      21.051837      21.279091      19.608322      21.024436      20.341162      21.107875     -2.071785       0.95422756     10675032     
    740000   300.5033      -233631.23      76316.43      -157314.8       20.051951      19.459884      21.643164      20.506         20.769143      21.223539      19.518112      20.527512      20.534968      21.157187     -1.3189849      0.95447472     10672268     
    750000   300.61868     -233516.65      76345.731     -157170.92      20.072819      19.679654      21.981728      20.72637       20.299575      21.141689      19.755249      20.643081      20.046726      21.240945      3.48236        0.95509177     10665373     
    760000   300.82121     -232916.38      76397.166     -156519.21      20.148949      19.425669      22.016328      20.876803      20.716233      20.998996      19.773485      20.141423      20.63799       21.034186      2.1229156      0.95353552     10682780     
    770000   300.68402     -233322.9       76362.326     -156960.57      20.042673      19.402742      22.251332      20.571812      20.67604       21.14882       19.776443      20.304228      20.609337      20.785112     -2.7655803      0.95394783     10678163     
    780000   298.9009      -232895.14      75909.481     -156985.66      19.593918      19.16665       22.346848      20.089142      20.439861      21.120152      20.047669      19.860609      20.38168       20.928088     -9.4328773      0.95346838     10683532     
    790000   300.63613     -232887.91      76350.164     -156537.75      19.535779      19.460396      22.166643      20.014048      20.432324      21.258712      20.0415        20.215526      20.534477      20.948391     -19.174738      0.95314897     10687112     
    800000   301.16261     -232632.46      76483.87      -156148.59      19.808857      19.332006      21.836278      20.136357      20.381436      21.322394      20.012586      20.424813      20.29658       21.232178     -0.2893411      0.95304766     10688248     
    810000   299.89928     -233286.03      76163.032     -157122.99      19.776216      19.378123      21.465348      20.244013      20.012942      21.369648      19.881293      20.43283       19.983608      21.109572      9.7030198      0.95387475     10678981     
    820000   300.03418     -232693.95      76197.29      -156496.66      19.772555      19.444103      21.426845      20.185346      20.21316       21.409332      19.42968       20.152997      19.949969      20.94976       3.8931015      0.95366523     10681327     
    830000   300.28322     -232667.41      76260.538     -156406.87      19.678258      19.390735      21.72118       19.903381      20.111532      21.291629      19.288428      20.505601      20.265957      20.953298      6.3302823      0.95300328     10688746     
    840000   298.86918     -233106.64      75901.427     -157205.21      20.023038      19.392739      21.596744      20.059222      20.153321      21.268436      19.646411      20.641376      19.956663      21.03433      -19.215203      0.95326039     10685863     
    850000   298.18704     -233371.84      75728.187     -157643.66      20.144104      19.746269      21.778392      20.458631      20.180388      21.144881      19.713812      20.736425      20.145928      20.799704      23.992445      0.95381028     10679702     
    860000   300.6826      -233110.38      76361.966     -156748.41      19.957522      19.613265      21.777746      20.378355      20.000874      21.193511      20.094194      20.605919      19.554824      21.299942      34.567092      0.95420636     10675269     
    870000   300.6556      -232784.53      76355.109     -156429.42      19.626036      19.355042      21.881141      20.627103      19.882822      20.82921       19.679784      20.669646      19.513353      21.466575      3.3783334      0.95203991     10699562     
    880000   299.58142     -233341.01      76082.308     -157258.7       19.485781      19.819039      21.951379      20.302493      19.869134      20.813604      19.910974      20.613464      19.207871      21.338768     -35.546011      0.95278938     10691146     
    890000   299.6312      -233153.15      76094.951     -157058.2       19.696609      19.643905      22.028885      20.182024      19.860755      21.401492      19.875375      20.302038      19.563872      21.145224     -3.2473963      0.95385709     10679178     
    900000   299.7571      -233166.35      76126.922     -157039.42      19.951579      19.353598      22.187216      20.562357      19.940867      21.128386      19.449286      20.499631      19.922611      21.259323     -8.5024814      0.95354578     10682665     
    910000   300.04138     -232981.57      76199.12      -156782.45      19.967476      19.410474      22.029194      20.49972       20.298902      21.235499      19.633481      19.979674      19.693417      21.268368     -0.97431299     0.95305806     10688132     
    920000   299.44704     -232615.88      76048.18      -156567.7       19.841704      19.69828       22.098693      20.168953      20.404533      21.420879      19.441193      20.059462      19.851009      21.789144     -11.419131      0.95304293     10688301     
    930000   299.30066     -233263.42      76011.006     -157252.41      20.208256      20.127772      22.18031       20.116055      20.534117      21.418113      19.44995       20.379108      19.424472      21.905816      2.8406373      0.95477144     10668951     
    940000   299.22176     -233122.85      75990.967     -157131.89      20.210378      20.18596       21.576222      20.430947      20.750765      21.451223      19.693017      20.434486      19.69278       21.893644     -6.3455802      0.95388585     10678856     
    950000   299.29376     -233001.46      76009.252     -156992.21      20.09416       20.090292      22.084137      20.517169      20.806521      21.093555      19.594902      19.913959      19.921775      21.986537     -17.44277       0.95226832     10696996     
    960000   300.92412     -232523.09      76423.303     -156099.79      19.97989       19.926357      22.073715      20.630282      20.312346      21.196019      19.243892      20.065568      19.117001      22.008246     -9.5205646      0.95247021     10694728     
    970000   299.47949     -232758.93      76056.42      -156702.51      19.848015      19.962012      21.734056      20.778849      20.618395      21.335541      19.571727      19.760956      19.341471      22.337535     -9.99382        0.95302472     10688505     
    980000   299.51206     -232642.43      76064.692     -156577.74      20.030144      19.91566       21.566314      20.80921       20.694226      21.384131      19.433604      20.126148      19.583789      22.268239     -7.5129621      0.95317661     10686802     
    990000   299.83231     -233159.5       76146.023     -157013.48      19.855352      19.611509      21.973828      20.698756      20.207825      22.038703      19.403936      20.345667      19.020649      21.922053     -14.388008      0.95313494     10687269     
   1000000   298.93172     -232650.37      75917.309     -156733.06      19.961205      19.479022      22.429179      20.554549      20.095916      21.466204      19.468864      20.395592      19.343149      21.809684      0.25648996     0.95374245     10680462     
   1010000   299.87842     -233116.5       76157.734     -156958.77      19.92856       19.634302      22.212035      20.568891      20.2696        21.223503      19.830371      20.063732      19.255221      21.840518      16.629774      0.95387204     10679011     
   1020000   300.67147     -233299.47      76359.138     -156940.33      20.055439      19.569349      22.308939      20.933408      20.216377      21.768826      19.681425      19.774751      19.488244      21.782977      4.4362338      0.95489431     10667578     
   1030000   301.1829      -232548.34      76489.022     -156059.32      20.047095      19.450203      21.98557       20.896656      20.340177      21.43955       19.981131      19.580256      19.222296      22.47014      -5.5843225      0.95260722     10693190     
   1040000   300.57601     -233113.79      76334.896     -156778.9       20.033982      19.529293      21.603242      20.825863      20.555281      21.697254      19.872427      19.231719      19.401492      22.467792     -6.2591681      0.9539126      10678557     
   1050000   299.85907     -232820.88      76152.82      -156668.06      19.66346       19.813956      21.82786       20.988762      20.615586      21.177371      20.122858      19.356135      19.208837      22.406241     -7.5839167      0.95288425     10690081     
   1060000   299.85567     -232795.25      76151.957     -156643.3       20.030509      19.93457       21.758055      21.040195      20.458151      20.85517       19.975453      19.563747      19.216071      22.162937      0.33119013     0.95245152     10694938     
   1070000   300.44229     -233333.78      76300.934     -157032.84      20.188248      19.894964      22.011681      21.136876      20.635071      20.852765      19.811236      19.830155      19.572102      22.332333      4.1175501      0.95441339     10672954     
   1080000   300.74392     -233314.89      76377.538     -156937.35      20.281597      20.149532      21.656892      21.270202      20.902982      21.334822      20.042973      19.601422      19.434304      22.541269     -14.666914      0.95314536     10687153     
   1090000   299.73739     -232993.02      76121.918     -156871.1       20.153406      20.003274      21.257783      20.9733        20.929191      21.035208      20.3451        19.360801      19.413439      22.518552     -9.3941651      0.95327484     10685701     
   1100000   300.48376     -233074.14      76311.467     -156762.68      20.148119      20.094691      21.358319      21.136954      21.166123      20.996421      19.938714      19.521194      19.795891      22.308439     -10.973437      0.95292418     10689633     
   1110000   298.25111     -232990.92      75744.458     -157246.46      20.171793      19.886777      21.544097      21.039482      20.851488      21.393467      19.705202      19.456029      19.623196      22.365588      19.358311      0.95340234     10684272     
   1120000   300.9312      -232490.81      76425.099     -156065.71      20.301868      19.820175      21.536713      20.87306       20.661399      21.265338      19.401919      19.177028      19.629471      22.077288      2.100292       0.95265195     10692688     
   1130000   300.03772     -233180.46      76198.191     -156982.27      20.348406      19.609093      21.699428      20.699122      20.723923      21.67176       19.66741       19.675527      19.971033      22.134511     -4.3529939      0.95293713     10689488     
   1140000   300.25528     -232902.75      76253.443     -156649.31      19.886468      19.959229      21.445027      20.284537      20.595683      21.077298      19.862761      19.765511      19.986698      22.082472     -9.6414722      0.95319795     10686563     
   1150000   298.75628     -232821.32      75872.753     -156948.56      20.099179      20.170018      21.440772      20.626046      20.671208      21.284721      19.342448      20.25391       20.022562      21.699808      17.912676      0.95418712     10675485     
   1160000   299.72666     -232764.23      76119.193     -156645.04      20.23195       19.919852      21.38887       20.417741      20.630234      21.038739      19.532509      19.992534      19.98433       21.824663      2.5672993      0.95375841     10680283     
   1170000   301.55884     -232404.63      76584.498     -155820.13      20.269117      20.275571      21.506774      20.566822      20.775101      21.056951      19.845416      20.313787      19.580433      21.455127      7.7688779      0.95273707     10691733     
   1180000   298.91161     -232897         75912.202     -156984.79      20.516138      20.208599      21.191667      20.860444      21.072009      21.036436      19.846973      20.274032      19.586472      21.900919     -18.37572       0.95335477     10684805     
   1190000   300.01725     -233170.47      76192.991     -156977.48      20.314232      20.265732      21.628556      20.829741      21.19403       20.877154      19.619074      19.971273      19.413723      22.062716     -24.519733      0.95346698     10683548     
   1200000   300.246       -232776.18      76251.084     -156525.1       20.246347      20.473864      21.41851       20.682421      20.855069      20.839101      19.962774      19.714442      19.455898      21.735146     -3.2508113      0.95354837     10682636     
   1210000   300.15693     -233050.61      76228.465     -156822.14      20.372605      20.559505      21.486029      20.267173      20.785776      20.894799      19.973256      19.591001      19.487438      21.922257      14.812238      0.95356845     10682411     
   1220000   299.64725     -232627.14      76099.025     -156528.11      20.569609      20.871208      21.184466      20.359596      21.182817      21.806649      19.848842      19.682435      19.567228      22.32521      -4.525615       0.95261253     10693130     
   1230000   299.61925     -232841.25      76091.915     -156749.34      20.659234      20.400964      21.116441      20.856719      21.101141      21.553654      20.087838      19.787839      19.556985      22.12129      -14.699293      0.95317738     10686794     
   1240000   300.56383     -233045.01      76331.802     -156713.21      20.529255      20.807973      21.373159      21.019586      21.011964      21.739423      19.833304      19.686568      19.53611       22.04537      -8.2603268      0.95431993     10673999     
   1250000   301.22641     -232932.44      76500.071     -156432.37      20.746036      20.584066      21.15786       20.693362      21.027915      21.842604      19.814975      19.480497      19.507959      22.025785     -13.280662      0.95341204     10684163     
   1260000   300.18273     -233168.84      76235.018     -156933.82      20.526919      21.021573      21.136341      20.639541      21.349544      21.667932      19.803256      19.550894      19.391238      21.942518      5.6143635      0.95389565     10678747     
   1270000   300.99429     -233358.65      76441.122     -156917.53      20.677339      21.127916      20.849581      21.379975      21.374416      21.864461      19.920587      19.423744      19.34291       21.981876      10.658821      0.95397944     10677809     
   1280000   298.6704      -232865.8       75850.942     -157014.86      20.735477      21.114319      21.132262      21.1291        21.88956       21.922396      19.860083      19.032458      19.025476      21.86517      -10.788896      0.95297903     10689018     
   1290000   299.7903      -232779.03      76135.354     -156643.68      20.912067      21.084914      21.475654      21.001928      21.82827       22.005239      19.891152      19.056584      19.091095      21.500393     -2.7009806      0.95345615     10683669     
   1300000   300.37971     -232850.16      76285.043     -156565.12      20.68733       20.754983      21.729206      20.998625      21.463241      22.039837      19.774406      18.986842      18.97526       21.596953     -11.744674      0.95332828     10685102     
   1310000   300.71817     -233436.5       76370.998     -157065.5       20.47759       21.191838      21.222565      20.625721      21.789141      21.922225      19.592949      19.109148      19.003554      21.496444      2.2316867      0.95448791     10672120     
   1320000   300.39853     -233276.06      76289.822     -156986.24      20.814547      21.221605      21.060822      20.95571       21.77506       21.540214      19.789127      18.850535      19.410347      21.467132      9.6151122      0.95355307     10682583     
   1330000   299.93376     -232796.28      76171.787     -156624.5       20.750872      21.261652      21.688001      20.58507       21.688681      21.257951      19.784045      18.652848      19.499165      21.143962     -6.2851712      0.95304305     10688300     
   1340000   298.97431     -232837.6       75928.124     -156909.47      20.601226      21.129328      21.717888      20.506144      21.592047      20.708664      19.35109       18.908985      19.624522      21.339652     -3.1461234      0.95307735     10687915     
   1350000   299.80677     -233033.22      76139.539     -156893.68      20.637859      20.88635       21.450703      20.390407      20.87865       20.898695      19.316601      18.687565      19.525758      21.317404     -10.880841      0.95337939     10684529     
   1360000   301.01685     -233381.04      76446.852     -156934.19      21.313455      21.053149      21.66487       21.193365      21.211383      21.164635      19.418991      18.566537      19.605228      21.187181     -10.322402      0.95412652     10676163     
   1370000   299.28608     -232242.47      76007.302     -156235.17      21.306206      21.130975      21.447374      21.495313      21.171589      21.139418      19.296602      19.139697      19.601916      21.429877     -15.698756      0.95300748     10688699     
   1380000   300.37509     -232736.7       76283.868     -156452.83      21.05142       20.513582      21.560832      21.60088       21.627972      21.144189      19.390023      19.030213      20.017286      21.221686     -5.0934749      0.95326102     10685856     
   1390000   299.49653     -233433.54      76060.749     -157372.79      20.688209      20.375024      21.28198       21.302051      21.859116      21.099685      19.283969      18.457618      19.951534      20.841217      28.317951      0.9542171      10675149     
   1400000   300.22373     -232920.37      76245.429     -156674.94      20.620945      20.566376      21.413385      21.258654      21.666015      21.004024      19.375835      18.692009      19.93829       21.465127     -8.5866107      0.9531707      10686869     
   1410000   298.46814     -233011.68      75799.577     -157212.1       20.782623      20.917931      21.127451      21.322119      21.688315      20.949869      19.126006      18.604487      20.545253      21.616619      6.934317       0.95403674     10677167     
   1420000   301.26248     -232945.02      76509.232     -156435.79      20.493249      20.818849      21.289825      21.712143      22.085732      20.780015      19.077402      18.451683      20.19808       21.581396      11.81597       0.9543314      10673871     
   1430000   299.95827     -232900.63      76178.012     -156722.61      20.712981      21.038194      21.367702      20.704915      21.789354      21.183698      18.923238      18.507518      20.057228      21.509725     -13.637078      0.95366027     10681382     
   1440000   299.05793     -233086.11      75949.36      -157136.75      20.943976      20.599159      21.131502      20.398454      21.827965      21.067315      19.386019      18.393249      20.423903      21.230139      4.6993944      0.95390268     10678668     
   1450000   300.83502     -232461.96      76400.675     -156061.29      20.704274      20.363891      21.617297      20.707398      21.589808      20.95325       19.577636      18.26768       20.849867      21.548339     -15.961334      0.95258445     10693446     
   1460000   299.36999     -232458.03      76028.613     -156429.42      21.035585      20.808702      21.292779      20.672705      21.170911      20.745183      19.225513      18.34582       20.638889      21.310129      8.0039162      0.95317074     10686868     
   1470000   299.16778     -232557.56      75977.259     -156580.3       20.721537      20.633891      21.142203      20.8041        21.362496      20.7247        19.434422      18.539734      20.848509      21.193771     -8.8885407      0.95333659     10685009     
   1480000   300.74794     -232956.26      76378.559     -156577.7       20.817067      20.619182      21.197326      20.651593      21.16318       20.864219      19.839243      18.567201      21.212844      21.393262     -31.476221      0.95323836     10686110     
   1490000   300.17547     -233110.66      76233.173     -156877.49      21.057103      20.44841       21.189097      20.483235      21.775088      20.700886      19.57615       18.621965      21.208767      21.225791      8.0095628      0.95314203     10687190     
   1500000   299.94906     -232918.55      76175.675     -156742.88      20.960825      20.203273      21.573917      20.757473      21.310779      20.487259      19.600791      18.685564      21.119524      21.277965      0.89407927     0.95320196     10686518     
   1501000   299.13458     -232822.22      75968.827     -156853.39      21.043122      20.25234       21.512242      20.814096      21.250632      20.488991      19.560675      18.409225      21.196093      21.333976     -6.7816094      0.95290301     10689871     
Loop time of 3252.91 on 16 procs for 1000000 steps with 85200 atoms

Performance: 26.561 ns/day, 0.904 hours/ns, 307.417 timesteps/s, 26.192 Matom-step/s
98.9% CPU use with 16 MPI tasks x no OpenMP threads

MPI task timing breakdown:
Section |  min time  |  avg time  |  max time  |%varavg| %total
---------------------------------------------------------------
Pair    | 1669.4     | 1702       | 1739.6     |  40.6 | 52.32
Bond    | 599.71     | 614.61     | 694.95     |  87.4 | 18.89
Neigh   | 160.89     | 160.99     | 161.11     |   0.4 |  4.95
Comm    | 459.19     | 535.35     | 580.04     | 130.4 | 16.46
Output  | 5.9445     | 7.7687     | 9.5946     |  40.3 |  0.24
Modify  | 187.77     | 197.15     | 211.22     |  57.7 |  6.06
Other   |            | 35.06      |            |       |  1.08

Nlocal:           5325 ave        5341 max        5278 min
Histogram: 1 0 0 0 0 2 2 3 3 5
Nghost:        6643.81 ave        6681 max        6597 min
Histogram: 1 1 1 1 2 3 2 2 1 2
Neighs:         180362 ave      181936 max      178921 min
Histogram: 2 1 2 4 1 0 2 0 1 3

Total # of neighbors = 2885787
Ave neighs/atom = 33.870739
Ave special neighs/atom = 5.92
Neighbor list builds = 19361
Dangerous builds = 0
unfix           equil
# -----------------------------------------------------
# 6. 数据输出
# -----------------------------------------------------


# # 写出最终体系数据文件
# write_data      pdms_out.data
Total wall time: 1:21:37
