LAMMPS (29 Aug 2024)
# LAMMPS输入文件示例：使用Martini 3粗粒化力场计算PDMS的均方回转半径
# -----------------------------------------------------
# 1. 初始化设置
# -----------------------------------------------------
units               real
dimension           3
boundary            p p p
atom_style          full

# 读取包含PDMS分子结构的data文件
read_data           bad_pdms_250_box.data
Reading data file ...
  orthogonal box = (-2.524496 -2.210001 -2.483001) to (241.0155 241.26999 240.987)
  4 by 2 by 2 MPI processor grid
  reading atoms ...
  45000 atoms
  scanning bonds ...
  1 = max bonds/atom
  scanning angles ...
  1 = max angles/atom
  scanning dihedrals ...
  1 = max dihedrals/atom
  orthogonal box = (-2.524496 -2.210001 -2.483001) to (241.0155 241.26999 240.987)
  4 by 2 by 2 MPI processor grid
  reading bonds ...
  44820 bonds
  reading angles ...
  44640 angles
  reading dihedrals ...
  44460 dihedrals
Finding 1-2 1-3 1-4 neighbors ...
  special bond factors lj:    0        0        0       
  special bond factors coul:  0        0        0       
     2 = max # of 1-2 neighbors
     2 = max # of 1-3 neighbors
     4 = max # of 1-4 neighbors
     6 = max # of special neighbors
  special bonds CPU = 0.004 seconds
  read_data CPU = 0.288 seconds

# -----------------------------------------------------
# 2. 力场参数设置（Martini 3参数）
# -----------------------------------------------------
# 定义非键相互作用（示例：Lennard-Jones势，截断距离可参考Martini 3常用取值）
pair_style lj/cut   12.0
special_bonds       lj 0.0 0.0 0.5
Finding 1-2 1-3 1-4 neighbors ...
  special bond factors lj:    0        0        0.5     
  special bond factors coul:  0        0        0       
     2 = max # of 1-2 neighbors
     2 = max # of 1-3 neighbors
     4 = max # of 1-4 neighbors
     6 = max # of special neighbors
  special bonds CPU = 0.002 seconds
pair_coeff          1 1 0.7337 5.1
# 定义键、角、二面角势（示例参数，实际参数请参考相关文献）
bond_style          harmonic
bond_coeff          1 13.243 4.48
angle_style         harmonic
angle_coeff         1 5.48 86.0
dihedral_style      harmonic
dihedral_coeff      1 0.3346  1  1
# -----------------------------------------------------
# 3. 邻域列表设置
# -----------------------------------------------------
neigh_modify    one 1000
neighbor        1 bin
neigh_modify    delay 0 every 1 check yes

# -----------------------------------------------------
# 4. 能量最小化与预平衡
# -----------------------------------------------------
minimize        1.0e-4 1.0e-6 1000 10000

CITE-CITE-CITE-CITE-CITE-CITE-CITE-CITE-CITE-CITE-CITE-CITE-CITE

Your simulation uses code contributions which should be cited:

- Type Label Framework: https://doi.org/10.1021/acs.jpcb.3c08419

@Article{Gissinger24,
 author = {Jacob R. Gissinger, Ilia Nikiforov, Yaser Afshar, Brendon Waters, Moon-ki Choi, Daniel S. Karls, Alexander Stukowski, Wonpil Im, Hendrik Heinz, Axel Kohlmeyer, and Ellad B. Tadmor},
 title = {Type Label Framework for Bonded Force Fields in LAMMPS},
 journal = {J. Phys. Chem. B},
 year =    2024,
 volume =  128,
 number =  13,
 pages =   {3282–-3297}
}

CITE-CITE-CITE-CITE-CITE-CITE-CITE-CITE-CITE-CITE-CITE-CITE-CITE

Generated 0 of 0 mixed pair_coeff terms from geometric mixing rule
Neighbor list info ...
  update: every = 1 steps, delay = 0 steps, check = yes
  max neighbors/atom: 1000, page size: 100000
  master list distance cutoff = 13
  ghost atom cutoff = 13
  binsize = 6.5, bins = 38 38 38
  1 neighbor lists, perpetual/occasional/extra = 1 0 0
  (1) pair lj/cut, perpetual
      attributes: half, newton on
      pair build: half/bin/newton
      stencil: half/bin/3d
      bin: standard
Per MPI rank memory allocation (min/avg/max) = 8.658 | 8.74 | 9.125 Mbytes
   Step          Temp          E_pair         E_mol          TotEng         Press     
         0   0              1.2577438e+12  133332.57      1.2577439e+12  2.3894919e+10
       935   0             -133018.19      37130.182     -95888.012     -90.405037    
Loop time of 1.90595 on 16 procs for 935 steps with 45000 atoms

98.3% CPU use with 16 MPI tasks x no OpenMP threads

Minimization stats:
  Stopping criterion = energy tolerance
  Energy initial, next-to-last, final = 
      1257743934833.77  -95878.7118419265  -95888.0119730322
  Force two-norm initial, final = 1.717759e+12 40.748413
  Force max component initial, final = 9.1109908e+10 13.062578
  Final line search alpha, max atom move = 0.0071054503 0.092815502
  Iterations, force evaluations = 935 937

MPI task timing breakdown:
Section |  min time  |  avg time  |  max time  |%varavg| %total
---------------------------------------------------------------
Pair    | 0.5112     | 0.72404    | 0.94136    |  16.6 | 37.99
Bond    | 0.1599     | 0.23814    | 0.29122    |   7.4 | 12.49
Neigh   | 0.41944    | 0.42174    | 0.4244     |   0.3 | 22.13
Comm    | 0.13092    | 0.41534    | 0.72511    |  27.6 | 21.79
Output  | 0          | 0          | 0          |   0.0 |  0.00
Modify  | 0          | 0          | 0          |   0.0 |  0.00
Other   |            | 0.1067     |            |       |  5.60

Nlocal:         2812.5 ave        3557 max        1965 min
Histogram: 1 1 1 2 2 3 2 1 1 2
Nghost:        2418.06 ave        2989 max        1715 min
Histogram: 4 1 0 0 2 1 0 1 3 4
Neighs:        65570.5 ave       91452 max       43752 min
Histogram: 2 2 1 1 5 1 0 1 2 1

Total # of neighbors = 1049128
Ave neighs/atom = 23.313956
Ave special neighs/atom = 5.952
Neighbor list builds = 128
Dangerous builds = 0
fix             1 all npt temp 600.0 600.0 100.0 iso 1.0 1.0 1000
timestep        1
thermo_style    custom step temp press density vol
thermo          10000
run             500000
Generated 0 of 0 mixed pair_coeff terms from geometric mixing rule
Per MPI rank memory allocation (min/avg/max) = 7.534 | 7.616 | 8.001 Mbytes
   Step          Temp          Press         Density         Volume    
       935   0             -90.405037      0.37266194     14437069     
     10000   598.45659     -6.3976973      0.39506208     13618483     
     20000   600.85684      7.130951       0.44553733     12075635     
     30000   606.93802     -2.1522458      0.46709822     11518233     
     40000   600.0187      -2.6051334      0.48759266     11034100     
     50000   598.22123      13.583892      0.51033326     10542417     
     60000   600.55        -6.4418784      0.53720743     10015025     
     70000   602.16869     -5.1518149      0.56767407     9477526.6    
     80000   598.10485      12.253177      0.60212042     8935332.4    
     90000   602.40898      24.842219      0.6311128      8524856.5    
    100000   602.44938     -1.4040631      0.6633872      8110114.4    
    110000   596.36978      2.2472458      0.69089559     7787205.8    
    120000   599.33996     -8.2860399      0.7160696      7513440.2    
    130000   599.19077      7.2792325      0.73645577     7305457.2    
    140000   595.78361     -4.3245333      0.75150626     7159150.1    
    150000   599.28545     -22.475807      0.76593705     7024266.7    
    160000   602.25777      34.885233      0.77611472     6932153.2    
    170000   598.28399     -7.2503402      0.7821147      6878973.2    
    180000   600.1096      -16.800874      0.78723059     6834269.6    
    190000   600.96691      5.2909099      0.78951284     6814513.7    
    200000   599.11306     -26.172885      0.79246637     6789115.9    
    210000   602.01163     -26.579014      0.79582207     6760488.7    
    220000   601.0896       22.492688      0.79715179     6749211.6    
    230000   598.00936     -5.9540789      0.79863201     6736702.3    
    240000   608.46808      7.6428748      0.79957114     6728789.7    
    250000   601.27879      28.26142       0.80146944     6712852.5    
    260000   606.26807     -0.77913506     0.80287578     6701094.1    
    270000   599.85717     -20.214626      0.80487784     6684425.7    
    280000   602.65807      15.433372      0.80572919     6677362.8    
    290000   602.89895      44.890258      0.80668287     6669468.7    
    300000   599.67226     -26.362989      0.80718359     6665331.3    
    310000   598.49011      8.2811516      0.80993282     6642706.7    
    320000   597.63302      14.140414      0.81135733     6631044      
    330000   600.19133      12.830477      0.80512406     6682381.5    
    340000   602.51752      16.911605      0.80615712     6673818.2    
    350000   601.15802      9.5180511      0.80865491     6653204.1    
    360000   601.99005     -37.849317      0.80659261     6670214.9    
    370000   597.65808      0.25552646     0.80590594     6675898.3    
    380000   600.23939      16.38442       0.81014787     6640943.3    
    390000   599.86326      2.5679827      0.80940479     6647040.1    
    400000   602.71547     -12.676537      0.80464833     6686332.3    
    410000   599.6936      -6.1036391      0.80659813     6670169.3    
    420000   600.91786     -28.243245      0.80645038     6671391.3    
    430000   601.28057      3.8377565      0.80613542     6673997.9    
    440000   600.40092      13.903577      0.80835649     6655660.2    
    450000   595.24975     -13.981029      0.80727326     6664591      
    460000   604.83331      18.027233      0.80888613     6651302.2    
    470000   601.8945      -23.488133      0.80774118     6660730.2    
    480000   601.0201      -9.4033629      0.80591489     6675824.1    
    490000   596.38499     -27.570308      0.80868051     6652993.4    
    500000   598.5178      -19.120733      0.80562952     6678188.9    
    500935   598.18815     -3.9106775      0.8096469      6645052.5    
Loop time of 822.77 on 16 procs for 500000 steps with 45000 atoms

Performance: 52.506 ns/day, 0.457 hours/ns, 607.703 timesteps/s, 27.347 Matom-step/s
98.6% CPU use with 16 MPI tasks x no OpenMP threads

MPI task timing breakdown:
Section |  min time  |  avg time  |  max time  |%varavg| %total
---------------------------------------------------------------
Pair    | 329.08     | 368.41     | 412.22     | 120.3 | 44.78
Bond    | 144.54     | 158.17     | 173.98     |  67.9 | 19.22
Neigh   | 55.194     | 55.284     | 55.366     |   0.9 |  6.72
Comm    | 115.73     | 169.39     | 223.96     | 214.6 | 20.59
Output  | 0.0021605  | 0.0022804  | 0.0035971  |   0.7 |  0.00
Modify  | 55.038     | 60.838     | 73.787     |  92.7 |  7.39
Other   |            | 10.67      |            |       |  1.30

Nlocal:         2812.5 ave        2855 max        2760 min
Histogram: 1 1 0 2 2 4 3 0 0 3
Nghost:           4312 ave        4371 max        4243 min
Histogram: 2 2 1 2 0 2 0 1 3 3
Neighs:        80738.3 ave       82779 max       78099 min
Histogram: 1 1 0 2 2 4 1 2 0 3

Total # of neighbors = 1291813
Ave neighs/atom = 28.706956
Ave special neighs/atom = 5.952
Neighbor list builds = 13502
Dangerous builds = 0
unfix           1

# variable        lambda equal ramp(0.8,1.0)
# fix             2 all adapt 1 pair lj/cut/soft lambda * * v_lambda

# fix             3 all npt temp 600.0 600.0 100.0 iso 1.0 1.0 1000
# timestep        1
# thermo_style    custom step temp press density vol
# thermo          10000
# run             50000
# unfix           3

# -----------------------------------------------------
# 5. 计算均方回转半径
# -----------------------------------------------------
# 使用compute gyration命令计算整个体系的回转半径
fix             equil all npt temp 600.0 600.0 100.0 iso 1.0 1.0 1000
group           pdms1 id <= 250
250 atoms in group pdms1
group           pdms2 id 251:500
250 atoms in group pdms2
group           pdms3 id 501:750
250 atoms in group pdms3
group           pdms4 id 751:1000
250 atoms in group pdms4
group           pdms5 id 1001:1250
250 atoms in group pdms5
group           pdms6 id 1251:1500
250 atoms in group pdms6
group           pdms7 id 1501:1750
250 atoms in group pdms7
group           pdms8 id 1751:2000
250 atoms in group pdms8
group           pdms9 id 2001:2250
250 atoms in group pdms9
group           pdms10 id 2251:2500
250 atoms in group pdms10
# variable        d_end equal "sqrt((x[1]-x[10])^2 + (y[1]-y[10])^2 + (z[1]-z[10])^2)"
compute         rg1 pdms1 gyration
compute         rg2 pdms2 gyration
compute         rg3 pdms3 gyration
compute         rg4 pdms4 gyration
compute         rg5 pdms5 gyration
compute         rg6 pdms6 gyration
compute         rg7 pdms7 gyration
compute         rg8 pdms8 gyration
compute         rg9 pdms9 gyration
compute         rg10 pdms10 gyration
variable        d_end equal "sqrt((x[1]-x[250])^2 + (y[1]-y[250])^2 + (z[1]-z[250])^2)"
# fix             avg pdms ave/time 1000 800 1000000 c_rg v_d_end file avg.txt
# 输出热力学信息及回转半径数据，每隔1000步输出一次
thermo_style    custom step temp pe ke etotal c_rg1 c_rg2 c_rg3 c_rg4 c_rg5 c_rg6 c_rg7 c_rg8 c_rg9 c_rg10 press density vol
thermo          10000
# 输出轨迹文件，便于后续可视化与分析
dump            traj all custom 1000 dump.pdms.lammpstrj id type x y z
# 运行模拟，记录回转半径数据（后续可统计分析均值与波动）
run             1000000
Generated 0 of 0 mixed pair_coeff terms from geometric mixing rule
Per MPI rank memory allocation (min/avg/max) = 7.579 | 7.674 | 8.013 Mbytes
   Step          Temp          PotEng         KinEng         TotEng         c_rg1          c_rg2          c_rg3          c_rg4          c_rg5          c_rg6          c_rg7          c_rg8          c_rg9          c_rg10         Press         Density         Volume    
    500935   598.18815     -58703.054      80237.053      21533.999      37.833879      30.487157      30.066019      28.479386      30.273558      33.238832      35.634898      32.290364      30.907115      25.805767     -3.9106775      0.8096469      6645052.5    
    510000   597.65164     -57259.46       80165.09       22905.63       38.266922      30.163663      29.907138      29.228784      29.879819      32.656833      36.28493       32.488618      30.49439       24.881399     -17.06542       0.80487261     6684469.1    
    520000   604.11759     -56993.54       81032.39       24038.849      38.127113      30.06463       29.74651       29.040374      30.882168      32.278844      35.74716       31.779061      30.717672      24.808081      0.19764337     0.80467906     6686076.9    
    530000   600.27212     -57931.807      80516.583      22584.776      37.511168      29.959826      30.393681      29.923053      31.255615      32.393933      36.050469      32.435099      30.848924      25.575745      27.011494      0.80850343     6654450.6    
    540000   596.36869     -57007.562      79993.003      22985.441      37.283318      30.473018      29.231486      29.493643      31.882671      32.242571      35.626861      32.490926      31.414642      25.293222      41.095041      0.80698874     6666940.7    
    550000   598.00123     -57759.419      80211.981      22452.562      37.963073      30.937666      28.894733      28.447483      31.874893      32.137203      35.797128      31.965477      30.895036      25.814733      10.708404      0.8076131      6661786.6    
    560000   603.90275     -58032.284      81003.573      22971.288      38.012802      30.653412      28.724369      28.463682      31.735839      31.575264      36.516462      32.186691      30.547424      26.643358      50.610951      0.81210443     6624943.6    
    570000   599.27661     -58184.765      80383.052      22198.287      38.309448      30.943302      28.691787      28.521198      31.64102       31.418704      37.293887      31.21871       30.496842      26.119289     -26.11861       0.80610993     6674208.9    
    580000   598.7194      -58348.412      80308.311      21959.899      37.80578       30.703225      28.863994      28.541539      30.760989      31.490699      38.034775      29.696113      30.790886      25.480511     -5.9798369      0.80985644     6643333.1    
    590000   598.97956     -57149.621      80343.207      23193.587      37.089634      31.210171      28.686025      28.241067      30.854935      30.815383      38.004738      30.224268      31.369085      25.511941     -2.4776122      0.80647293     6671204.8    
    600000   602.09356     -57653.811      80760.899      23107.089      37.335162      31.064025      29.482178      28.332448      33.311097      31.124277      38.633562      31.197317      30.874681      25.431067     -43.66612       0.80673988     6668997.3    
    610000   602.17714     -57698.833      80772.11       23073.277      37.605398      29.493935      28.864351      28.783639      33.368891      31.494628      38.383572      31.159718      30.805894      25.726078     -10.396962      0.80814871     6657371.4    
    620000   598.97717     -57575.509      80342.887      22767.378      37.28892       29.919166      29.584901      28.805336      33.774391      31.965014      37.2535        31.444117      31.337564      26.45412      -10.905101      0.80636231     6672120      
    630000   601.39876     -58337.205      80667.704      22330.5        37.205522      29.605042      30.448757      27.835116      33.698512      31.683817      37.367079      31.957021      30.779095      25.897872     -11.136714      0.80901785     6650219.2    
    640000   602.21088     -57611.076      80776.635      23165.559      37.483139      29.144903      29.96513       27.846768      34.148657      33.158928      37.6692        32.068483      30.655939      26.165591      11.478235      0.80579189     6676843.2    
    650000   597.34779     -57933.096      80124.332      22191.236      37.427461      28.713775      30.046981      28.028761      34.589573      33.725479      38.174007      31.820255      31.724677      26.331248     -0.52713701     0.80879229     6652073.9    
    660000   595.91347     -56997.693      79931.943      22934.249      36.620194      28.711119      29.968237      28.245086      35.585348      34.574079      38.189657      32.106675      31.138187      26.911614      8.0004528      0.80383805     6693072.2    
    670000   600.92689     -57521.898      80604.41       23082.512      37.086062      28.870315      29.722522      27.684403      36.427041      34.265533      37.952175      32.4639        31.578323      26.329792     -6.1913518      0.8091046      6649506.2    
    680000   600.38914     -57531.153      80532.28       23001.126      37.547848      29.169646      29.977853      28.131778      36.571864      34.384027      38.267562      32.453671      32.476351      26.014014     -37.874004      0.80825894     6656463.4    
    690000   601.76233     -57769.743      80716.47       22946.727      37.760098      28.556505      29.644461      28.908023      36.261212      34.204567      38.241679      32.875905      31.952638      26.35426       11.953971      0.80893154     6650928.8    
    700000   598.70509     -57650.44       80306.392      22655.952      38.149142      28.996798      29.309262      28.82624       35.832705      34.457029      38.755841      32.974898      31.705042      25.94663      -12.902169      0.80815424     6657325.8    
    710000   601.03525     -57413.323      80618.945      23205.622      37.974543      29.30943       29.231812      28.675811      36.789662      34.279121      39.387601      33.022632      31.536246      24.988838      3.002951       0.80545716     6679617.9    
    720000   603.31365     -58130.352      80924.554      22794.202      38.215593      29.086704      29.94655       28.812373      36.600267      33.11137       39.027928      32.52821       31.303775      26.126267     -33.718838      0.80825797     6656471.5    
    730000   598.00325     -57673.226      80212.251      22539.026      38.448273      28.503387      30.437006      27.988981      36.671081      33.750318      39.292176      32.953572      32.436487      25.816392      16.457371      0.80476093     6685396.7    
    740000   603.56502     -57562.465      80958.272      23395.807      37.483307      29.710451      30.580032      27.879227      36.75109       33.339223      38.99925       32.577038      31.911537      26.196314      26.461089      0.80852048     6654310.2    
    750000   602.87434     -58373.008      80865.628      22492.621      38.442314      28.776482      31.164965      28.109059      36.784331      33.611677      39.116237      32.264024      32.207524      25.452276      9.6130003      0.80951848     6646106.6    
    760000   597.34393     -57490.343      80123.815      22633.473      38.496293      27.772899      31.259045      29.656593      36.199817      33.667361      38.978286      32.483989      31.85893       25.62741      -5.7245502      0.80883886     6651691      
    770000   601.5278      -57022.822      80685.011      23662.19       37.431355      27.935306      30.8187        29.516526      36.127066      33.354371      38.663903      31.929461      32.360087      25.937845      12.558842      0.80337206     6696954.5    
    780000   597.51355     -57844.683      80146.567      22301.884      36.535644      28.451338      30.667626      30.854686      35.523202      34.401953      37.915306      30.632066      33.273694      25.381356     -24.861169      0.80905067     6649949.5    
    790000   607.0615      -58819.262      81427.267      22608.005      37.498034      28.241186      30.861741      29.663955      36.619135      34.016698      37.46475       30.353707      33.768915      25.308777      4.641235       0.81036691     6639148.3    
    800000   596.51755     -57817.636      80012.97       22195.334      36.865582      28.479643      30.534871      28.555065      36.904009      32.669772      36.987115      31.241003      33.481179      24.861234     -9.2752818      0.80877929     6652180.9    
    810000   596.18186     -57915.228      79967.943      22052.715      36.633129      28.002969      30.877913      28.708762      38.27978       32.57495       37.113005      31.389449      33.463489      25.699274     -12.798862      0.80835931     6655637      
    820000   601.53938     -58219.486      80686.565      22467.079      36.264853      28.342521      30.805569      28.610193      37.628186      32.766039      36.78729       31.100788      33.084252      26.220416      19.608479      0.80894676     6650803.7    
    830000   599.73756     -57736.307      80444.881      22708.574      36.253037      29.702554      30.286173      29.285108      36.958461      33.246568      37.325209      31.092297      33.878025      26.015647      16.746661      0.80754414     6662355.4    
    840000   599.32306     -58508.763      80389.282      21880.519      36.182381      29.63104       31.376804      29.507369      36.498932      32.850289      37.47816       30.765925      34.645207      26.159367      9.5689357      0.80949723     6646281      
    850000   601.55187     -57876.356      80688.241      22811.885      36.40509       29.433969      32.160599      29.959175      36.292939      32.196951      38.407286      31.499917      34.177647      25.804894      28.911769      0.80688915     6667763.6    
    860000   602.91772     -57782.291      80871.446      23089.156      35.293435      29.727506      31.541335      29.067502      36.547969      33.352521      37.873143      32.439402      34.160731      26.041634      2.4764843      0.80701582     6666717      
    870000   602.60316     -57862.911      80829.254      22966.343      35.332774      30.46644       31.296137      30.091943      36.406389      32.536944      36.540764      32.230175      33.891167      26.760797     -30.635438      0.80636355     6672109.8    
    880000   603.05763     -57829.328      80890.214      23060.886      34.646882      30.05394       31.153692      29.955451      37.006839      32.642109      36.129017      32.22774       32.807345      26.106572     -21.261683      0.80845961     6654811.3    
    890000   601.69317     -57423.991      80707.193      23283.202      34.906803      29.528288      30.875812      30.058436      36.914317      31.719366      36.759569      31.789129      32.678892      25.625539      22.274945      0.80774254     6660719      
    900000   601.18889     -57858.049      80639.553      22781.504      33.899916      29.448991      30.92647       30.644151      36.097886      32.030326      36.714819      32.000757      32.511382      26.12338       10.266331      0.8088937      6651239.9    
    910000   598.6712      -57029.181      80301.847      23272.666      34.100966      28.693012      30.773065      30.957084      35.968824      32.23519       36.859154      32.727347      32.886507      26.242655     -7.841632       0.80392886     6692316.1    
    920000   602.7135      -57767.462      80844.054      23076.592      34.773431      28.488711      30.726259      31.119631      37.33488       32.213326      36.084053      33.592584      32.37642       26.100219     -1.9043092      0.80910943     6649466.6    
    930000   598.53919     -57964.891      80284.14       22319.249      34.361138      28.396597      31.317037      30.857847      36.640904      32.606305      36.444107      32.887683      32.719376      25.478121     -0.4336584      0.80775176     6660643      
    940000   596.98627     -57224.861      80075.84       22850.979      35.206633      28.392525      31.724092      30.396972      36.180689      33.170884      36.826226      32.333691      32.963253      26.187202      22.379551      0.80575955     6677111.2    
    950000   600.07666     -57987.49       80490.366      22502.876      34.731781      28.289806      31.646145      29.894118      37.030706      34.553529      36.747319      31.758658      33.164608      25.575746      47.010176      0.81062174     6637061.2    
    960000   604.29158     -57339.403      81055.727      23716.325      34.201204      28.945939      32.019114      30.455969      37.658941      34.407838      36.617756      31.796761      33.195966      25.438291     -9.1341688      0.80665965     6669660.7    
    970000   600.36013     -57228.334      80528.388      23300.055      35.098856      28.53955       31.789692      29.979297      38.184953      34.031152      36.376907      31.792955      33.163423      26.206257      10.887048      0.80719171     6665264.3    
    980000   602.17834     -57686.225      80772.272      23086.047      35.134733      28.644752      32.037098      30.757942      38.346588      33.880881      36.24087       31.470516      33.608002      25.944384     -20.627228      0.80825592     6656488.4    
    990000   597.50872     -57502.263      80145.919      22643.656      35.744895      29.152416      32.39514       30.135398      37.609423      33.25405       36.074813      31.791096      32.965027      26.519421      17.891871      0.80642897     6671568.5    
   1000000   597.93047     -57759.453      80202.49       22443.037      35.170408      28.855272      32.141149      31.118148      38.10492       33.05662       35.485529      31.497038      33.104011      27.580245      2.323704       0.80641796     6671659.6    
   1010000   600.17785     -57670.256      80503.938      22833.682      35.00386       29.368085      31.654437      31.137739      37.46056       32.3982        35.234756      31.300559      32.720667      27.945978     -12.72059       0.80678411     6668631.8    
   1020000   601.29912     -57642.075      80654.339      23012.264      35.258279      29.790043      31.755288      31.741619      36.934296      32.888747      36.286873      32.081766      32.576363      27.328639     -9.3119509      0.80655221     6670549.1    
   1030000   599.2093      -57882.374      80374.023      22491.65       34.11325       30.161907      32.195948      31.884653      37.101408      33.667943      35.355379      32.485226      32.796465      27.049057      11.321046      0.80844927     6654896.4    
   1040000   600.83801     -56839.119      80592.488      23753.37       34.027902      30.018499      31.603484      31.453492      36.821359      33.72317       35.196573      33.608037      32.956865      26.484871      9.2292741      0.80553784     6678948.9    
   1050000   599.40056     -57628.184      80399.678      22771.495      33.686108      29.293305      31.674396      31.939613      36.110383      34.161613      34.42975       33.205828      33.168784      26.279006     -19.440032      0.80825008     6656536.5    
   1060000   598.69823     -57812.258      80305.472      22493.215      34.306655      28.830187      31.740464      33.169681      37.083419      33.761196      34.330125      33.477777      33.287662      26.982839     -5.1321654      0.80750216     6662701.8    
   1070000   601.05366     -57284.071      80621.414      23337.344      34.295647      29.518677      31.64514       33.388931      38.710779      33.661402      34.814595      32.823936      33.290534      26.963439     -6.1326859      0.80325129     6697961.3    
   1080000   600.99186     -57890.528      80613.124      22722.596      34.678137      29.280684      32.496489      32.731196      38.564869      33.387586      34.203357      32.720019      32.432928      26.302494      1.0985103      0.80829276     6656185      
   1090000   598.19216     -57207.115      80237.591      23030.476      34.501338      29.505488      31.971445      32.591169      37.807705      33.033586      34.117667      33.49086       32.286067      26.244119     -9.017207       0.80520203     6681734.4    
   1100000   597.15185     -57412.078      80098.05       22685.972      35.046721      30.013591      31.80424       32.526074      38.043961      33.031621      34.507166      33.104143      32.669306      25.951204      8.7910443      0.8058229      6676586.2    
   1110000   600.6612      -57993.202      80568.771      22575.569      35.713895      29.711608      31.657213      32.502009      37.730543      31.932445      34.396312      32.743223      32.550991      25.867569     -7.094775       0.80732787     6664140.2    
   1120000   598.69941     -57558.45       80305.631      22747.181      35.815526      28.552399      31.696927      32.910756      37.891464      31.345118      33.622718      32.2682        32.997616      26.15813       8.0311079      0.80543616     6679792.1    
   1130000   597.48314     -57832.646      80142.488      22309.842      35.743313      27.734535      31.717664      33.514715      38.08853       31.643562      34.799272      32.482961      33.842258      26.595992      14.443146      0.80757355     6662112.8    
   1140000   599.94782     -57436.844      80473.083      23036.239      35.678347      27.97158       32.474024      34.195805      38.513306      31.888849      35.059783      32.556226      33.990683      26.69229      -28.14593       0.804529       6687324      
   1150000   599.4742      -57426.715      80409.555      22982.84       35.88827       28.798711      31.885821      34.624823      38.620584      31.382558      35.382288      32.789876      34.057903      26.488597     -12.702924      0.80612339     6674097.5    
   1160000   600.51666     -57107.345      80549.384      23442.039      36.657778      28.339241      31.013824      33.341924      39.338991      31.372161      35.141833      32.857414      33.872245      27.106136     -13.48855       0.80415706     6690417      
   1170000   599.24321     -58041.677      80378.572      22336.895      35.944411      29.080671      31.369885      32.944122      39.710432      30.408834      34.679052      33.233322      34.07737       27.026586      8.689865       0.80789714     6659444.5    
   1180000   600.1318      -57788.963      80497.762      22708.799      36.039062      28.975534      31.622789      33.282498      40.593551      30.222755      34.819091      33.198484      33.358333      26.943001     -13.404912      0.80838345     6655438.2    
   1190000   602.94253     -58547.015      80874.775      22327.76       35.44873       28.751834      31.593633      32.850854      40.640519      30.170978      33.711257      33.045031      33.34661       28.186903      20.496816      0.80961109     6645346.3    
   1200000   598.70644     -57513.052      80306.574      22793.522      34.704707      29.10882       31.606666      31.99242       40.569771      30.71974       34.565434      32.574263      33.802707      27.547483     -20.555017      0.80745249     6663111.7    
   1210000   598.67773     -57253.879      80302.722      23048.843      34.282086      29.693439      31.25751       31.747993      39.972859      29.238965      33.754579      31.605498      34.624642      27.8056       -40.604933      0.80764429     6661529.3    
   1220000   602.36797     -57157.477      80797.707      23640.23       34.37135       30.005056      30.597996      31.848934      39.472723      28.949255      33.820826      32.04077       34.367533      27.717766     -28.246466      0.80518803     6681850.5    
   1230000   598.3727      -57819.984      80261.807      22441.823      33.99604       30.174533      30.563902      31.247193      39.889905      29.608373      33.974967      31.432409      35.16204       26.935567      21.208617      0.80878993     6652093.3    
   1240000   599.85418     -57880.606      80460.523      22579.917      33.406543      31.03714       30.505603      30.750355      40.508076      30.037907      34.000786      31.511504      34.744668      26.611793     -3.3581337      0.80844992     6654891      
   1250000   599.56981     -57370.017      80422.381      23052.364      34.008883      31.218042      30.285715      32.562457      39.618337      30.590437      33.48218       31.562877      34.988532      26.268703     -53.435238      0.80519762     6681771      
   1260000   601.16571     -57431.983      80636.444      23204.462      33.915378      30.640481      29.805765      34.519301      40.226647      29.709319      33.677152      32.19529       34.458332      25.819784      22.384525      0.80741412     6663428.3    
   1270000   599.09005     -58073.418      80358.028      22284.61       34.725142      30.549296      29.720757      33.167069      40.607723      29.129286      32.868313      31.788041      34.852602      25.337792      22.586234      0.80965183     6645011.9    
   1280000   599.88879     -57329.885      80465.166      23135.282      34.842842      30.724215      28.925534      32.790422      40.433146      30.022246      33.191456      31.139791      34.591311      24.806045     -4.5331311      0.80743417     6663262.9    
   1290000   599.58714     -58386.739      80424.704      22037.965      34.985033      31.213681      28.436928      32.652913      39.340933      30.341355      33.189747      31.717902      35.208052      24.610567      18.628072      0.80831645     6655989.9    
   1300000   600.02791     -58479.491      80483.827      22004.336      34.346291      31.679531      27.929164      33.34331       39.877252      30.543031      32.747061      32.09286       35.918682      24.371177     -8.1031186      0.80704182     6666502.2    
   1310000   598.67071     -58248.22       80301.781      22053.561      34.828899      31.567661      28.846561      33.446802      39.247671      30.735619      33.219696      32.551292      36.191487      24.943196      2.1060273      0.80819079     6657024.8    
   1320000   597.05753     -58027.334      80085.4        22058.066      35.824544      31.327107      27.924331      33.352563      38.915834      30.665824      33.20452       31.91317       35.899259      25.144989      10.960697      0.81021931     6640357.8    
   1330000   599.82533     -58231.733      80456.654      22224.921      35.611916      31.737743      27.491538      34.124297      38.828026      31.067157      33.252671      31.306909      36.367113      25.667981     -3.2780522      0.80904431     6650001.8    
   1340000   600.93729     -58024.141      80605.804      22581.663      34.017939      31.457002      28.058625      34.209902      39.779777      31.127351      32.329536      31.241013      36.538001      25.808321     -9.3555609      0.81114825     6632753.1    
   1350000   600.08177     -57711.062      80491.051      22779.989      34.134001      32.533611      27.057241      34.431776      39.672105      30.244745      32.688542      31.634001      36.919014      25.366373     -39.11449       0.80735781     6663893      
   1360000   599.06316     -57584.426      80354.422      22769.996      33.74503       32.813089      26.790895      34.714239      40.121698      30.636447      32.217467      31.774941      37.34277       26.361441      41.191393      0.80738313     6663684.1    
   1370000   600.13965     -57828.894      80498.815      22669.921      33.173743      33.394238      26.951981      34.759394      39.41956       30.844476      32.984572      31.3182        36.673532      26.172037     -12.80243       0.80764359     6661535.1    
   1380000   597.2249      -58286.264      80107.849      21821.585      33.187135      32.600922      26.397242      35.287125      39.545972      29.986236      32.885502      31.18338       35.754743      26.556367      24.128525      0.80991671     6642838.8    
   1390000   598.17978     -57583.402      80235.93       22652.528      33.339881      32.760071      26.569243      35.643165      39.237237      29.984317      32.595619      31.507389      36.449462      26.963862      36.069021      0.80611852     6674137.9    
   1400000   601.09072     -57883.027      80626.385      22743.359      32.820071      32.328375      26.374212      34.897895      38.864337      30.373382      33.518939      31.493973      36.625101      26.97037       11.728492      0.80900725     6650306.4    
   1410000   601.05881     -57587.717      80622.105      23034.388      32.361169      32.294382      25.692821      33.219406      39.410564      29.735874      33.591496      30.399304      36.172805      27.211502      43.249484      0.80582495     6676569.3    
   1420000   601.43103     -57884.641      80672.033      22787.392      31.76591       31.361537      25.771477      33.291196      40.127227      29.577835      33.645178      30.356538      35.663007      28.229172     -9.9756401      0.80914876     6649143.4    
   1430000   602.44198     -57439.304      80807.634      23368.33       31.738997      31.779021      26.166043      33.184077      39.742535      29.503696      33.911216      30.007225      35.48884       27.087337     -0.72419676     0.80694659     6667289      
   1440000   600.77405     -58298.02       80583.909      22285.889      32.15409       30.262302      26.425477      33.898897      38.745181      29.464304      34.525394      29.872102      35.85938       27.504783      11.761942      0.80887655     6651381      
   1450000   603.06076     -57443.198      80890.633      23447.436      32.342002      30.606084      26.454432      34.080528      38.218991      29.871695      33.932037      30.625483      35.632721      28.051794      30.80964       0.80526241     6681233.4    
   1460000   602.60112     -57941.817      80828.98       22887.163      32.135935      31.27187       26.465956      33.693391      37.859481      30.803614      34.297714      29.792871      36.452782      27.489171     -33.042038      0.80877686     6652200.8    
   1470000   601.42878     -57524.784      80671.73       23146.946      32.78101       31.398564      26.586456      34.289887      37.767757      31.083631      34.305332      28.89962       36.173395      26.83467      -23.849423      0.80466101     6686226.9    
   1480000   599.36739     -57515.264      80395.229      22879.965      32.106363      30.128972      26.763992      34.50907       37.860046      31.276519      33.520023      29.040309      35.514894      27.235956     -21.2554        0.80909292     6649602.3    
   1490000   603.0931      -57160.852      80894.971      23734.119      31.443088      29.049845      26.422683      34.304235      37.453675      30.745785      33.887283      29.737631      34.850479      27.239411     -12.249116      0.80876874     6652267.7    
   1500000   598.2743      -57673.846      80248.609      22574.764      30.863808      30.294848      25.679344      34.973151      36.957481      32.136052      34.850451      30.555096      35.156031      26.614308     -17.497762      0.80727929     6664541.2    
   1500935   601.15592     -57837.014      80635.13       22798.117      30.820932      30.468689      25.489543      35.235925      36.806487      31.984218      34.848262      30.693748      35.124013      26.553717      11.390432      0.80836775     6655567.5    
Loop time of 1604.92 on 16 procs for 1000000 steps with 45000 atoms

Performance: 53.835 ns/day, 0.446 hours/ns, 623.085 timesteps/s, 28.039 Matom-step/s
98.9% CPU use with 16 MPI tasks x no OpenMP threads

MPI task timing breakdown:
Section |  min time  |  avg time  |  max time  |%varavg| %total
---------------------------------------------------------------
Pair    | 745.03     | 760.98     | 783.42     |  40.7 | 47.42
Bond    | 312.26     | 320.24     | 329.81     |  30.0 | 19.95
Neigh   | 105.89     | 105.94     | 106        |   0.2 |  6.60
Comm    | 251.23     | 282.14     | 304.91     |  98.0 | 17.58
Output  | 3.2036     | 4.1448     | 5.0973     |  28.7 |  0.26
Modify  | 109.76     | 111.82     | 114.38     |  11.4 |  6.97
Other   |            | 19.66      |            |       |  1.22

Nlocal:         2812.5 ave        2848 max        2762 min
Histogram: 1 0 1 1 2 1 6 2 0 2
Nghost:        4316.75 ave        4364 max        4287 min
Histogram: 2 1 5 1 3 1 0 2 0 1
Neighs:        80553.4 ave       82236 max       77790 min
Histogram: 1 0 0 2 1 2 5 2 1 2

Total # of neighbors = 1288854
Ave neighs/atom = 28.6412
Ave special neighs/atom = 5.952
Neighbor list builds = 26688
Dangerous builds = 0
unfix           equil
# -----------------------------------------------------
# 6. 数据输出
# -----------------------------------------------------


# # 写出最终体系数据文件
# write_data      pdms_out.data
Total wall time: 0:40:30
