LAMMPS (29 Aug 2024)
## 1. 基础设置
units               real
dimension           3
boundary            p p p
atom_style          full

## 2. 读取 PDMS Martini 数据结构
pair_style lj/cut   12.0
special_bonds       lj 0.0 0.0 0.5

bond_style          harmonic

angle_style         harmonic

dihedral_style      harmonic

read_data           pdms_viscosity.data
Reading data file ...
  orthogonal box = (-0.58633854 -0.58333854 -0.52384427) to (51.580339 51.583339 51.603844)
  2 by 4 by 2 MPI processor grid
  reading atoms ...
  1100 atoms
  reading velocities ...
  1100 velocities
  scanning bonds ...
  1 = max bonds/atom
  scanning angles ...
  1 = max angles/atom
  scanning dihedrals ...
  1 = max dihedrals/atom
  orthogonal box = (-0.58633854 -0.58333854 -0.52384427) to (51.580339 51.583339 51.603844)
  2 by 4 by 2 MPI processor grid
  reading bonds ...
  1000 bonds
  reading angles ...
  900 angles
  reading dihedrals ...
  800 dihedrals
Finding 1-2 1-3 1-4 neighbors ...
  special bond factors lj:    0        0        0.5     
  special bond factors coul:  0        0        0       
     2 = max # of 1-2 neighbors
     2 = max # of 1-3 neighbors
     4 = max # of 1-4 neighbors
     6 = max # of special neighbors
  special bonds CPU = 0.001 seconds
  read_data CPU = 0.015 seconds

## 3. 温度与体系初始化
# velocity            all create 400.0 12345 mom yes rot yes dist gaussian
fix                 1 all npt temp 300.0 300.0 100.0 iso 1.0 1.0 1000
timestep            1
thermo_style        custom step temp press density vol
thermo              10000
run                 500000

CITE-CITE-CITE-CITE-CITE-CITE-CITE-CITE-CITE-CITE-CITE-CITE-CITE

Your simulation uses code contributions which should be cited:

- Type Label Framework: https://doi.org/10.1021/acs.jpcb.3c08419

@Article{Gissinger24,
 author = {Jacob R. Gissinger, Ilia Nikiforov, Yaser Afshar, Brendon Waters, Moon-ki Choi, Daniel S. Karls, Alexander Stukowski, Wonpil Im, Hendrik Heinz, Axel Kohlmeyer, and Ellad B. Tadmor},
 title = {Type Label Framework for Bonded Force Fields in LAMMPS},
 journal = {J. Phys. Chem. B},
 year =    2024,
 volume =  128,
 number =  13,
 pages =   {3282–-3297}
}

CITE-CITE-CITE-CITE-CITE-CITE-CITE-CITE-CITE-CITE-CITE-CITE-CITE

Generated 0 of 0 mixed pair_coeff terms from geometric mixing rule
Neighbor list info ...
  update: every = 1 steps, delay = 0 steps, check = yes
  max neighbors/atom: 2000, page size: 100000
  master list distance cutoff = 14
  ghost atom cutoff = 14
  binsize = 7, bins = 8 8 8
  1 neighbor lists, perpetual/occasional/extra = 1 0 0
  (1) pair lj/cut, perpetual
      attributes: half, newton on
      pair build: half/bin/newton
      stencil: half/bin/3d
      bin: standard
Per MPI rank memory allocation (min/avg/max) = 7.052 | 7.052 | 7.053 Mbytes
   Step          Temp          Press         Density         Volume    
         0   298.42897      116.00908      0.92708472     141858.32    
     10000   308.92567      29.597347      0.91848178     143187.03    
     20000   301.95061     -85.285783      0.92197317     142644.8     
     30000   303.67584      93.209098      0.93252842     141030.21    
     40000   309.89418     -16.399909      0.92361808     142390.76    
     50000   303.20484     -94.104775      0.92337687     142427.96    
     60000   303.49899      118.69446      0.9325163      141032.05    
     70000   307.71419     -46.85728       0.92040657     142887.6     
     80000   304.5099      -13.738726      0.92568727     142072.48    
     90000   291.46539     -162.45676      0.9105281      144437.81    
    100000   316.33568      91.08918       0.92809431     141704.01    
    110000   300.04905     -110.78769      0.9256884      142072.3     
    120000   297.84817      9.6808019      0.92920069     141535.28    
    130000   294.64352      45.444779      0.92166547     142692.43    
    140000   288.67322     -71.621105      0.92695278     141878.51    
    150000   301.43621      96.933183      0.92819805     141688.17    
    160000   305.41892      305.47618      0.93085389     141283.92    
    170000   298.68954      18.926704      0.91311798     144028.14    
    180000   306.32833      98.418896      0.92195705     142647.3     
    190000   307.23571     -77.02626       0.92108464     142782.41    
    200000   293.83855     -122.94027      0.91822866     143226.51    
    210000   292.21318      11.829722      0.9201443      142928.32    
    220000   299.4476       92.062691      0.92231452     142592.01    
    230000   306.09329      99.358865      0.93083861     141286.24    
    240000   299.36363      197.41508      0.9386688      140107.65    
    250000   297.2491      -160.42957      0.91858707     143170.62    
    260000   308.39707     -88.11561       0.93678838     140388.89    
    270000   296.45037     -177.3195       0.93244224     141043.25    
    280000   301.49016     -1.6639293      0.91860046     143168.54    
    290000   306.16613     -187.64171      0.92358653     142395.63    
    300000   297.26307      54.412421      0.92600435     142023.83    
    310000   300.19613     -36.557511      0.93276256     140994.81    
    320000   302.38846      30.185855      0.92395541     142338.78    
    330000   298.66156      92.308942      0.9343118      140761.02    
    340000   305.01138      23.13921       0.92160125     142702.37    
    350000   297.02311      6.1612112      0.92033963     142897.99    
    360000   296.81716     -106.20467      0.9134061      143982.71    
    370000   303.24287      54.677108      0.93285059     140981.51    
    380000   303.48492     -122.56544      0.92283094     142512.22    
    390000   304.12166      15.36813       0.92544995     142108.91    
    400000   315.39449      30.398744      0.928048       141711.08    
    410000   296.99774     -234.39335      0.92124173     142758.06    
    420000   305.274       -87.697987      0.92164405     142695.74    
    430000   294.79524     -31.029335      0.92034849     142896.61    
    440000   300.32356     -35.731208      0.92198525     142642.94    
    450000   296.16136     -47.715348      0.92137749     142737.03    
    460000   300.80669      69.710258      0.92073835     142836.11    
    470000   299.98467      9.3351129      0.92294224     142495.03    
    480000   297.78316      19.185987      0.91871182     143151.18    
    490000   302.51943     -20.246636      0.92200037     142640.6     
    500000   293.9839      -126.32457      0.92970567     141458.41    
Loop time of 44.3114 on 16 procs for 500000 steps with 1100 atoms

Performance: 974.917 ns/day, 0.025 hours/ns, 11283.767 timesteps/s, 12.412 Matom-step/s
96.9% CPU use with 16 MPI tasks x no OpenMP threads

MPI task timing breakdown:
Section |  min time  |  avg time  |  max time  |%varavg| %total
---------------------------------------------------------------
Pair    | 8.799      | 9.1274     | 9.507      |   7.0 | 20.60
Bond    | 2.8151     | 2.9893     | 3.2175     |   5.7 |  6.75
Neigh   | 0.65629    | 0.65893    | 0.6615     |   0.2 |  1.49
Comm    | 18.757     | 19.325     | 19.908     |   7.5 | 43.61
Output  | 0.0015356  | 0.0016662  | 0.0031419  |   0.9 |  0.00
Modify  | 9.6448     | 9.9059     | 10.142     |   4.0 | 22.36
Other   |            | 2.303      |            |       |  5.20

Nlocal:          68.75 ave          73 max          66 min
Histogram: 4 2 1 0 3 2 0 2 1 1
Nghost:        868.312 ave         881 max         857 min
Histogram: 4 2 1 0 1 1 1 2 0 4
Neighs:         2900.5 ave        3071 max        2658 min
Histogram: 1 2 1 0 0 4 3 0 2 3

Total # of neighbors = 46408
Ave neighs/atom = 42.189091
Ave special neighs/atom = 4.9090909
Neighbor list builds = 3853
Dangerous builds = 0
unfix               1
fix                 nvt all nvt temp 300.0 300.0 100.0
timestep            1

## 4. Green–Kubo 粘度计算核心部分
variable            p equal 2000
variable            s equal 5
variable            d equal ${p}*${s}
variable            d equal 2000*${s}
variable            d equal 2000*5

thermo              $d
thermo              10000
thermo_style        custom step temp press

# 记录剪切应力张量
variable            pxy equal pxy
variable            pxz equal pxz
variable            pyz equal pyz

fix                 SS all ave/correlate ${s} ${p} ${d} v_pxy v_pxz v_pyz type auto file profile.gk ave running
fix                 SS all ave/correlate 5 ${p} ${d} v_pxy v_pxz v_pyz type auto file profile.gk ave running
fix                 SS all ave/correlate 5 2000 ${d} v_pxy v_pxz v_pyz type auto file profile.gk ave running
fix                 SS all ave/correlate 5 2000 10000 v_pxy v_pxz v_pyz type auto file profile.gk ave running

## 5. 粘度计算（单位转换）
variable            dt equal 10.0    # fs
variable            T equal 300.0
variable            kB equal 1.38064852e-23
variable            vol equal vol    # 系统体积

# 单位换算
variable            atm2pa equal 1.01325e5
variable            fs2s equal 1.0e-15
variable            A2m equal 1.0e-10
variable            convert_eta equal ${atm2pa}*${atm2pa}*${A2m}*${A2m}*${A2m}*${fs2s}
variable            convert_eta equal 101325*${atm2pa}*${A2m}*${A2m}*${A2m}*${fs2s}
variable            convert_eta equal 101325*101325*${A2m}*${A2m}*${A2m}*${fs2s}
variable            convert_eta equal 101325*101325*1e-10*${A2m}*${A2m}*${fs2s}
variable            convert_eta equal 101325*101325*1e-10*1e-10*${A2m}*${fs2s}
variable            convert_eta equal 101325*101325*1e-10*1e-10*1e-10*${fs2s}
variable            convert_eta equal 101325*101325*1e-10*1e-10*1e-10*1e-15

# 粘度计算（Pa·s）
variable            scale equal 1.0/${T}/${kB}*vol*${s}*${dt}
variable            scale equal 1.0/300/${kB}*vol*${s}*${dt}
variable            scale equal 1.0/300/1.38064852e-23*vol*${s}*${dt}
variable            scale equal 1.0/300/1.38064852e-23*vol*5*${dt}
variable            scale equal 1.0/300/1.38064852e-23*vol*5*10
variable            vxy equal trap(f_SS[3])*${scale}*${convert_eta}
variable            vxy equal trap(f_SS[3])*1.70763237176818e+27*${convert_eta}
variable            vxy equal trap(f_SS[3])*1.70763237176818e+27*1.0266755625e-35
variable            vxz equal trap(f_SS[4])*${scale}*${convert_eta}
variable            vxz equal trap(f_SS[4])*1.70763237176818e+27*${convert_eta}
variable            vxz equal trap(f_SS[4])*1.70763237176818e+27*1.0266755625e-35
variable            vyz equal trap(f_SS[5])*${scale}*${convert_eta}
variable            vyz equal trap(f_SS[5])*1.70763237176818e+27*${convert_eta}
variable            vyz equal trap(f_SS[5])*1.70763237176818e+27*1.0266755625e-35
variable            final_viscosity equal (v_vxy+v_vxz+v_vyz)/3



## 6. 运行模拟并输出粘度
thermo_style        custom step temp press v_vxy v_vxz v_vyz v_final_viscosity
run                 5000000
Generated 0 of 0 mixed pair_coeff terms from geometric mixing rule
Per MPI rank memory allocation (min/avg/max) = 7.052 | 7.053 | 7.053 Mbytes
   Step          Temp          Press          v_vxy          v_vxz          v_vyz      v_final_viscosity
    500000   293.9839      -126.32457      0.00011225251  2.2975088e-05  3.3985608e-06  4.620872e-05 
    510000   292.82846      26.857195      0.023521234    0.013531749   -0.026491999    0.0035203283 
    520000   301.46511     -94.445286      0.0090004022   0.0073974048  -0.00098724017  0.0051368556 
    530000   296.04943     -83.285862      0.0036169324   0.008599557    0.0028864932   0.0050343275 
    540000   300.00423      121.19882      0.00043924389  0.006411291    0.0032827372   0.0033777573 
    550000   299.90669      126.92878      0.0013665909   0.005224003    0.0025101931   0.0030335957 
    560000   292.67318      216.97413      0.001549543    0.0059417056   0.0031412593   0.0035441693 
    570000   307.41885     -47.077158      0.0021389377   0.0050068179   0.0043364184   0.0038273914 
    580000   315.98522      65.759097      0.0023785928   0.0048994731   0.0048632925   0.0040471195 
    590000   293.33915      45.458728      0.002241124    0.0068987202   0.0040766301   0.0044054914 
    600000   305.91442      124.04335      0.003449858    0.0065559891   0.0050399345   0.0050152605 
    610000   288.27927     -114.24063      0.0021094503   0.0060684506   0.0050496351   0.0044091787 
    620000   310.81601      215.75471      0.0029963334   0.0074715881   0.0048667877   0.0051115697 
    630000   303.34718     -113.07613      0.0038924774   0.0098919509   0.0050089426   0.0062644569 
    640000   297.84374     -113.3314       0.0041459966   0.0090553585   0.0044980585   0.0058998046 
    650000   297.43835      2.1692734      0.0046212507   0.008731855    0.0046071685   0.0059867581 
    660000   292.89506      9.6889229      0.0046979788   0.0081441747   0.004292167    0.0057114402 
    670000   317.48054      153.23923      0.005530764    0.0076591345   0.0046764144   0.0059554376 
    680000   291.36371     -210.09124      0.0055056408   0.0076885395   0.0046968674   0.0059636826 
    690000   295.6071       32.587983      0.0052470275   0.0071706281   0.0045923602   0.0056700052 
    700000   296.30878      193.55849      0.0049364855   0.0068852363   0.0044795541   0.0054337587 
    710000   309.11305      77.974454      0.0055723236   0.0067434833   0.0044936989   0.0056031686 
    720000   303.33255     -20.933494      0.0055145324   0.0096669856   0.0045151535   0.0065655572 
    730000   291.2954       339.86509      0.0056316628   0.011178654    0.0052484858   0.0073529341 
    740000   303.27701      65.776842      0.0052981149   0.015013031    0.005000035    0.0084370604 
    750000   290.34519      206.05948      0.0056597273   0.014458664    0.0047122638   0.008276885  
    760000   296.78276      89.628929      0.0057245114   0.014236921    0.0051269632   0.0083627986 
    770000   289.69599     -54.766987      0.0056665075   0.014459227    0.0049775399   0.008367758  
    780000   310.28624      68.403374      0.0060217578   0.014212392    0.0051701181   0.0084680894 
    790000   282.20393      34.019462      0.0058745771   0.013483945    0.0051454979   0.0081680067 
    800000   297.02391      137.39701      0.0057336691   0.013096085    0.0076847249   0.0088381597 
    810000   300.45216      63.948823      0.0062091814   0.012684879    0.0077299257   0.0088746621 
    820000   302.5679      -60.392313      0.0058730227   0.012245348    0.0088786966   0.0089990224 
    830000   295.33499      94.419378      0.0064885895   0.011972773    0.00909173     0.0091843641 
    840000   289.57567     -86.8388        0.0063945817   0.01190334     0.0090000056   0.0090993091 
    850000   293.78746      161.17022      0.0063378767   0.011680478    0.0087336958   0.0089173501 
    860000   307.43089      22.682138      0.0067530719   0.011393103    0.0084937054   0.00887996   
    870000   303.04662      164.00618      0.0070677519   0.011168437    0.0086343627   0.0089568507 
    880000   286.70788     -9.9379198      0.0066537461   0.010903462    0.0086984634   0.0087518904 
    890000   302.22503      213.23219      0.0065716297   0.010638423    0.0085571562   0.0085890696 
    900000   294.97644     -31.846351      0.0081457142   0.010366409    0.0086029156   0.0090383463 
    910000   296.92169      24.845256      0.0088100541   0.0097923922   0.0085538559   0.0090521007 
    920000   285.8548      -14.916938      0.0085741637   0.0097966481   0.0087929961   0.0090546026 
    930000   301.32968     -98.81291       0.0083569839   0.0095005433   0.0088579153   0.0089051475 
    940000   289.79512     -147.57558      0.0081463358   0.0096836746   0.009402157    0.0090773891 
    950000   290.44082      92.807404      0.0082134116   0.0099865847   0.009635736    0.0092785774 
    960000   300.12716      136.607        0.0082318701   0.010107727    0.00944649     0.0092620291 
    970000   310.89417      117.23493      0.0080747694   0.010134304    0.0092031952   0.0091374229 
    980000   303.18604      278.42003      0.0078848701   0.010035115    0.0090065768   0.0089755207 
    990000   294.16491      122.87576      0.0077529255   0.010211856    0.0091834169   0.0090493996 
   1000000   292.33405      49.598729      0.0076827617   0.0099854532   0.0096269458   0.0090983869 
   1010000   301.87077      202.7347       0.0075778845   0.009810139    0.0096233699   0.0090037978 
   1020000   306.35795      13.591297      0.0076812286   0.0095976656   0.0097166739   0.0089985227 
   1030000   289.18818      22.24934       0.0075374712   0.0098896909   0.010110542    0.0091792347 
   1040000   292.78042      205.97118      0.0073785545   0.010395373    0.0099870398   0.0092536558 
   1050000   306.95507     -73.874045      0.0073083566   0.010132424    0.009831895    0.009090892  
   1060000   297.67322      195.61355      0.0072953799   0.010018187    0.0098663191   0.009059962  
   1070000   295.33016      24.414717      0.0073858433   0.0099845725   0.010285126    0.009218514  
   1080000   305.53328      139.88204      0.0080883113   0.009790159    0.010121968    0.0093334794 
   1090000   294.12896     -5.3998929      0.0080675949   0.0099621038   0.0099538021   0.0093278336 
   1100000   288.91233      33.369366      0.007996203    0.010050845    0.0097696257   0.0092722247 
   1110000   304.51228      60.835311      0.0079021275   0.0098601562   0.0099143996   0.0092255611 
   1120000   305.80759      14.895523      0.0080645632   0.009842767    0.00985885     0.0092553934 
   1130000   316.83561      11.301993      0.0081400793   0.0098477172   0.0097070004   0.009231599  
   1140000   296.47016     -0.13217807     0.0079221406   0.0099508903   0.0095729202   0.0091486504 
   1150000   293.96897     -4.9218993      0.007811526    0.0099918699   0.0094995561   0.009100984  
   1160000   306.67539      157.73874      0.0076882407   0.009902665    0.0094162951   0.0090024002 
   1170000   304.86445      29.323175      0.0075923041   0.0098559923   0.0096278885   0.009025395  
   1180000   297.38899      192.08935      0.0075466387   0.0097832269   0.0094290303   0.008919632  
   1190000   302.63609     -135.56922      0.007659924    0.0093956815   0.0093862634   0.0088139563 
   1200000   303.11646      57.772057      0.0075904969   0.0094101454   0.0092546401   0.0087517608 
   1210000   301.79498      55.871722      0.0074840916   0.0093439722   0.0092529304   0.0086936648 
   1220000   293.0316       210.81299      0.0074623313   0.0092148913   0.0091238672   0.0086003633 
   1230000   293.49478      115.64042      0.0074946946   0.0090766181   0.0089764359   0.0085159162 
   1240000   295.87095      84.870292      0.0073740565   0.0089201647   0.0090387841   0.0084443351 
   1250000   295.87671      112.27932      0.0075733267   0.0088359191   0.0092085346   0.0085392601 
   1260000   283.9833      -24.459008      0.0074547642   0.0087511575   0.0091316541   0.0084458586 
   1270000   297.33925     -33.909006      0.0078465341   0.0085984894   0.0092361272   0.0085603836 
   1280000   297.16986      126.73953      0.0083425322   0.0084975205   0.0090286841   0.0086229123 
   1290000   304.95498      218.74798      0.0081894548   0.0084228147   0.0092583989   0.0086235562 
   1300000   293.87675      81.992071      0.0080726561   0.008760886    0.0093879344   0.0087404922 
   1310000   289.51457     -1.260584       0.0080982287   0.0089070097   0.0093645963   0.0087899449 
   1320000   299.79353      7.2026802      0.0081693048   0.0088368824   0.009320298    0.0087754951 
   1330000   307.13912      205.70967      0.0085248635   0.0087666511   0.0092124938   0.0088346695 
   1340000   305.94143      9.410047       0.0084664353   0.008698754    0.0092122522   0.0087924805 
   1350000   308.43046      13.797773      0.008374622    0.0086530025   0.0092935632   0.0087737293 
   1360000   299.74846     -58.595504      0.0085638706   0.0093283878   0.0092743173   0.0090555252 
   1370000   305.04922      6.6150303      0.0084199237   0.011245285    0.0091563036   0.0096071708 
   1380000   313.96712     -5.1565005      0.0083366965   0.011212579    0.0092797945   0.00960969   
   1390000   296.39882      144.28048      0.0082503809   0.011297688    0.0093509165   0.009632995  
   1400000   295.77815      57.010468      0.0081328544   0.011195079    0.009199049    0.0095089942 
   1410000   297.68225     -29.935944      0.0080836189   0.011118037    0.0091141748   0.0094386101 
   1420000   301.78898      121.46224      0.0079391428   0.01100139     0.0090676884   0.0093360737 
   1430000   296.46956      192.21797      0.0078447131   0.010888117    0.0089353601   0.0092227301 
   1440000   289.05321     -84.270071      0.0077538004   0.010804301    0.0088202833   0.0091261282 
   1450000   309.17386      84.07858       0.0076755638   0.010702508    0.0088491209   0.0090757307 
   1460000   295.87983     -11.421853      0.0075670954   0.01062398     0.0087767979   0.0089892912 
   1470000   300.17106     -15.334888      0.0075753016   0.010466544    0.008633361    0.0088917354 
   1480000   302.54196     -149.47118      0.008019274    0.010394604    0.0085430367   0.0089856384 
   1490000   293.57527      77.932999      0.0079257897   0.010323718    0.0084600088   0.0089031722 
   1500000   295.64555     -68.657906      0.0079040272   0.010246298    0.0083905001   0.0088469418 
   1510000   303.67058      0.3418092      0.0078103052   0.010172994    0.0082772381   0.0087535124 
   1520000   300.79359     -32.776479      0.007754492    0.01028043     0.0082203936   0.008751772  
   1530000   297.46188      49.25678       0.0076952432   0.010328771    0.0081880584   0.0087373575 
   1540000   304.28541     -36.852853      0.0076396333   0.010262828    0.0087215902   0.0088746837 
   1550000   299.139        110.41729      0.007658795    0.010119289    0.0086652565   0.008814447  
   1560000   316.23978     -101.88528      0.007573598    0.010363364    0.0085895044   0.0088421554 
   1570000   289.1504       260.39203      0.0075624455   0.010746719    0.0085764515   0.0089618721 
   1580000   300.37749     -44.095592      0.0076941687   0.010783752    0.0085698054   0.0090159087 
   1590000   301.22631      89.802993      0.0076362045   0.010742861    0.008632597    0.0090038874 
   1600000   295.68799      62.137393      0.0075908027   0.010698613    0.0088498861   0.009046434  
   1610000   310.48883      164.91518      0.0075352287   0.010589378    0.0087969437   0.0089738501 
   1620000   304.90477      15.760582      0.0075327041   0.010567731    0.0087476607   0.0089493653 
   1630000   308.81725      159.61541      0.0074910273   0.010657561    0.0088458247   0.0089981375 
   1640000   292.53114      4.0405485      0.0075414505   0.010754244    0.0088460696   0.0090472546 
   1650000   306.52428     -31.698348      0.0074962521   0.010942774    0.0087595788   0.0090662018 
   1660000   305.16934     -49.125564      0.0074989148   0.010830046    0.0088512217   0.0090600609 
   1670000   304.379        149.14164      0.0075990096   0.010776755    0.0087391501   0.0090383048 
   1680000   289.03678      39.352342      0.0075662385   0.010659783    0.0087048658   0.0089769626 
   1690000   306.82515     -153.96732      0.0075176846   0.010681485    0.0085966358   0.0089319352 
   1700000   304.9742       79.533597      0.0074593664   0.01070526     0.0085239654   0.0088961971 
   1710000   307.81405     -0.15717613     0.0074491669   0.01063162     0.0084734644   0.0088514171 
   1720000   295.35043      93.54834       0.0073835313   0.010555798    0.0084472883   0.0087955393 
   1730000   296.70759      107.00982      0.0077837672   0.010467081    0.0083726623   0.0088745034 
   1740000   294.52806     -11.678532      0.0077646493   0.010638893    0.008426785    0.0089434425 
   1750000   297.66102      114.59537      0.0077688008   0.011082064    0.0084029079   0.009084591  
   1760000   298.13136     -21.088287      0.0078411824   0.011204232    0.0083197467   0.0091217204 
   1770000   303.79809      117.49554      0.0080568235   0.011177763    0.0082465824   0.0091603898 
   1780000   294.10338      50.468071      0.0079890121   0.011086138    0.0081779781   0.0090843762 
   1790000   312.84521      86.659041      0.0079540913   0.011034965    0.0081169125   0.0090353228 
   1800000   307.27639      202.8773       0.0079108298   0.010933824    0.0081225      0.0089890513 
   1810000   304.09754      106.27362      0.0078521241   0.010944687    0.0080944789   0.0089637634 
   1820000   313.02864      23.961778      0.0078084798   0.010915345    0.0080333355   0.0089190534 
   1830000   312.36445      194.19918      0.007742237    0.010851896    0.0082014692   0.0089318675 
   1840000   296.2727       114.10469      0.0076724055   0.010802051    0.0083822957   0.0089522507 
   1850000   302.10353      3.4741575      0.0077374222   0.010697842    0.0083801683   0.0089384775 
   1860000   305.13943      23.828266      0.0077734133   0.010634598    0.0083411448   0.0089163854 
   1870000   301.02503      25.403638      0.0077324917   0.010539038    0.0084391967   0.0089035755 
   1880000   293.1933       179.75399      0.008076716    0.010465524    0.0084312566   0.0089911654 
   1890000   291.29647     -119.52335      0.008448493    0.010396427    0.0084184512   0.0090877903 
   1900000   306.75882      14.913144      0.0084540759   0.0105377      0.008422513    0.0091380962 
   1910000   296.37959     -219.10149      0.0084364368   0.010479047    0.0086491001   0.0091881947 
   1920000   311.43408     -35.05348       0.0084053942   0.010422654    0.0095253186   0.0094511221 
   1930000   296.40024     -25.758855      0.0084197284   0.010356086    0.0099737218   0.0095831786 
   1940000   303.31716     -50.888113      0.0083607578   0.010303253    0.0098838975   0.0095159693 
   1950000   303.17746      74.353408      0.0083106101   0.010232137    0.0099590163   0.0095005879 
   1960000   291.71301      87.617044      0.0083267464   0.010249492    0.010088746    0.0095549947 
   1970000   307.07133      48.048547      0.0084886824   0.010157658    0.010061251    0.0095691971 
   1980000   308.0084       14.924119      0.0087269677   0.010071794    0.0099960341   0.0095982652 
   1990000   304.77407      67.467582      0.008656964    0.010047838    0.0099602367   0.0095550129 
   2000000   306.01939      88.095878      0.0086651989   0.01012609     0.0099973529   0.0095962138 
   2010000   295.60061      41.5816        0.0088166752   0.010358817    0.0099921627   0.0097225517 
   2020000   297.60014     -117.2125       0.0087511633   0.010405408    0.010356668    0.0098377463 
   2030000   294.83067      102.43405      0.0086902308   0.010596559    0.010345251    0.009877347  
   2040000   306.15349      35.887154      0.0086365308   0.010575465    0.010300806    0.0098376005 
   2050000   304.65913     -193.42237      0.0086087946   0.010513621    0.010229599    0.0097840049 
   2060000   305.43806     -97.507314      0.008907299    0.010473386    0.010188116    0.0098562671 
   2070000   300.29834      80.742432      0.0097049721   0.010425803    0.010136659    0.010089145  
   2080000   299.83569      93.660531      0.009554817    0.01037875     0.010140462    0.010024676  
   2090000   291.89187      97.239836      0.0096293856   0.010321766    0.010127158    0.010026103  
   2100000   282.97882      100.79158      0.0096396785   0.010301062    0.010078884    0.010006542  
   2110000   295.63033      84.180624      0.0096130768   0.01079795     0.010176544    0.010195857  
   2120000   302.82043     -56.637457      0.009636108    0.010814334    0.010267635    0.010239359  
   2130000   302.67372      101.8754       0.0096147782   0.010774205    0.01020449     0.010197824  
   2140000   300.02208      47.43425       0.0095996742   0.010695553    0.010147156    0.010147461  
   2150000   294.23958      31.708276      0.009527829    0.01077032     0.010140449    0.010146199  
   2160000   300.10253      0.27914764     0.0094715693   0.010987624    0.010119822    0.010193005  
   2170000   304.27993     -51.908449      0.009405159    0.010975211    0.010069451    0.01014994   
   2180000   306.19019      119.92908      0.0093561379   0.010979913    0.0099847614   0.010106937  
   2190000   296.24974      157.09267      0.0093375508   0.01102291     0.010028793    0.010129751  
   2200000   301.79752      29.506351      0.0093272024   0.010986305    0.010120054    0.01014452   
   2210000   296.21502     -108.834        0.0092686849   0.01104188     0.010192133    0.010167566  
   2220000   301.45497     -54.768859      0.0092201194   0.010990538    0.010134143    0.010114934  
   2230000   307.24825     -10.605909      0.0091781902   0.010905661    0.010073929    0.010052593  
   2240000   301.31815     -39.774799      0.0091414944   0.010833483    0.01015474     0.010043239  
   2250000   298.89696      72.03089       0.0091360095   0.010787455    0.010123725    0.01001573   
   2260000   298.42101     -82.165894      0.0091067739   0.010760832    0.01019569     0.010021099  
   2270000   294.18677      125.52825      0.0092644642   0.010724043    0.010145162    0.010044556  
   2280000   288.99579      188.35892      0.0092413765   0.010665488    0.010089195    0.0099986863 
   2290000   298.86088      73.662577      0.0092220269   0.010615311    0.010045746    0.009961028  
   2300000   287.19475      99.387943      0.0092015398   0.010609979    0.0099849433   0.0099321539 
   2310000   304.09893     -8.8423766      0.0091617107   0.010505301    0.0099540377   0.009873683  
   2320000   287.15886      237.56595      0.0091280114   0.010452866    0.009919151    0.0098333428 
   2330000   302.27115      93.931284      0.0090909236   0.010398771    0.0099034351   0.0097977098 
   2340000   300.15517      178.96879      0.0090803525   0.010341772    0.0098960779   0.0097727342 
   2350000   293.39299     -76.464239      0.009043342    0.010285689    0.0098807461   0.0097365925 
   2360000   298.89987      9.303166       0.0089967628   0.010288265    0.0098279846   0.0097043374 
   2370000   304.14662      45.423929      0.0089650081   0.010342181    0.0097776016   0.0096949304 
   2380000   291.41737      102.87175      0.0089322452   0.010335675    0.0097400689   0.0096693298 
   2390000   289.07214     -36.115094      0.0089181555   0.010288537    0.0097835379   0.0096634102 
   2400000   302.86923      172.05517      0.0089800325   0.010242331    0.0098154797   0.0096792811 
   2410000   294.70665     -48.627976      0.0088970228   0.010305141    0.0097895094   0.009663891  
   2420000   298.36316      5.6309698      0.0088825254   0.010308067    0.009769611    0.0096534013 
   2430000   296.68305      128.2838       0.0089020398   0.010281644    0.0097202095   0.0096346313 
   2440000   291.38663     -114.62116      0.0088794643   0.010266354    0.0096713232   0.0096057138 
   2450000   306.46941      130.28119      0.0088486729   0.010252584    0.0096192951   0.0095735173 
   2460000   299.86198     -205.01027      0.0089370563   0.010214245    0.0095879927   0.0095797648 
   2470000   302.49574      144.91444      0.0089898216   0.010177924    0.0096410151   0.0096029203 
   2480000   305.5643      -179.2876       0.0089319613   0.010124579    0.00956961     0.0095420501 
   2490000   288.57036     -208.48212      0.0088879082   0.01007814     0.0096003519   0.0095221333 
   2500000   296.97943     -11.186746      0.0089109842   0.010044783    0.0095344855   0.009496751  
   2510000   304.45822      21.006122      0.0088691771   0.010070493    0.0097721698   0.0095706133 
   2520000   297.12748      100.44862      0.0088145372   0.010171677    0.0096688378   0.0095516839 
   2530000   304.44763      16.740872      0.0087849405   0.010228776    0.0096453702   0.0095530288 
   2540000   285.23834      126.63364      0.0089701644   0.010222771    0.0097094906   0.0096341421 
   2550000   306.08847      229.09041      0.0091437451   0.010185767    0.0096604051   0.0096633058 
   2560000   299.54006     -200.69934      0.009211221    0.010309257    0.0096064488   0.0097089755 
   2570000   301.83192      95.250078      0.0091722501   0.01028711     0.0095618717   0.009673744  
   2580000   302.2851      -29.201098      0.009307904    0.010257215    0.0096190605   0.00972806   
   2590000   303.98272     -37.97132       0.009305257    0.010299926    0.0097724395   0.0097925409 
   2600000   297.63596      92.079738      0.0093730436   0.010327077    0.0098441369   0.0098480859 
   2610000   295.02505     -107.89007      0.0094011195   0.010266563    0.0097931832   0.0098202885 
   2620000   298.11318      22.986423      0.0093525765   0.010220097    0.0097664212   0.0097796983 
   2630000   303.09938     -60.71073       0.0093157795   0.010158421    0.0097344778   0.0097362261 
   2640000   302.77252      79.01353       0.0093372942   0.010175975    0.0097100429   0.0097411042 
   2650000   285.77016      76.305624      0.0092694623   0.010092375    0.0096647522   0.0096755297 
   2660000   300.79081      14.44942       0.0093010082   0.010044004    0.0095978866   0.0096476329 
   2670000   304.12375      5.6731619      0.0093019668   0.010085259    0.0095659549   0.0096510603 
   2680000   297.51141      67.66713       0.0092684861   0.010039909    0.0095831979   0.0096305309 
   2690000   292.33032      215.11879      0.0092191505   0.010071143    0.0095900223   0.0096267719 
   2700000   307.86881     -18.9417        0.0091575706   0.010032175    0.0095371661   0.0095756373 
   2710000   292.40097     -55.953732      0.0091764222   0.010063189    0.0094962575   0.009578623  
   2720000   296.05541      17.281251      0.0091496031   0.010019914    0.0094884018   0.0095526397 
   2730000   310.40049     -1.2823141      0.0091570081   0.010020223    0.0094887334   0.0095553216 
   2740000   312.2422      -47.41596       0.0091213913   0.0099673426   0.0094132069   0.0095006469 
   2750000   295.77247      38.586061      0.0090755506   0.0099692174   0.0093853619   0.0094767099 
   2760000   310.73174      51.377777      0.0090363272   0.010147573    0.0093575818   0.0095138273 
   2770000   295.76646      1.9702428      0.009067748    0.010142627    0.0095148667   0.0095750806 
   2780000   302.63415      202.99386      0.0090368794   0.010104721    0.0094748117   0.009538804  
   2790000   294.49653      52.610939      0.0091103699   0.010071435    0.0094549365   0.0095455805 
   2800000   297.67345     -63.328957      0.009090127    0.010023305    0.0095686822   0.0095607046 
   2810000   304.19283      9.0767226      0.0090692987   0.010077449    0.0096699029   0.0096055501 
   2820000   316.05747      66.700576      0.009172339    0.01002969     0.0097046065   0.009635545  
   2830000   300.00227     -47.509888      0.0092294896   0.0099942526   0.009660931    0.0096282244 
   2840000   296.48114     -179.04837      0.0092098952   0.0099558272   0.009674561    0.0096134278 
   2850000   312.89698      66.93781       0.0091835956   0.009914834    0.009631858    0.0095767625 
   2860000   316.10204      89.593197      0.0091239564   0.0098946965   0.0095918087   0.0095368205 
   2870000   305.90828     -60.306972      0.0090878374   0.0099207708   0.009576049    0.0095282191 
   2880000   299.56049      55.817099      0.0090518173   0.01001846     0.0095625221   0.0095442664 
   2890000   309.28743     -37.924161      0.0090246213   0.0099782181   0.0095194924   0.009507444  
   2900000   290.36574     -154.06347      0.0089812789   0.010071754    0.0095074772   0.0095201699 
   2910000   302.84908      41.884651      0.0089544026   0.010140598    0.0096471729   0.0095807243 
   2920000   292.55354     -126.68631      0.0089206827   0.01010265     0.0097437639   0.0095890324 
   2930000   309.19476      95.482327      0.0088870694   0.010064553    0.0097717917   0.0095744715 
   2940000   302.62899     -105.87733      0.0088668822   0.010149092    0.0097129752   0.0095763163 
   2950000   311.08206      55.801222      0.0088871897   0.010145577    0.0097308053   0.0095878571 
   2960000   300.58268      113.20248      0.008851308    0.010104345    0.0097091159   0.0095549228 
   2970000   289.08743      145.30174      0.0088579085   0.010120284    0.0096686246   0.0095489389 
   2980000   309.1304       175.73446      0.0089055976   0.010060078    0.0098840668   0.0096165809 
   2990000   305.80136     -39.204572      0.0089958684   0.010131841    0.0098787243   0.0096688111 
   3000000   288.5337       136.81125      0.0089485917   0.010061185    0.0098710172   0.0096269315 
   3010000   296.01424     -32.703022      0.0089269395   0.010023775    0.0099138835   0.0096215326 
   3020000   297.99772     -65.706447      0.0089238986   0.010024849    0.0098643663   0.0096043712 
   3030000   286.48652      17.169429      0.0088959182   0.0099823824   0.0098246599   0.0095676535 
   3040000   305.79378     -64.971622      0.0089856915   0.010045751    0.00979768     0.0096097076 
   3050000   291.71002     -2.2158516      0.0091903593   0.010107537    0.009730668    0.009676188  
   3060000   298.94729      22.633572      0.009140001    0.010153191    0.0097487519   0.0096806481 
   3070000   307.17439     -22.756502      0.0091999866   0.01012728     0.0097096392   0.0096789686 
   3080000   310.50151     -24.882845      0.0092268337   0.010115671    0.0096771555   0.0096732202 
   3090000   314.86872      13.17851       0.0092064172   0.010086014    0.009636362    0.0096429311 
   3100000   292.86271      64.250496      0.0092167005   0.010135676    0.0096276865   0.0096600212 
   3110000   298.56029      116.42762      0.0091951306   0.010095457    0.0096041078   0.0096315652 
   3120000   286.6406      -171.09303      0.0091721644   0.010100076    0.00956473     0.0096123234 
   3130000   300.9388       112.61125      0.0091879158   0.010078703    0.0095309911   0.0095992034 
   3140000   312.52288      38.393575      0.0091247428   0.010056785    0.0094919943   0.0095578407 
   3150000   301.61792     -177.48925      0.0091112748   0.010013777    0.0094910667   0.0095387061 
   3160000   294.39782      70.334855      0.0090751325   0.0099864449   0.0094473308   0.0095029694 
   3170000   298.39313      11.435406      0.0090812787   0.0099829033   0.0094204461   0.009494876  
   3180000   304.83971      109.40411      0.0090860123   0.0099270511   0.0093953874   0.0094694836 
   3190000   293.66412      130.22781      0.0090492641   0.0099199228   0.0094401549   0.0094697806 
   3200000   300.35644      12.115159      0.0090929757   0.009976416    0.0095457069   0.0095383662 
   3210000   305.99152     -152.47013      0.0090654303   0.0099171009   0.009523869    0.0095021334 
   3220000   308.71295     -135.71839      0.0090711474   0.0099078982   0.009617859    0.0095323015 
   3230000   303.68879      141.0438       0.0090794811   0.009866958    0.0095900609   0.0095121667 
   3240000   298.39871     -61.872275      0.0090609485   0.0098230303   0.009570278    0.0094847522 
   3250000   296.30577      114.14955      0.0091619596   0.0098052765   0.0095763518   0.0095145293 
   3260000   307.15157      121.11713      0.0092527683   0.0097853907   0.0095575051   0.009531888  
   3270000   290.99994      26.121808      0.0092401911   0.0098224365   0.0095214349   0.0095280209 
   3280000   281.94201      172.43929      0.0092788944   0.0097782849   0.0094742255   0.0095104682 
   3290000   281.9724       34.697826      0.009355145    0.0097849145   0.0094505495   0.009530203  
   3300000   304.26813     -68.40074       0.0095602041   0.0098000164   0.0094293967   0.0095965391 
   3310000   297.77512      40.776753      0.0096016294   0.0097712917   0.0094190517   0.0095973243 
   3320000   313.67176      36.720144      0.0095946541   0.0097416825   0.009388465    0.0095749339 
   3330000   295.87925      97.761856      0.0095727821   0.0096882658   0.0094634426   0.0095748302 
   3340000   301.60376     -89.975108      0.0095181382   0.009656683    0.0094461717   0.009540331  
   3350000   307.31179      292.72152      0.0095623862   0.0096513376   0.00939004     0.0095345879 
   3360000   289.34775      115.29874      0.0095848602   0.0096180966   0.0093374365   0.0095134644 
   3370000   299.95567      268.76406      0.009558139    0.0097118961   0.009294056    0.0095213637 
   3380000   289.25469     -30.385305      0.0095286599   0.0097590657   0.0093000225   0.0095292494 
   3390000   282.20185     -76.539869      0.009501789    0.0097177512   0.0092857648   0.0095017683 
   3400000   295.40315      106.3755       0.0094723165   0.0096879623   0.0093498382   0.0095033723 
   3410000   316.18708      15.0777        0.0095423202   0.0096523989   0.009429142    0.009541287  
   3420000   303.2473      -17.985423      0.0095047507   0.0096572493   0.0093876037   0.0095165346 
   3430000   293.76727      42.764324      0.0094794108   0.009652665    0.0093840782   0.0095053847 
   3440000   283.10965      59.733855      0.0094428204   0.0096308949   0.0093804025   0.0094847059 
   3450000   318.66748     -0.33879781     0.0094063108   0.0096030621   0.009361503    0.0094569586 
   3460000   297.97062      235.80211      0.0094420158   0.0095871132   0.0093065679   0.0094452323 
   3470000   308.85577      70.940839      0.009486188    0.0095780422   0.009284876    0.0094497021 
   3480000   300.8707      -2.2391876      0.0094902695   0.0096147324   0.0092564241   0.0094538086 
   3490000   308.02544      140.98235      0.0094547851   0.0095769935   0.00922817     0.0094199829 
   3500000   299.62441      223.95094      0.0094273838   0.0095590279   0.0091624412   0.009382951  
   3510000   297.98921      111.984        0.0093973334   0.0097266345   0.0091444238   0.0094227972 
   3520000   296.57395      138.29221      0.0093693087   0.0097017003   0.0091585747   0.0094098612 
   3530000   301.11191      0.55801837     0.0093504928   0.0096969065   0.0091073386   0.0093849127 
   3540000   297.90143      302.22502      0.0093203116   0.009724508    0.0090833658   0.0093760618 
   3550000   308.98204      222.49583      0.0093019467   0.0096477024   0.0090629946   0.0093375479 
   3560000   296.49474      279.37023      0.0093093387   0.0097808909   0.0090296267   0.0093732854 
   3570000   294.90094      1.5084934      0.0092868384   0.0097571619   0.0090002034   0.0093480679 
   3580000   303.43743      253.55745      0.0092512132   0.009724442    0.0089660542   0.0093139031 
   3590000   313.20225     -54.850101      0.0092134066   0.0097520324   0.0089365501   0.009300663  
   3600000   300.89467      38.922625      0.0091885445   0.0097309839   0.0089128846   0.009277471  
   3610000   307.58748      125.35847      0.0091997886   0.0096917651   0.008881079    0.0092575442 
   3620000   304.42735      80.233778      0.0092037423   0.0096894269   0.0088638154   0.0092523282 
   3630000   284.63016     -76.837848      0.0091607916   0.0096584854   0.0089021772   0.0092404848 
   3640000   291.38029      177.60729      0.0091397601   0.0096298635   0.0088524733   0.0092073656 
   3650000   298.89593      4.5592512      0.009147644    0.0095971986   0.0089308549   0.0092252325 
   3660000   302.91268     -12.509199      0.009230239    0.0095689744   0.0088943122   0.0092311752 
   3670000   297.78231      55.118594      0.0092625242   0.0095821384   0.0088641631   0.0092362752 
   3680000   301.29615     -4.6324356      0.0093072816   0.0096166988   0.0088392753   0.0092544185 
   3690000   298.55479     -96.031712      0.0092795826   0.0095726862   0.0087997505   0.0092173397 
   3700000   306.11979      77.109555      0.0092599384   0.0095442996   0.0087899854   0.0091980745 
   3710000   293.02082      178.30173      0.0092507654   0.009510827    0.0087832311   0.0091816078 
   3720000   310.87451      101.05987      0.0092414445   0.0094986074   0.0087993438   0.0091797986 
   3730000   300.49269      259.55176      0.009253835    0.009468872    0.0088321125   0.0091849398 
   3740000   291.3727       81.53819       0.009224401    0.0094935622   0.0088257121   0.0091812251 
   3750000   299.87217      82.315899      0.0092321269   0.0095391909   0.0088192839   0.0091968672 
   3760000   302.97663      119.76233      0.0092708957   0.0096313897   0.0088948177   0.009265701  
   3770000   304.64309      245.81925      0.0092438871   0.009617317    0.0089739036   0.0092783692 
   3780000   296.43222     -1.4876897      0.009218616    0.0096634593   0.0089671729   0.0092830827 
   3790000   286.9502       28.899587      0.0091978464   0.0096297594   0.0089842486   0.0092706181 
   3800000   289.53145     -19.294608      0.0093120694   0.0096151062   0.00897253     0.0092999019 
   3810000   291.99671      94.966365      0.0092792839   0.0096064964   0.0089421279   0.0092759694 
   3820000   292.41466     -39.690313      0.00925577     0.0095856839   0.0089490078   0.0092634872 
   3830000   302.84898     -100.33664      0.0093655166   0.0095583299   0.0089168705   0.009280239  
   3840000   297.38188      33.097447      0.0094159672   0.0096651185   0.0089058855   0.0093289904 
   3850000   297.77222      176.75122      0.0094266235   0.0096778089   0.0088665766   0.0093236697 
   3860000   296.43779     -88.884313      0.0094093105   0.0096867439   0.0088393028   0.0093117857 
   3870000   278.76639      19.761329      0.0093950501   0.009695842    0.0088246842   0.0093051921 
   3880000   311.2421       97.1182        0.0094035913   0.0096630265   0.0088569792   0.0093078657 
   3890000   296.77512      83.886507      0.0093593187   0.0096176929   0.0089465444   0.009307852  
   3900000   310.75296     -82.482362      0.0093628157   0.0095698047   0.0089619793   0.0092981999 
   3910000   294.58549      205.78003      0.0094703822   0.0095352752   0.0089433327   0.00931633   
   3920000   295.29573      46.456713      0.0094543628   0.009511156    0.0089172992   0.0092942727 
   3930000   295.4336      -93.88835       0.009430465    0.0094789104   0.008889276    0.0092662171 
   3940000   300.13187      43.279095      0.0094348555   0.0094546888   0.0088843181   0.0092579541 
   3950000   299.53751     -41.952986      0.0094233275   0.0094289008   0.0088637898   0.0092386727 
   3960000   295.61452      130.97053      0.0094063702   0.009411935    0.008904082    0.0092407957 
   3970000   301.73244      29.273274      0.0094264911   0.0094020612   0.00892232     0.0092502908 
   3980000   294.95024      95.348697      0.0093785481   0.009402535    0.0088955389   0.0092255407 
   3990000   299.64908      79.450515      0.0093694977   0.0093526348   0.0089059299   0.0092093542 
   4000000   297.28416      80.646145      0.0093395348   0.0093485477   0.0089929872   0.0092270232 
   4010000   314.14445      102.4266       0.009290101    0.0094466865   0.0089490398   0.0092286091 
   4020000   294.96914      57.168971      0.0092881606   0.0094063495   0.0089255817   0.0092066973 
   4030000   302.60622      33.497843      0.0092642224   0.0095211257   0.008920024    0.009235124  
   4040000   302.39085      23.72298       0.0092537088   0.0095881525   0.0089120076   0.0092512896 
   4050000   306.54021      3.5743806      0.0092918825   0.0095574947   0.0088488491   0.0092327421 
   4060000   304.37111     -82.317438      0.0093345452   0.0095317548   0.0088400919   0.009235464  
   4070000   294.41566      7.0149409      0.0093401576   0.0095360989   0.0088076487   0.0092279684 
   4080000   305.0771       95.208573      0.0093400707   0.0095110661   0.0087898461   0.009213661  
   4090000   296.34134     -111.82142      0.009336735    0.0095246831   0.0087728078   0.0092114086 
   4100000   304.43081      164.9993       0.0094759541   0.009473347    0.008808145    0.009252482  
   4110000   309.02895      98.521244      0.0094930711   0.0094414435   0.0088347226   0.0092564124 
   4120000   282.54987      72.108246      0.0095084071   0.0094252409   0.0090208046   0.0093181508 
   4130000   299.12156      158.78667      0.0094924653   0.009396711    0.0092448503   0.0093780089 
   4140000   305.40748      61.137837      0.0094788404   0.0095239657   0.0093334858   0.0094454307 
   4150000   297.76765      176.30509      0.0095451756   0.0095860791   0.0093174562   0.0094829036 
   4160000   297.74086      78.234856      0.0095471721   0.0096947266   0.0093266683   0.0095228557 
   4170000   306.74984      187.99815      0.0095218164   0.0098997851   0.0092993343   0.0095736453 
   4180000   296.66915      85.79047       0.0095730731   0.010195118    0.0092873146   0.0096851686 
   4190000   302.31156     -24.522756      0.009630594    0.010258064    0.0092714148   0.0097200242 
   4200000   297.89335     -103.26308      0.0096087911   0.010230204    0.0092580763   0.0096990238 
   4210000   296.54058      75.164236      0.0096004908   0.010224796    0.0092357654   0.0096870173 
   4220000   294.4725       0.27958402     0.0095729034   0.010195356    0.0092112209   0.0096598267 
   4230000   297.14595      213.53627      0.0096166822   0.010183844    0.0092320118   0.0096775128 
   4240000   307.61528      117.99344      0.0097708901   0.010212286    0.0093047736   0.00976265   
   4250000   304.61216      22.876676      0.0098255818   0.010185542    0.0094622614   0.0098244616 
   4260000   306.72455      56.353585      0.0097913602   0.010159881    0.0096349074   0.0098620496 
   4270000   287.04687      62.614638      0.0097637646   0.010205488    0.0096330492   0.009867434  
   4280000   307.89411     -119.38238      0.0098181861   0.010238814    0.0096045601   0.0098871867 
   4290000   302.90107      50.817088      0.0097879689   0.010216411    0.009579761    0.0098613802 
   4300000   307.01038      107.25604      0.0098790624   0.01019134     0.0095689205   0.0098797742 
   4310000   296.34523     -95.63995       0.0098274001   0.010165542    0.0096203321   0.0098710915 
   4320000   309.84443      71.042619      0.0098290996   0.010177748    0.0096398362   0.0098822278 
   4330000   302.06951     -7.545421       0.0098406407   0.010217728    0.0096056106   0.0098879931 
   4340000   289.6494       113.52347      0.0098104683   0.010227162    0.0095904252   0.0098760186 
   4350000   305.93272      151.4693       0.0097832984   0.010242697    0.0095751104   0.0098670352 
   4360000   290.89062      56.856691      0.0097564682   0.010232409    0.0096710264   0.0098866345 
   4370000   299.6394      -81.378738      0.0097833994   0.01026059     0.0096674206   0.0099038034 
   4380000   285.65979      48.397624      0.0098258867   0.010219484    0.0096586192   0.0099013302 
   4390000   302.93594      196.10761      0.0099143439   0.010208418    0.0096374209   0.0099200609 
   4400000   309.54402     -41.59566       0.0098893679   0.010203207    0.0096018508   0.0098981419 
   4410000   295.53126      14.529841      0.0098721242   0.010178892    0.00958061     0.0098772087 
   4420000   292.92256     -25.632521      0.0098515019   0.010174134    0.0095555584   0.009860398  
   4430000   295.6362       121.22907      0.0098532973   0.010143286    0.0095376138   0.0098447322 
   4440000   292.57955      98.828964      0.0098677226   0.010117529    0.0095257265   0.0098369928 
   4450000   294.88699     -2.4142697      0.009979141    0.010107859    0.0094896112   0.0098588704 
   4460000   308.50335      64.262655      0.0099578596   0.010120892    0.0094697689   0.0098495069 
   4470000   306.09426      117.81603      0.0099458505   0.01009052     0.0094475287   0.0098279663 
   4480000   292.62329      44.593291      0.0099148311   0.010084823    0.0094345126   0.009811389  
   4490000   304.46276     -74.235404      0.0098876665   0.01005646     0.0094194967   0.0097878745 
   4500000   292.96001     -28.226167      0.0098794983   0.010116239    0.0093940346   0.0097965906 
   4510000   283.05197      137.07952      0.0098771621   0.010089548    0.0093622405   0.0097763167 
   4520000   300.34768      67.445415      0.0098774127   0.010074245    0.0093548695   0.0097688425 
   4530000   298.22335      28.542068      0.009856623    0.010077072    0.0093393644   0.0097576864 
   4540000   305.96866      86.583285      0.0098350963   0.010080393    0.0093216575   0.0097457155 
   4550000   315.20823      95.690146      0.0098870995   0.010062739    0.0093147896   0.0097548761 
   4560000   304.02057      125.58764      0.0099349523   0.010040202    0.0093140754   0.0097630765 
   4570000   298.27311     -2.6606614      0.0099904606   0.010064156    0.0093127821   0.0097891327 
   4580000   300.43605     -38.37532       0.010022841    0.01010011     0.0093212525   0.0098147345 
   4590000   292.20729     -66.16455       0.010156152    0.010085083    0.0093923855   0.0098778733 
   4600000   296.92068      39.130079      0.010217555    0.010068096    0.0093806821   0.0098887777 
   4610000   304.58331     -142.90705      0.010278839    0.010094771    0.0093583267   0.0099106457 
   4620000   312.39867      85.453419      0.010358222    0.010073967    0.009347124    0.0099264374 
   4630000   303.15223      138.68781      0.0105847      0.010092084    0.0093755305   0.010017438  
   4640000   305.2554      -169.36052      0.010608685    0.010096969    0.009387323    0.010030992  
   4650000   294.19865      265.65594      0.010670038    0.010170585    0.0093725209   0.010071048  
   4660000   298.6145       171.71165      0.010649081    0.010209996    0.0094817628   0.010113613  
   4670000   310.95013      208.04853      0.010627882    0.010185934    0.0095468664   0.010120228  
   4680000   307.30405      5.1690627      0.010617246    0.010157706    0.0095142498   0.0100964    
   4690000   297.26243      129.49645      0.010604373    0.010135523    0.0095059197   0.010081939  
   4700000   306.8636      -82.793855      0.010579221    0.010112927    0.0094961389   0.010062762  
   4710000   294.90451      184.95716      0.010553451    0.010090747    0.0094752054   0.010039801  
   4720000   293.77617      107.13047      0.010541776    0.010067655    0.0094886867   0.010032706  
   4730000   301.45304      74.845531      0.010517354    0.010050165    0.009470365    0.010012628  
   4740000   291.7833       66.469176      0.010500711    0.010032323    0.0094559096   0.0099963145 
   4750000   289.73914      96.354731      0.01051158     0.010004804    0.0094390537   0.009985146  
   4760000   306.69197     -98.061421      0.010554611    0.0099839678   0.0094278243   0.009988801  
   4770000   293.65558      76.192165      0.010547676    0.010076158    0.0094251839   0.010016339  
   4780000   298.98952     -54.599486      0.010562598    0.010038918    0.0094407187   0.010014078  
   4790000   297.13395      47.074587      0.010535435    0.010052789    0.0094399139   0.010009379  
   4800000   305.25231     -22.714149      0.010512202    0.010023538    0.0094072607   0.0099810004 
   4810000   312.31811      128.09311      0.010511438    0.010049799    0.0093838255   0.0099816878 
   4820000   307.408        186.33892      0.010492049    0.010032405    0.0093658696   0.0099634412 
   4830000   292.02867      61.122256      0.01047237     0.010015468    0.0093488516   0.0099455632 
   4840000   291.1524      -62.090516      0.010451738    0.0099957965   0.0093248372   0.009924124  
   4850000   297.72307      54.338777      0.010437856    0.0099738379   0.009309687    0.009907127  
   4860000   287.61526      7.5158547      0.010423563    0.01000464     0.0092887811   0.0099056616 
   4870000   282.94828      104.80813      0.010462339    0.010044107    0.0094412815   0.0099825758 
   4880000   307.13646      144.07507      0.010474053    0.010013419    0.0093919722   0.0099598145 
   4890000   289.47788      131.79304      0.01045306     0.0099894216   0.0094306603   0.0099577139 
   4900000   304.47034      93.931529      0.010438557    0.0099921887   0.0094138727   0.0099482062 
   4910000   298.3573      -36.631497      0.010418748    0.010006898    0.0094486004   0.009958082  
   4920000   290.84136     -131.38195      0.010393901    0.009983354    0.0094274079   0.0099348877 
   4930000   311.20879     -127.63287      0.010373189    0.01001756     0.009410721    0.0099338232 
   4940000   313.16423     -79.094585      0.010355707    0.0099959963   0.0094042511   0.0099186515 
   4950000   300.6173       208.85789      0.010330558    0.0099736554   0.0093924654   0.009898893  
   4960000   296.71561      54.396154      0.010312764    0.0099505851   0.0094641895   0.0099091795 
   4970000   294.64083      78.846939      0.010332076    0.0099628795   0.0094219522   0.009905636  
   4980000   300.95827      76.855195      0.01037265     0.009994504    0.0094016936   0.0099229491 
   4990000   297.36748      130.67696      0.010379505    0.010004879    0.0094111462   0.0099318435 
   5000000   300.60113      123.29776      0.010362222    0.010019132    0.0093823311   0.0099212283 
   5010000   286.16312      45.097993      0.010352348    0.010006302    0.0093583445   0.009905665  
   5020000   287.18176     -43.892688      0.010326622    0.0099810373   0.0093564432   0.009888034  
   5030000   292.27816     -108.25095      0.010303124    0.0099621462   0.009424611    0.0098966271 
   5040000   302.77409     -114.0127       0.010334236    0.0099658492   0.0094181692   0.0099060849 
   5050000   297.73785      111.14649      0.01033206     0.0099434446   0.0094017924   0.0098924325 
   5060000   304.54401      99.155001      0.010346906    0.0099539504   0.0093885141   0.0098964568 
   5070000   296.82517      185.86537      0.010378144    0.0099391158   0.0093696911   0.0098956502 
   5080000   295.31628      99.907044      0.010393477    0.0099484125   0.0093648734   0.0099022542 
   5090000   311.30512     -19.041483      0.010397536    0.0099281067   0.0093771504   0.009900931  
   5100000   301.11933     -79.907617      0.010372301    0.0099105369   0.0093595911   0.0098808096 
   5110000   303.247       -14.41107       0.010345465    0.0098873075   0.0093456379   0.0098594703 
   5120000   307.21033     -100.74995      0.010357393    0.0098657293   0.0093342317   0.0098524512 
   5130000   297.4322       277.12766      0.010338027    0.009845696    0.0093108286   0.0098315173 
   5140000   300.97883      123.96167      0.010364142    0.0098280332   0.0093010252   0.009831067  
   5150000   286.94194      104.37628      0.010399056    0.0098091846   0.0093326803   0.0098469735 
   5160000   297.94702      11.805506      0.010427004    0.0097836035   0.0093341477   0.0098482518 
   5170000   305.84621     -35.609521      0.010391247    0.0097695252   0.0093190131   0.009826595  
   5180000   288.51564      102.46941      0.010364551    0.0098134261   0.0093394063   0.0098391277 
   5190000   300.45521     -26.565437      0.010322264    0.0097977017   0.0093275991   0.0098158551 
   5200000   291.04083     -27.004371      0.010295166    0.0098146521   0.0093913873   0.0098337352 
   5210000   299.33507      95.164248      0.010310021    0.0098116845   0.0094168631   0.0098461894 
   5220000   288.4522      -64.519059      0.010303061    0.0098075888   0.0093975039   0.0098360511 
   5230000   304.96928      141.94648      0.010274286    0.0097918643   0.0093787875   0.0098149793 
   5240000   297.1561      -54.266411      0.01024967     0.0097994436   0.0093569743   0.0098020294 
   5250000   302.71988      59.148515      0.010303381    0.0098042908   0.0093345491   0.0098140735 
   5260000   294.42101      121.92903      0.010386506    0.0098479278   0.0093133965   0.0098492769 
   5270000   301.10784      94.278807      0.010386318    0.0098192115   0.0093262781   0.0098439359 
   5280000   304.6271       74.46933       0.010457351    0.0097957279   0.0093076182   0.0098535657 
   5290000   292.11504     -17.83362       0.010481019    0.0097741951   0.0093009299   0.0098520479 
   5300000   318.35959      132.5598       0.010479566    0.0097546708   0.0092840991   0.0098394452 
   5310000   292.79074     -12.502701      0.010519027    0.0097376208   0.0092721845   0.0098429441 
   5320000   304.28518      13.686838      0.010492377    0.0097212855   0.0092636044   0.0098257555 
   5330000   309.39454      197.27292      0.010470089    0.0097145191   0.0092521782   0.0098122622 
   5340000   311.24574     -58.539107      0.010450521    0.0097040501   0.0092529565   0.0098025093 
   5350000   300.39072      88.745361      0.010438109    0.0096749347   0.0092320455   0.0097816965 
   5360000   303.89473     -14.323454      0.010438302    0.0097107589   0.0092102027   0.0097864211 
   5370000   299.8308       63.731734      0.010416118    0.0096907639   0.0092070698   0.0097713172 
   5380000   297.06845      169.09697      0.010397076    0.0096838018   0.0091917851   0.0097575544 
   5390000   294.67531      134.06768      0.010407622    0.009678231    0.0093369612   0.0098076049 
   5400000   290.88806      43.690561      0.010369956    0.0096535841   0.0093983861   0.0098073088 
   5410000   294.32674      6.3330154      0.010358767    0.0096399136   0.0093982551   0.0097989787 
   5420000   300.94562      58.484442      0.010408998    0.0096349797   0.0093934627   0.0098124802 
   5430000   290.07993      7.7380803      0.010416998    0.0096253675   0.0093798031   0.0098073894 
   5440000   303.93239     -24.838102      0.01039696     0.0096116671   0.0093678576   0.0097921615 
   5450000   300.95663      51.1095        0.010387259    0.0095909101   0.0093521549   0.0097767745 
   5460000   296.50161     -91.520905      0.010370502    0.0095759931   0.0093350349   0.0097605099 
   5470000   283.83454      58.16401       0.010349327    0.009594149    0.0093381341   0.0097605368 
   5480000   293.77082      103.84412      0.01033581     0.0096381564   0.0093105947   0.0097615204 
   5490000   293.32087      186.57108      0.010327614    0.0095989118   0.0093174221   0.0097479827 
   5500000   291.14285     -51.258644      0.010307243    0.0095960549   0.0093133309   0.0097388763 
Loop time of 390.443 on 16 procs for 5000000 steps with 1100 atoms

Performance: 1106.435 ns/day, 0.022 hours/ns, 12805.965 timesteps/s, 14.087 Matom-step/s
97.0% CPU use with 16 MPI tasks x no OpenMP threads

MPI task timing breakdown:
Section |  min time  |  avg time  |  max time  |%varavg| %total
---------------------------------------------------------------
Pair    | 78.93      | 83.331     | 86.908     |  26.0 | 21.34
Bond    | 25.487     | 26.247     | 26.633     |   5.6 |  6.72
Neigh   | 6.1214     | 6.1445     | 6.1633     |   0.5 |  1.57
Comm    | 184.01     | 190.57     | 197.45     |  25.2 | 48.81
Output  | 0.068044   | 1.1341     | 1.2071     |  25.8 |  0.29
Modify  | 54.09      | 55.706     | 58.175     |  16.1 | 14.27
Other   |            | 27.31      |            |       |  7.00

Nlocal:          68.75 ave          73 max          64 min
Histogram: 2 1 1 0 5 1 0 2 2 2
Nghost:        863.938 ave         871 max         856 min
Histogram: 2 0 1 1 2 1 6 0 1 2
Neighs:        2907.12 ave        3063 max        2595 min
Histogram: 1 0 3 1 0 0 2 1 2 6

Total # of neighbors = 46514
Ave neighs/atom = 42.285455
Ave special neighs/atom = 4.9090909
Neighbor list builds = 35530
Dangerous builds = 0
Total wall time: 0:07:14
