LAMMPS (29 Aug 2024)
## 1. 基础设置
units               real
dimension           3
boundary            p p p
atom_style          full

## 2. 读取 PDMS Martini 数据结构
pair_style lj/cut   12.0
special_bonds       lj 0.0 0.0 0.5

bond_style          harmonic
angle_style         harmonic
dihedral_style      harmonic
read_data           pdms_viscosity.data
Reading data file ...
  orthogonal box = (-0.58633854 -0.58333854 -0.52384427) to (51.580339 51.583339 51.603844)
  2 by 4 by 2 MPI processor grid
  reading atoms ...
  1100 atoms
  reading velocities ...
  1100 velocities
  scanning bonds ...
  1 = max bonds/atom
  scanning angles ...
  1 = max angles/atom
  scanning dihedrals ...
  1 = max dihedrals/atom
  orthogonal box = (-0.58633854 -0.58333854 -0.52384427) to (51.580339 51.583339 51.603844)
  2 by 4 by 2 MPI processor grid
  reading bonds ...
  1000 bonds
  reading angles ...
  900 angles
  reading dihedrals ...
  800 dihedrals
Finding 1-2 1-3 1-4 neighbors ...
  special bond factors lj:    0        0        0.5     
  special bond factors coul:  0        0        0       
     2 = max # of 1-2 neighbors
     2 = max # of 1-3 neighbors
     4 = max # of 1-4 neighbors
     6 = max # of special neighbors
  special bonds CPU = 0.001 seconds
  read_data CPU = 0.015 seconds

## 3. 温度与体系初始化
# velocity            all create 400.0 12345 mom yes rot yes dist gaussian
variable            T equal 400.0
fix                 1 all npt temp ${T} ${T} 100.0 iso 1.0 1.0 1000
fix                 1 all npt temp 400 ${T} 100.0 iso 1.0 1.0 1000
fix                 1 all npt temp 400 400 100.0 iso 1.0 1.0 1000
timestep            1
thermo_style        custom step temp press density vol
thermo              10000
run                 500000

CITE-CITE-CITE-CITE-CITE-CITE-CITE-CITE-CITE-CITE-CITE-CITE-CITE

Your simulation uses code contributions which should be cited:

- Type Label Framework: https://doi.org/10.1021/acs.jpcb.3c08419

@Article{Gissinger24,
 author = {Jacob R. Gissinger, Ilia Nikiforov, Yaser Afshar, Brendon Waters, Moon-ki Choi, Daniel S. Karls, Alexander Stukowski, Wonpil Im, Hendrik Heinz, Axel Kohlmeyer, and Ellad B. Tadmor},
 title = {Type Label Framework for Bonded Force Fields in LAMMPS},
 journal = {J. Phys. Chem. B},
 year =    2024,
 volume =  128,
 number =  13,
 pages =   {3282–-3297}
}

CITE-CITE-CITE-CITE-CITE-CITE-CITE-CITE-CITE-CITE-CITE-CITE-CITE

Generated 0 of 0 mixed pair_coeff terms from geometric mixing rule
Neighbor list info ...
  update: every = 1 steps, delay = 0 steps, check = yes
  max neighbors/atom: 2000, page size: 100000
  master list distance cutoff = 14
  ghost atom cutoff = 14
  binsize = 7, bins = 8 8 8
  1 neighbor lists, perpetual/occasional/extra = 1 0 0
  (1) pair lj/cut, perpetual
      attributes: half, newton on
      pair build: half/bin/newton
      stencil: half/bin/3d
      bin: standard
Per MPI rank memory allocation (min/avg/max) = 7.052 | 7.052 | 7.053 Mbytes
   Step          Temp          Press         Density         Volume    
         0   298.42897      116.00908      0.92708472     141858.32    
     10000   409.27881      77.368432      0.87054755     151071.22    
     20000   391.26547      31.463804      0.87201832     150816.42    
     30000   404.17908     -204.12775      0.87200869     150818.09    
     40000   397.70404     -62.845317      0.88694791     148277.8     
     50000   395.03071     -165.82824      0.86950173     151252.93    
     60000   392.16199     -26.004147      0.86538398     151972.63    
     70000   381.63208      108.15109      0.876032       150125.43    
     80000   375.04991     -60.430631      0.86829671     151462.84    
     90000   385.42924     -178.72016      0.86040373     152852.29    
    100000   386.68341     -69.512683      0.87022554     151127.12    
    110000   412.51125      53.244775      0.87120482     150957.25    
    120000   381.75679     -10.503623      0.85932117     153044.85    
    130000   400.80324     -39.588818      0.86669788     151742.25    
    140000   393.53552      15.621463      0.86374373     152261.23    
    150000   409.29372     -33.140307      0.8677345      151560.97    
    160000   402.37723     -23.958104      0.86291481     152407.49    
    170000   407.65146     -103.2117       0.87424529     150432.25    
    180000   386.01464      55.625651      0.87071124     151042.82    
    190000   391.81086     -78.0662        0.87051428     151077       
    200000   404.40061      381.28083      0.88934886     147877.5     
    210000   389.27304     -96.005615      0.86962093     151232.19    
    220000   400.66207     -125.34779      0.86963706     151229.39    
    230000   389.04652      29.961148      0.87442655     150401.06    
    240000   409.78979     -109.21899      0.86677255     151729.17    
    250000   387.7726      -165.01512      0.85947372     153017.69    
    260000   412.54232      116.40593      0.86652413     151772.67    
    270000   392.10995     -137.90965      0.85599004     153640.43    
    280000   394.37337     -65.357005      0.87249192     150734.56    
    290000   404.5244      -56.613612      0.85888853     153121.94    
    300000   405.41823      86.387088      0.87859891     149686.83    
    310000   394.07711      86.895273      0.85727094     153410.87    
    320000   406.51335      66.453897      0.87791246     149803.87    
    330000   402.99733     -67.849661      0.86539697     151970.35    
    340000   399.83738     -106.01892      0.85891309     153117.57    
    350000   405.53211     -57.031911      0.8538926      154017.83    
    360000   397.75812     -23.50273       0.86436726     152151.39    
    370000   412.76626     -220.25415      0.85822192     153240.88    
    380000   402.05578     -57.203902      0.87474886     150345.65    
    390000   410.43955      15.224982      0.87734978     149899.94    
    400000   412.39727     -234.15085      0.86523673     151998.5     
    410000   388.65738     -24.807891      0.88062957     149341.66    
    420000   408.9106      -63.042289      0.86364541     152278.56    
    430000   406.63424     -14.46784       0.8647701      152080.52    
    440000   394.2409       66.527347      0.88426629     148727.46    
    450000   380.91048     -187.5993       0.87117533     150962.36    
    460000   421.90565     -11.42472       0.8677619      151556.18    
    470000   411.3128       38.612378      0.87292884     150659.11    
    480000   404.03282     -263.45178      0.86329779     152339.88    
    490000   412.24839      49.781814      0.87367476     150530.48    
    500000   402.72848      51.065737      0.87686958     149982.03    
Loop time of 43.2937 on 16 procs for 500000 steps with 1100 atoms

Performance: 997.836 ns/day, 0.024 hours/ns, 11549.022 timesteps/s, 12.704 Matom-step/s
96.8% CPU use with 16 MPI tasks x no OpenMP threads

MPI task timing breakdown:
Section |  min time  |  avg time  |  max time  |%varavg| %total
---------------------------------------------------------------
Pair    | 8.0184     | 8.5949     | 8.9457     |   8.8 | 19.85
Bond    | 2.8155     | 3.0051     | 3.1342     |   4.1 |  6.94
Neigh   | 0.75742    | 0.75975    | 0.7624     |   0.2 |  1.75
Comm    | 18.178     | 18.789     | 19.806     |   9.1 | 43.40
Output  | 0.0013281  | 0.001447   | 0.0028746  |   1.0 |  0.00
Modify  | 9.5966     | 9.8426     | 10.078     |   3.9 | 22.73
Other   |            | 2.301      |            |       |  5.31

Nlocal:          68.75 ave          74 max          64 min
Histogram: 2 1 1 3 0 2 3 1 0 3
Nghost:        836.125 ave         848 max         827 min
Histogram: 1 3 4 1 0 2 1 1 2 1
Neighs:        2727.94 ave        3023 max        2448 min
Histogram: 2 2 2 0 1 4 1 0 2 2

Total # of neighbors = 43647
Ave neighs/atom = 39.679091
Ave special neighs/atom = 4.9090909
Neighbor list builds = 4516
Dangerous builds = 0
unfix               1
fix                 nvt all nvt temp ${T} ${T} 100.0
fix                 nvt all nvt temp 400 ${T} 100.0
fix                 nvt all nvt temp 400 400 100.0
timestep            1

## 4. Green–Kubo 粘度计算核心部分
variable            p equal 2000
variable            s equal 5
variable            d equal ${p}*${s}
variable            d equal 2000*${s}
variable            d equal 2000*5

thermo              $d
thermo              10000
thermo_style        custom step temp press

# 记录剪切应力张量
variable            pxy equal pxy
variable            pxz equal pxz
variable            pyz equal pyz

fix                 SS all ave/correlate ${s} ${p} ${d} v_pxy v_pxz v_pyz type auto file profile.gk ave running
fix                 SS all ave/correlate 5 ${p} ${d} v_pxy v_pxz v_pyz type auto file profile.gk ave running
fix                 SS all ave/correlate 5 2000 ${d} v_pxy v_pxz v_pyz type auto file profile.gk ave running
fix                 SS all ave/correlate 5 2000 10000 v_pxy v_pxz v_pyz type auto file profile.gk ave running

## 5. 粘度计算（单位转换）
variable            dt equal 10.0    # fs
variable            kB equal 1.38064852e-23
variable            vol equal vol    # 系统体积

# 单位换算
variable            atm2pa equal 1.01325e5
variable            fs2s equal 1.0e-15
variable            A2m equal 1.0e-10
variable            convert_eta equal ${atm2pa}*${atm2pa}*${A2m}*${A2m}*${A2m}*${fs2s}
variable            convert_eta equal 101325*${atm2pa}*${A2m}*${A2m}*${A2m}*${fs2s}
variable            convert_eta equal 101325*101325*${A2m}*${A2m}*${A2m}*${fs2s}
variable            convert_eta equal 101325*101325*1e-10*${A2m}*${A2m}*${fs2s}
variable            convert_eta equal 101325*101325*1e-10*1e-10*${A2m}*${fs2s}
variable            convert_eta equal 101325*101325*1e-10*1e-10*1e-10*${fs2s}
variable            convert_eta equal 101325*101325*1e-10*1e-10*1e-10*1e-15

# 粘度计算（Pa·s）
variable            scale equal 1.0/${T}/${kB}*vol*${s}*${dt}
variable            scale equal 1.0/400/${kB}*vol*${s}*${dt}
variable            scale equal 1.0/400/1.38064852e-23*vol*${s}*${dt}
variable            scale equal 1.0/400/1.38064852e-23*vol*5*${dt}
variable            scale equal 1.0/400/1.38064852e-23*vol*5*10
variable            vxy equal trap(f_SS[3])*${scale}*${convert_eta}
variable            vxy equal trap(f_SS[3])*1.35789478257811e+27*${convert_eta}
variable            vxy equal trap(f_SS[3])*1.35789478257811e+27*1.0266755625e-35
variable            vxz equal trap(f_SS[4])*${scale}*${convert_eta}
variable            vxz equal trap(f_SS[4])*1.35789478257811e+27*${convert_eta}
variable            vxz equal trap(f_SS[4])*1.35789478257811e+27*1.0266755625e-35
variable            vyz equal trap(f_SS[5])*${scale}*${convert_eta}
variable            vyz equal trap(f_SS[5])*1.35789478257811e+27*${convert_eta}
variable            vyz equal trap(f_SS[5])*1.35789478257811e+27*1.0266755625e-35
variable            final_viscosity equal (v_vxy+v_vxz+v_vyz)/3



## 6. 运行模拟并输出粘度
thermo_style        custom step temp press v_vxy v_vxz v_vyz v_final_viscosity
run                 5000000
Generated 0 of 0 mixed pair_coeff terms from geometric mixing rule
Per MPI rank memory allocation (min/avg/max) = 7.052 | 7.052 | 7.053 Mbytes
   Step          Temp          Press          v_vxy          v_vxz          v_vyz      v_final_viscosity
    500000   402.72848      51.065737      0.00010427773  6.6121751e-05  1.0566111e-06  5.7152031e-05
    510000   407.6423       76.924803      0.045298631    0.034596933   -0.0018400376   0.026018509  
    520000   396.9788      -131.49536      0.020661481    0.028859708    0.00083070277  0.016783964  
    530000   389.31716     -7.6849511      0.01371102     0.014852011    0.0030157851   0.010526272  
    540000   408.8722      -113.58942      0.01017433     0.011443045    0.0027576052   0.0081249933 
    550000   405.9732      -84.221273      0.0081495327   0.0095608882   0.0033449813   0.0070184674 
    560000   402.86152      130.8809       0.0068696966   0.0076824025   0.0028990117   0.0058170369 
    570000   395.91814     -2.5684233      0.0093356371   0.0064777737   0.0022431053   0.0060188387 
    580000   369.81603      33.187931      0.015640346    0.0061422753   0.0020095836   0.0079307349 
    590000   419.383        101.16561      0.016161453    0.0051425901   0.0022558209   0.0078532879 
    600000   407.39983      86.787881      0.016949139    0.0045364862   0.0028505058   0.0081120437 
    610000   406.47216      138.01001      0.014993945    0.0044938043   0.0028769454   0.0074548982 
    620000   401.26458     -28.078028      0.014510203    0.0046838535   0.0027763222   0.0073234596 
    630000   404.78021      79.541696      0.014146127    0.0041676176   0.0026570288   0.0069902579 
    640000   383.75263      101.80719      0.01348682     0.004018377    0.0022901208   0.0065984394 
    650000   384.86122     -20.353195      0.012296764    0.0039364633   0.0020830186   0.0061054155 
    660000   400.08081      145.55559      0.012093835    0.0038592865   0.0023187389   0.0060906203 
    670000   397.95922     -7.8251197      0.011418419    0.003773448    0.0027428327   0.0059782331 
    680000   392.31163      71.790546      0.010722981    0.0035728225   0.0038727277   0.0060561769 
    690000   386.79928     -19.481758      0.010650839    0.0033485681   0.0044925705   0.0061639925 
    700000   397.92434      192.34383      0.011774564    0.0035302329   0.0045040481   0.0066029484 
    710000   415.53151     -7.9748126      0.012276146    0.003356411    0.0047357295   0.0067894288 
    720000   394.10365      98.072942      0.011686086    0.0032799799   0.0044937175   0.0064865943 
    730000   395.65109      122.83593      0.01179917     0.0032234187   0.0044372131   0.0064866005 
    740000   410.90184      189.97286      0.011239234    0.0028928837   0.0042165046   0.0061162075 
    750000   412.4566       119.42339      0.010756038    0.0031422554   0.0045023807   0.0061335581 
    760000   408.68303     -1.6825189      0.01035073     0.0035759382   0.0055788402   0.006501836  
    770000   401.5595       187.24052      0.010007468    0.0035308039   0.0053820545   0.0063067756 
    780000   394.82216      36.493471      0.0095708561   0.0034623014   0.0052208257   0.0060846611 
    790000   393.86398      41.16147       0.0091819387   0.0033274509   0.0055643409   0.0060245768 
    800000   386.81906      217.24134      0.0088234362   0.0031623829   0.0055952564   0.0058603585 
    810000   401.0495       163.75815      0.0087960301   0.0032317813   0.0054634471   0.0058304195 
    820000   398.10085     -74.140718      0.0091023569   0.0034559341   0.0057352057   0.0060978322 
    830000   403.78309     -37.916821      0.0088493588   0.0032187445   0.0054465555   0.0058382196 
    840000   402.93471      13.974209      0.0088820995   0.003323185    0.0055981618   0.0059344821 
    850000   415.9241      -34.394872      0.0086917948   0.0031143802   0.0055635245   0.0057898999 
    860000   403.20623      15.742483      0.0085916763   0.0030847427   0.0055283228   0.0057349139 
    870000   391.81231      263.06941      0.0088628929   0.0030954152   0.0053225454   0.0057602845 
    880000   396.77354     -62.927676      0.0084398879   0.0031548586   0.0052140223   0.0056029229 
    890000   393.24916      29.45749       0.0082437335   0.0030469066   0.005738167    0.005676269  
    900000   403.36541      158.45435      0.0080609194   0.0029563065   0.0061278077   0.0057150112 
    910000   391.47889      123.52945      0.0079196261   0.0032513019   0.0070418519   0.0060709266 
    920000   408.16627     -7.4624904      0.0076958451   0.0030921671   0.0069163008   0.0059014377 
    930000   399.61767      140.68068      0.0075527723   0.003024539    0.0067957467   0.0057910193 
    940000   400.28357      43.040957      0.0073837474   0.0030209744   0.0065929391   0.005665887  
    950000   405.30244      266.80667      0.0072926069   0.0030984429   0.0064677998   0.0056196165 
    960000   378.56393     -114.40166      0.0071163409   0.0032918986   0.0062899703   0.0055660699 
    970000   412.20097      27.201269      0.0070077796   0.0031945285   0.0062575985   0.0054866355 
    980000   407.37346      46.201726      0.0070906665   0.0032064729   0.0061621701   0.0054864365 
    990000   383.22504     -108.75683      0.0067958702   0.0032100655   0.0061285865   0.0053781741 
   1000000   416.45506     -92.349382      0.006636802    0.003028713    0.0060377658   0.0052344269 
   1010000   390.98213      159.79276      0.0065661435   0.0030407806   0.0059882064   0.0051983768 
   1020000   407.14223      151.26563      0.0064707109   0.0031197101   0.0058831908   0.0051578706 
   1030000   413.08128      57.749574      0.0063610357   0.0031031458   0.0061728969   0.0052123595 
   1040000   385.19477      54.828383      0.0062761525   0.0032564949   0.0059792963   0.0051706479 
   1050000   398.42172      118.71407      0.0061520421   0.003269421    0.0058991443   0.0051068691 
   1060000   402.27325      71.711309      0.0060704496   0.0031998565   0.0060534843   0.0051079301 
   1070000   410.67716      171.70473      0.0059849624   0.003148756    0.00594678     0.0050268328 
   1080000   407.66705      257.87134      0.0058672679   0.0032035995   0.0058910658   0.0049873111 
   1090000   405.2329       40.961249      0.0059194567   0.0031882803   0.0059904522   0.0050327297 
   1100000   402.25096      35.916562      0.0057545029   0.0032033077   0.0058563372   0.0049380493 
   1110000   405.60735      140.69167      0.0057067255   0.003167295    0.0058223553   0.0048987919 
   1120000   394.57874      140.28609      0.0056199887   0.0031034196   0.0056954936   0.0048063006 
   1130000   404.54047      153.76549      0.0055643768   0.0031481135   0.0056331203   0.0047818702 
   1140000   415.85184      56.614959      0.005660319    0.0030304426   0.0055306731   0.0047404783 
   1150000   408.72128     -115.09009      0.0057635799   0.0030166321   0.0055310547   0.0047704222 
   1160000   406.32155      89.036732      0.0056120945   0.0029768406   0.0054870488   0.0046919947 
   1170000   395.30751     -174.01268      0.0055984496   0.0030986228   0.0053523627   0.004683145  
   1180000   426.88631     -86.382777      0.0055198849   0.0032698832   0.0053026372   0.0046974684 
   1190000   410.7376       250.69673      0.0056114968   0.0036138338   0.005343769    0.0048563665 
   1200000   397.10498      118.75439      0.0055106238   0.0036343268   0.0056257094   0.0049235533 
   1210000   398.90184     -88.82319       0.005453232    0.0036406855   0.0057924912   0.0049621362 
   1220000   411.32517      59.93433       0.0054059354   0.003571076    0.0057830292   0.0049200135 
   1230000   394.17313      56.536065      0.0055233898   0.0035198543   0.0058754854   0.0049729098 
   1240000   385.14285      261.7869       0.0055076008   0.0034797439   0.0059152114   0.0049675187 
   1250000   404.85757      86.513598      0.0055321331   0.0034533506   0.0058607195   0.0049487344 
   1260000   400.5431       103.444        0.0055654132   0.003737188    0.0057533791   0.0050186601 
   1270000   388.11999     -9.6514562      0.0055709889   0.0039412328   0.0057164465   0.0050762227 
   1280000   383.01335      197.89578      0.0055076277   0.0040726321   0.0056443315   0.0050748638 
   1290000   408.78297      3.3698715      0.0054817868   0.0043049319   0.0056312727   0.0051393305 
   1300000   393.95001     -22.683044      0.0054106892   0.0042865968   0.005792132    0.0051631394 
   1310000   399.94259      97.700979      0.0053830721   0.0045882104   0.0057572766   0.005242853  
   1320000   408.11558      313.39634      0.0053382499   0.0046793059   0.0057598999   0.0052591519 
   1330000   394.07285     -60.544433      0.0052983936   0.0045833426   0.0057266561   0.0052027974 
   1340000   412.08222      57.632338      0.0052252366   0.004621994    0.0057979076   0.0052150461 
   1350000   406.51435      92.785926      0.0052252459   0.0046165533   0.0057465808   0.0051961267 
   1360000   391.95873     -54.637764      0.0051378504   0.0045711566   0.0056733438   0.0051274503 
   1370000   394.12916      97.626249      0.0051309665   0.004576788    0.0056386985   0.0051154843 
   1380000   407.43483      117.20349      0.0051149468   0.0045123522   0.0055693155   0.0050655382 
   1390000   405.86178     -17.241633      0.0051419034   0.0044462646   0.0057007041   0.0050962907 
   1400000   414.95729      8.572073       0.0050791509   0.00441484     0.006036352    0.005176781  
   1410000   404.93759      55.973035      0.0050126598   0.0043288566   0.0061676853   0.0051697339 
   1420000   399.05628     -55.348487      0.0049674659   0.0043919487   0.0060426618   0.0051340255 
   1430000   407.46782      102.67088      0.0049119095   0.0043856954   0.0059975345   0.0050983798 
   1440000   396.4531       98.239125      0.0049760005   0.0043672058   0.0060246197   0.0051226087 
   1450000   408.10229      96.023808      0.0050009166   0.0043212397   0.0060937424   0.0051386329 
   1460000   402.98618      135.2622       0.0050067274   0.0042864242   0.0061717849   0.0051549788 
   1470000   393.47441     -50.469194      0.0051550645   0.0042946963   0.0060936225   0.0051811278 
   1480000   406.61772      20.701585      0.0050607391   0.0043974996   0.0060049963   0.0051544117 
   1490000   402.01476     -213.75119      0.0050928413   0.0043549727   0.0059452437   0.0051310192 
   1500000   383.84713      129.59763      0.0050703744   0.0042900139   0.0059122216   0.00509087   
   1510000   402.13299     -158.94663      0.0050626573   0.0042601904   0.0058569949   0.0050599475 
   1520000   402.5903       192.65481      0.0050311696   0.0042837077   0.0057863089   0.0050337287 
   1530000   420.13112      123.83061      0.0050103295   0.0043005529   0.0057255278   0.0050121367 
   1540000   395.43192      99.549674      0.0050295055   0.0042537909   0.0057173049   0.0050002004 
   1550000   403.36258      8.5466505      0.0049811654   0.0042516707   0.0056940078   0.0049756146 
   1560000   405.01309     -238.98381      0.0049397212   0.004213066    0.0056253471   0.0049260448 
   1570000   387.11283      40.082746      0.0049690533   0.0041770589   0.0056608996   0.0049356706 
   1580000   405.49535      238.44618      0.0050105587   0.0041452619   0.0056014116   0.0049190774 
   1590000   410.84023      186.60058      0.0049524617   0.0042116398   0.0055754389   0.0049131801 
   1600000   394.51244      226.15096      0.0050960638   0.0042296915   0.0055972856   0.004974347  
   1610000   416.90158     -46.686945      0.0053125592   0.0042593666   0.0055771311   0.0050496856 
   1620000   405.98788     -70.813362      0.005250682    0.004215257    0.0055935919   0.0050198436 
   1630000   400.68046      123.04469      0.0052174133   0.0042028792   0.0056307243   0.0050170056 
   1640000   405.07711     -27.338746      0.0051744017   0.0041724831   0.0056808472   0.005009244  
   1650000   388.10366     -20.695954      0.0052755778   0.004132435    0.0056957278   0.0050345802 
   1660000   399.54154      54.278509      0.0053080354   0.0040950417   0.0056516324   0.0050182365 
   1670000   391.61216     -16.885421      0.0053951771   0.0041348439   0.0055830609   0.005037694  
   1680000   390.19772      39.954853      0.0054809048   0.0043083856   0.0055115676   0.005100286  
   1690000   399.13248     -70.359694      0.0054424701   0.0042428649   0.0054619202   0.0050490851 
   1700000   406.52523      48.00505       0.0054061359   0.0042328603   0.0053982138   0.0050124033 
   1710000   390.89019     -22.066615      0.0054159652   0.0042367154   0.005376467    0.0050097159 
   1720000   420.77722      36.637067      0.0056734015   0.0041891856   0.0054368379   0.0050998083 
   1730000   385.06452      170.06016      0.0056080867   0.004153295    0.0053984982   0.0050532933 
   1740000   405.00992      131.48166      0.0055931975   0.0041365227   0.0056235433   0.0051177545 
   1750000   403.77741     -10.102678      0.0058752194   0.0041360322   0.0055899618   0.0052004044 
   1760000   404.45828     -14.513423      0.0061905968   0.0041085976   0.0055396298   0.0052796081 
   1770000   403.65806      162.79762      0.0062174018   0.0040572233   0.0055236447   0.0052660899 
   1780000   395.05209      194.81317      0.0062601859   0.004047112    0.0054878243   0.0052650408 
   1790000   383.85441     -32.828692      0.0062090353   0.0040413271   0.0054576213   0.0052359946 
   1800000   391.41564      145.51498      0.0062695784   0.0040069497   0.005453109    0.0052432124 
   1810000   407.78867      2.6936572      0.0061953221   0.0041303818   0.0058949247   0.0054068762 
   1820000   388.38288     -44.270407      0.0061693413   0.00426766     0.0058745563   0.0054371859 
   1830000   388.04565      2.1508986      0.0062370082   0.0042891243   0.0058307168   0.0054522831 
   1840000   406.69739     -78.9785        0.0064362858   0.0042744567   0.0058348711   0.0055152045 
   1850000   389.30678      40.449333      0.0064078876   0.004423517    0.0058186976   0.0055500341 
   1860000   401.36381      71.736592      0.0063729382   0.0043654315   0.0058342995   0.0055242231 
   1870000   378.42458      187.82427      0.0063335943   0.0043803953   0.0058090813   0.0055076903 
   1880000   398.95591     -56.916546      0.0062851198   0.0043728539   0.005791967    0.0054833136 
   1890000   389.46777      82.184136      0.0062505766   0.0043470462   0.0057641371   0.00545392   
   1900000   377.48915     -154.91459      0.0062086183   0.0043301935   0.005739269    0.0054260269 
   1910000   411.79463      76.548373      0.0063473805   0.0042877236   0.0056872169   0.0054407737 
   1920000   398.47854      132.86091      0.0064572321   0.0042521667   0.0057076331   0.005472344  
   1930000   410.59295      27.61826       0.0064627821   0.00423007     0.005660731    0.0054511944 
   1940000   395.94998      18.490664      0.0065468751   0.0042729921   0.0056270887   0.0054823186 
   1950000   398.52612     -8.9860994      0.006660817    0.0042238916   0.0055944426   0.0054930504 
   1960000   390.14272      162.86482      0.0065768889   0.0042117376   0.0055540048   0.0054475437 
   1970000   412.91731      29.614454      0.0065529413   0.0041604656   0.0055152594   0.0054095554 
   1980000   404.08161      72.632582      0.0065436362   0.0041448211   0.0054888762   0.0053924445 
   1990000   383.00025     -230.26167      0.0065269684   0.0041387636   0.0055785216   0.0054147512 
   2000000   392.74724      100.34307      0.0065304895   0.0041051872   0.0055759399   0.0054038722 
   2010000   387.28629      32.686437      0.0064692798   0.0041085924   0.0055308993   0.0053695905 
   2020000   408.40519     -47.149541      0.006444166    0.0041120336   0.0054803574   0.005345519  
   2030000   393.19494     -7.6043476      0.0064131131   0.0041213919   0.0055787643   0.0053710898 
   2040000   404.00049     -53.330282      0.0063845841   0.0041399856   0.0055420431   0.0053555376 
   2050000   396.95405     -0.56716287     0.0064941054   0.0041215512   0.0055548014   0.0053901527 
   2060000   397.90075      265.70169      0.0064899231   0.0040968382   0.005479113    0.0053552915 
   2070000   392.3812       64.959104      0.0065093808   0.0040893513   0.0054354099   0.005344714  
   2080000   431.31982      317.86544      0.0065131961   0.0040976626   0.0055060015   0.0053722867 
   2090000   388.00498      147.81149      0.0064625297   0.0040965119   0.0056024586   0.0053871667 
   2100000   415.95892      89.06882       0.0064400877   0.0040918944   0.0056006923   0.0053775581 
   2110000   405.76821      61.422626      0.0065100041   0.0040864327   0.0056449905   0.0054138091 
   2120000   376.60779     -18.744271      0.0065905231   0.0040480785   0.0056271997   0.0054219338 
   2130000   392.1939      -15.45345       0.0066410898   0.0040126789   0.0055999127   0.0054178938 
   2140000   386.34707      60.03355       0.0065875212   0.0040465011   0.0055535144   0.0053958456 
   2150000   405.88834      83.661842      0.0066058577   0.0040655126   0.0055950522   0.0054221408 
   2160000   397.39886      74.749753      0.0066228774   0.0041307219   0.0056209292   0.0054581762 
   2170000   397.20591      88.741357      0.0065979355   0.0040939375   0.0056112844   0.0054343858 
   2180000   390.20129      220.72877      0.006578804    0.0040725504   0.0055765715   0.0054093086 
   2190000   397.06441     -60.342015      0.0065625511   0.0040521707   0.005660526    0.0054250826 
   2200000   394.46503     -52.790678      0.0065314613   0.0040369505   0.0056507371   0.005406383  
   2210000   413.29284     -107.58931      0.006509095    0.0040113039   0.0056354513   0.0053852834 
   2220000   408.58137      16.641642      0.0064800506   0.0040072027   0.0056127866   0.00536668   
   2230000   423.11576      349.48295      0.0064263593   0.0041357264   0.0055717691   0.0053779516 
   2240000   402.94959     -38.596638      0.0063928138   0.0041373357   0.0055636969   0.0053646155 
   2250000   407.35907     -55.277214      0.006367164    0.0041355334   0.0057124478   0.0054050484 
   2260000   412.81883     -130.87351      0.0063216772   0.004151087    0.0057166903   0.0053964849 
   2270000   422.43606      57.064011      0.0063315041   0.0041241912   0.0056931064   0.0053829339 
   2280000   417.77691      120.39208      0.0063115435   0.0041305058   0.0056494579   0.0053638357 
   2290000   386.42454      51.805468      0.0063076102   0.004123153    0.0056572866   0.0053626833 
   2300000   396.77948     -93.552717      0.0063025825   0.0041979204   0.0055897655   0.0053634228 
   2310000   404.54548      102.46032      0.0063955669   0.0041747474   0.0055322468   0.0053675204 
   2320000   407.89501      15.09085       0.0063521117   0.0041685882   0.0055349355   0.0053518785 
   2330000   392.59023      63.02933       0.006369783    0.0041326527   0.0057001323   0.005400856  
   2340000   385.17977      56.477517      0.0064274729   0.0041231916   0.0056546963   0.0054017869 
   2350000   399.50611      125.89846      0.0066770083   0.0041192785   0.0056210307   0.0054724392 
   2360000   417.57253      257.19771      0.0067015976   0.0041020712   0.0055915452   0.0054650713 
   2370000   397.30148     -7.9808333      0.0066589429   0.004071954    0.0055723578   0.0054344182 
   2380000   417.38084      162.35583      0.0066297522   0.0040548843   0.0055424273   0.0054090213 
   2390000   402.4946       159.26015      0.0066044504   0.0040349843   0.0055831002   0.0054075116 
   2400000   394.82617      240.68213      0.0065633855   0.0040538407   0.0055970111   0.0054047457 
   2410000   393.53275      148.90681      0.0065320164   0.0041004842   0.0055455303   0.005392677  
   2420000   392.05364     -6.931915       0.0065240776   0.0041133      0.0055256939   0.0053876905 
   2430000   410.76832      10.795255      0.006528246    0.0040919961   0.0055060767   0.0053754396 
   2440000   427.94502      83.972944      0.0064989367   0.004115732    0.0054865113   0.00536706   
   2450000   400.93093      11.316532      0.0064687435   0.0041048544   0.0054954475   0.0053563485 
   2460000   400.56579      55.173604      0.0064620725   0.0040871935   0.0054593683   0.0053362114 
   2470000   388.04128      250.51443      0.0064159683   0.004114093    0.0055083232   0.0053461282 
   2480000   409.62965      67.938334      0.0063870947   0.0040949283   0.0055274232   0.0053364821 
   2490000   390.59286      53.490287      0.0064080057   0.0040825222   0.005580851    0.0053571263 
   2500000   395.28637      139.10672      0.0064603756   0.0040702364   0.0055627074   0.0053644398 
   2510000   393.54579      91.65674       0.0064050622   0.0040610132   0.0055383742   0.0053348165 
   2520000   406.85257      116.78462      0.0064916      0.0041016132   0.0055382278   0.005377147  
   2530000   392.20698     -140.86714      0.0067501744   0.00410032     0.0055496      0.0054666981 
   2540000   401.56315      82.22427       0.0068459587   0.0040869105   0.005531916    0.0054882617 
   2550000   395.70573     -135.70999      0.0068177374   0.0041219334   0.0055960044   0.0055118917 
   2560000   384.25775      254.5174       0.0067869861   0.004105181    0.0055554907   0.0054825526 
   2570000   401.07157      144.54487      0.0067628719   0.0041259627   0.0055467282   0.005478521  
   2580000   402.41942     -54.432461      0.0067991823   0.0041462545   0.0055161571   0.005487198  
   2590000   415.08824     -100.93569      0.0067876261   0.0041271673   0.0055703055   0.0054950329 
   2600000   393.29319      161.93241      0.006789338    0.0041131055   0.0055635839   0.0054886758 
   2610000   402.92589      105.04327      0.0067538025   0.0041097701   0.0055753085   0.005479627  
   2620000   408.03358     -59.779021      0.0067276961   0.004104062    0.0055622456   0.0054646679 
   2630000   400.32008      125.14556      0.0066924129   0.0040577592   0.0057263279   0.0054921667 
   2640000   403.1106       125.62856      0.0067219733   0.004077198    0.0057113385   0.0055035033 
   2650000   402.51498      112.83118      0.0066563629   0.0040580707   0.0056933935   0.0054692757 
   2660000   394.65268      212.70034      0.006654705    0.0040453055   0.0057428487   0.0054809531 
   2670000   396.49066      207.03076      0.006635875    0.004030986    0.0058075674   0.0054914761 
   2680000   391.34201      175.63036      0.006667562    0.0040172626   0.0057838828   0.0054895691 
   2690000   408.87864      142.1365       0.0066518219   0.0040088283   0.0057569283   0.0054725262 
   2700000   394.39533      249.96158      0.0066415273   0.0039969311   0.0058007002   0.0054797195 
   2710000   410.57917      65.433827      0.0066211771   0.0040369426   0.0058360677   0.0054980625 
   2720000   410.39737      377.48062      0.0066036253   0.0040330705   0.005814376    0.0054836906 
   2730000   403.54375      103.42491      0.0066270648   0.0040197101   0.0057837122   0.005476829  
   2740000   406.58489     -133.14698      0.0067085494   0.0040027134   0.0057909909   0.0055007512 
   2750000   394.44291     -81.060068      0.0066603153   0.0039989993   0.0057995767   0.0054862971 
   2760000   410.79529      326.99022      0.006631941    0.004003695    0.0057813936   0.0054723432 
   2770000   423.60493      56.052991      0.0066181625   0.004007959    0.0057583611   0.0054614942 
   2780000   391.04228      30.639684      0.0065859885   0.0040060239   0.0057530125   0.0054483416 
   2790000   386.00055      12.526172      0.0066051375   0.00398788     0.0057424297   0.0054451491 
   2800000   422.49852     -20.828954      0.0065771548   0.0039665046   0.0057585764   0.0054340786 
   2810000   394.84753     -17.021564      0.0065490694   0.0039512734   0.0057346594   0.0054116674 
   2820000   398.72625     -147.08926      0.0065311112   0.0039568366   0.0057242582   0.0054040687 
   2830000   391.51947      54.497958      0.0064981873   0.003934393    0.0057139487   0.0053821763 
   2840000   412.59207      248.65465      0.0064795556   0.0039293674   0.0057125144   0.0053738125 
   2850000   400.32886      32.000577      0.0064572587   0.0039308935   0.0056685472   0.0053522331 
   2860000   395.82258     -61.000838      0.006426697    0.0039332342   0.005675484    0.0053451384 
   2870000   414.73654      208.06375      0.0064184291   0.0039857335   0.0056852116   0.0053631247 
   2880000   392.60686     -49.877849      0.0064119725   0.0040017334   0.0056989604   0.0053708888 
   2890000   394.64665      104.05208      0.0065013567   0.0040245326   0.0056939383   0.0054066092 
   2900000   403.43881      3.9241174      0.0065224901   0.0040417062   0.0056727281   0.0054123081 
   2910000   389.6367       114.95712      0.0065619194   0.0041598832   0.0057332882   0.0054850303 
   2920000   396.40973     -63.92093       0.0065562972   0.0042374373   0.0058767285   0.005556821  
   2930000   395.13978     -127.52705      0.0065315005   0.0042208134   0.0058553768   0.0055358969 
   2940000   391.88848      114.43683      0.0066070737   0.0042080701   0.0058328927   0.0055493455 
   2950000   407.17523     -56.458202      0.0065833498   0.0041980714   0.0058886709   0.0055566974 
   2960000   398.51918      19.683924      0.006553356    0.0041803522   0.0058615889   0.0055317657 
   2970000   407.47205     -36.162519      0.0067035348   0.0041700727   0.0058914683   0.0055883586 
   2980000   399.45517      45.363901      0.0068861555   0.0041544707   0.0059693822   0.0056700028 
   2990000   397.90759      48.809102      0.0068508027   0.0041429383   0.0059445222   0.0056460877 
   3000000   389.9322      -71.882523      0.0068677524   0.004148098    0.0059234974   0.0056464493 
   3010000   389.81576      71.965469      0.0068414001   0.0041694134   0.0059004365   0.0056370833 
   3020000   417.89811     -74.360967      0.0068164073   0.0041433233   0.0059239245   0.0056278851 
   3030000   397.86991     -11.575234      0.0068177047   0.0041313038   0.0058974468   0.0056154851 
   3040000   397.99891     -85.241243      0.0068058139   0.0041272549   0.0058692974   0.0056007887 
   3050000   394.76405     -64.327286      0.0067935857   0.0041190573   0.0058586815   0.0055904415 
   3060000   408.72186      102.84325      0.0068565394   0.0040989286   0.0058335862   0.0055963514 
   3070000   410.92167      109.44579      0.0068361219   0.0040872135   0.0058490053   0.0055907802 
   3080000   399.65892      45.152243      0.0068577084   0.0041077235   0.0058533073   0.0056062464 
   3090000   398.89513      61.792615      0.0068186376   0.0040874628   0.0058391502   0.0055817502 
   3100000   407.10337     -27.2285        0.0067779301   0.0041435472   0.0058906415   0.0056040396 
   3110000   402.47579      96.170423      0.0067936559   0.0041706413   0.0058881126   0.0056174699 
   3120000   401.4128       187.96678      0.0068528734   0.0042977872   0.0058774211   0.0056760272 
   3130000   400.33765      42.808932      0.0068575792   0.0043183696   0.0058699581   0.005681969  
   3140000   404.95763      285.22931      0.0068187897   0.0042989585   0.005871539    0.0056630957 
   3150000   397.41235      211.31157      0.0067888281   0.0042818114   0.0058700484   0.0056468959 
   3160000   392.46313     -158.32707      0.0067713631   0.004313678    0.0058701138   0.0056517183 
   3170000   409.20507      299.30138      0.0067501058   0.0043206682   0.0058491308   0.0056399683 
   3180000   399.4403       105.16135      0.0067455557   0.0044071088   0.0058365197   0.0056630614 
   3190000   393.79405      3.433653       0.0068181942   0.0044132559   0.0058924831   0.0057079777 
   3200000   402.54204      178.62094      0.0069326978   0.0043946628   0.0058566138   0.0057279915 
   3210000   375.60862      38.770309      0.0069057938   0.0043762136   0.0058920114   0.0057246729 
   3220000   402.27687      161.55145      0.0069177545   0.0043665542   0.0058530867   0.0057124651 
   3230000   418.62321      68.882698      0.0069288239   0.0043328425   0.0058334737   0.00569838   
   3240000   387.42072     -12.712094      0.006909148    0.004321224    0.0058276731   0.005686015  
   3250000   398.03428      228.41066      0.0068834578   0.0043250334   0.0058308258   0.0056797723 
   3260000   399.96113      153.71719      0.0068592346   0.0043490562   0.0057940142   0.005667435  
   3270000   405.49906      94.177962      0.0068320891   0.0043242251   0.0058017376   0.0056526839 
   3280000   397.6423       49.190854      0.0068137214   0.0043455748   0.005792929    0.0056507417 
   3290000   393.1149       21.275328      0.0067897042   0.0043276456   0.0058129525   0.0056434341 
   3300000   412.96509      97.789964      0.0067619088   0.0043224609   0.0057811005   0.0056218234 
   3310000   406.05549     -90.706432      0.0067401172   0.0043153731   0.0057560077   0.0056038327 
   3320000   401.8637       98.602727      0.0067654451   0.004308359    0.0057514992   0.0056084344 
   3330000   414.65542      201.08119      0.0067751895   0.004328285    0.0057301545   0.0056112097 
   3340000   398.47532     -85.40792       0.0067932579   0.0043259286   0.0057096528   0.0056096131 
   3350000   389.11537      153.7243       0.0068269617   0.0043164573   0.0057197342   0.0056210511 
   3360000   416.77927      108.93306      0.0068103805   0.0043258172   0.0056769175   0.0056043717 
   3370000   394.33985     -15.961619      0.0067821076   0.0043162454   0.0057256051   0.005607986  
   3380000   398.16247     -66.246073      0.0067579391   0.0043079914   0.0057222292   0.0055960532 
   3390000   402.79956      31.829638      0.0068098298   0.0042952147   0.005712691    0.0056059118 
   3400000   410.47223      92.494225      0.0067958951   0.0042780282   0.0057439513   0.0056059582 
   3410000   391.41007     -177.37815      0.0067819815   0.004269242    0.005715498    0.0055889072 
   3420000   389.87718      87.282027      0.006755748    0.0042500124   0.0056802086   0.0055619897 
   3430000   402.93838      130.47325      0.0067314945   0.0042839338   0.0056583888   0.005557939  
   3440000   406.15211      53.823422      0.0067096186   0.0043139303   0.005638613    0.005554054  
   3450000   406.37014      23.816388      0.0066872305   0.0043030156   0.005640208    0.0055434847 
   3460000   395.7593       210.82551      0.0066716438   0.0043116735   0.0056838551   0.0055557241 
   3470000   399.81945      154.74091      0.0066329798   0.0043193294   0.0056500707   0.0055341266 
   3480000   403.51317      9.8356488      0.0066148054   0.0043249704   0.0056660801   0.0055352853 
   3490000   401.85863     -10.40066       0.006588954    0.0042978934   0.0056842036   0.0055236837 
   3500000   410.62324      19.019416      0.0065661024   0.0043089425   0.0056899387   0.0055216612 
   3510000   406.54204     -20.920807      0.0065571749   0.0043501543   0.0056518038   0.005519711  
   3520000   403.59375     -244.29156      0.0065404955   0.0043462394   0.0056502571   0.0055123306 
   3530000   421.76967      134.69895      0.0065269435   0.0043647407   0.005655219    0.0055156344 
   3540000   406.22993      115.88552      0.0065198935   0.0043525767   0.0056476673   0.0055067125 
   3550000   412.51504      25.152469      0.0065365838   0.0043803751   0.0056304109   0.0055157899 
   3560000   395.47241      131.49062      0.0065530589   0.004372636    0.0056244616   0.0055167188 
   3570000   400.48749     -139.14969      0.0065213935   0.0043460376   0.0056163701   0.0054946004 
   3580000   400.56626      43.583635      0.0064956279   0.00433023     0.0055996164   0.0054751581 
   3590000   399.48886     -24.636665      0.006470654    0.0043245055   0.0055813625   0.0054588406 
   3600000   403.21773      118.99756      0.0064830878   0.004343713    0.0055679649   0.0054649219 
   3610000   384.24889      126.46457      0.0064609362   0.0043264938   0.005563316    0.0054502486 
   3620000   391.35343      9.5676759      0.0064490947   0.0043226998   0.0055952738   0.0054556894 
   3630000   416.31422      52.646729      0.0064335921   0.0043195754   0.0055746689   0.0054426122 
   3640000   392.23973     -2.2134602      0.0064326265   0.0043163656   0.0055576228   0.0054355383 
   3650000   417.78795      129.80707      0.0064058855   0.0042909957   0.0055497885   0.0054155566 
   3660000   390.26949      162.0584       0.0064042545   0.0042951044   0.0055280361   0.0054091316 
   3670000   406.17791      91.277251      0.0064214854   0.0042656082   0.0055161265   0.0054010734 
   3680000   413.34288      302.09266      0.006394296    0.004279209    0.0055038023   0.0053924358 
   3690000   393.56799      3.587369       0.0064122697   0.0043171299   0.00550818     0.0054125265 
   3700000   409.34442      28.476798      0.0063998612   0.004322881    0.0055193679   0.0054140367 
   3710000   404.50897      85.500991      0.0063820427   0.0043067793   0.005518235    0.0054023523 
   3720000   380.35914      95.971104      0.00636288     0.0042981663   0.0055033286   0.005388125  
   3730000   415.76062      111.29887      0.0063620421   0.0042857124   0.0054871342   0.0053782962 
   3740000   390.52431      166.04135      0.0063614951   0.004274275    0.0054694518   0.0053684073 
   3750000   400.90063      148.55044      0.0063410751   0.0042693872   0.0054552478   0.0053552367 
   3760000   401.48934      110.52484      0.0063347416   0.0042793584   0.0054358      0.0053499667 
   3770000   394.98845      104.05037      0.0063138483   0.0042821762   0.0054248033   0.0053402759 
   3780000   394.04086      126.09522      0.0063095827   0.0042847518   0.0054350948   0.0053431431 
   3790000   412.67726      12.71405       0.0063006455   0.0042713018   0.0054204492   0.0053307988 
   3800000   398.95653      111.4829       0.0062883032   0.0042541489   0.0054118288   0.0053180936 
   3810000   400.09305     -22.202467      0.0062717423   0.0042665857   0.0053968488   0.0053117256 
   3820000   405.98543     -106.68146      0.0062517571   0.0042718498   0.0053806031   0.0053014033 
   3830000   404.56843     -115.31334      0.0062338474   0.0042911537   0.0053703784   0.0052984598 
   3840000   397.9978      -126.16506      0.0062190078   0.004354771    0.0053502119   0.0053079969 
   3850000   390.525        235.92555      0.0062158114   0.0043920522   0.0053407974   0.0053162203 
   3860000   398.06912      102.08156      0.0062586094   0.0043561557   0.0053247168   0.0053131606 
   3870000   401.45388     -28.789862      0.0062583303   0.004344846    0.0053224463   0.0053085409 
   3880000   407.14608      22.078136      0.0062591318   0.0043361175   0.005316982    0.0053040771 
   3890000   394.93518     -10.217108      0.0063770409   0.0043362965   0.0052988957   0.005337411  
   3900000   397.03313     -79.622843      0.0064067      0.0043315791   0.005279957    0.005339412  
   3910000   422.78696      103.9204       0.0063859178   0.0043271564   0.0052737423   0.0053289388 
   3920000   390.29952     -43.547586      0.0064104354   0.0043249743   0.0053526193   0.0053626763 
   3930000   402.20314      26.453216      0.0063966281   0.0043081531   0.0053717326   0.005358838  
   3940000   413.49843     -30.220938      0.0064056094   0.0043249151   0.0053715762   0.0053673669 
   3950000   391.32631      100.62815      0.0063914611   0.0043404832   0.0053566682   0.0053628708 
   3960000   415.3689       70.756308      0.0063734062   0.0043317504   0.0053713394   0.005358832  
   3970000   410.6496      -105.74465      0.006355437    0.0043448561   0.0053523306   0.0053508746 
   3980000   382.60879      96.69458       0.0063421917   0.0043284721   0.0053409631   0.0053372089 
   3990000   407.12605      24.676709      0.0063636494   0.0043135415   0.005355452    0.0053442143 
   4000000   397.07907      51.028262      0.0064591404   0.0042983833   0.0053385255   0.0053653497 
   4010000   412.18525      118.45285      0.0064931839   0.0042919808   0.0054229356   0.0054027001 
   4020000   418.70616      291.27127      0.0064800479   0.0043927047   0.0054606044   0.0054444523 
   4030000   387.64244      23.132368      0.0065438224   0.004439188    0.0054469057   0.0054766387 
   4040000   390.24184     -97.551037      0.0065137951   0.004420022    0.0055082547   0.0054806906 
   4050000   398.13299      160.84436      0.0065008603   0.0044174941   0.0055340583   0.0054841376 
   4060000   401.42693      116.32728      0.0064884779   0.0044104429   0.0055095853   0.005469502  
   4070000   404.67823     -62.482851      0.006472818    0.0043998997   0.0054961032   0.0054562736 
   4080000   387.70063      32.960602      0.0064673158   0.0044006816   0.0054820114   0.0054500029 
   4090000   394.75945     -129.8404       0.0064511948   0.0043939695   0.0054767479   0.0054406374 
   4100000   398.37167     -12.827355      0.0064551201   0.0043743806   0.005512941    0.0054474806 
   4110000   419.41345      105.059        0.0064288991   0.0043689039   0.0054845286   0.0054274439 
   4120000   405.9886       84.649594      0.0064371999   0.0043578399   0.0054741836   0.0054230745 
   4130000   412.12092     -59.924685      0.0064429248   0.0043476401   0.0054594015   0.0054166554 
   4140000   404.1062      -31.854788      0.0064303784   0.0043376965   0.0054588641   0.0054089797 
   4150000   394.39389      142.18927      0.0064033146   0.0043369416   0.0054409627   0.0053937396 
   4160000   394.01483      126.57197      0.0063833426   0.0043215786   0.0054396906   0.0053815373 
   4170000   392.22585      62.609084      0.0063915581   0.0043112956   0.0054206606   0.0053745047 
   4180000   395.53121      185.28808      0.0064146761   0.0042984779   0.0054077228   0.0053736256 
   4190000   410.28034      118.53869      0.0063955109   0.0043040444   0.0053945302   0.0053646952 
   4200000   417.46667      86.996146      0.0063819585   0.0042840251   0.0053799263   0.0053486366 
   4210000   400.23923     -39.00945       0.0063978253   0.0043273047   0.005401089    0.0053754063 
   4220000   417.42843      7.7281457      0.0063679829   0.0043166408   0.0053813833   0.0053553357 
   4230000   386.4438       35.897649      0.0063796161   0.0043367509   0.0053657532   0.0053607067 
   4240000   394.73272      54.699841      0.0063893759   0.0043869302   0.0053451884   0.0053738315 
   4250000   404.35692      249.95911      0.0063772314   0.0043903495   0.0053421627   0.0053699145 
   4260000   395.12624     -93.143082      0.0063635473   0.0043807293   0.005343347    0.0053625412 
   4270000   385.46927     -34.240585      0.0063427701   0.0043689597   0.005324828    0.0053455193 
   4280000   397.15217      143.43808      0.0063440559   0.0043763124   0.0053118273   0.0053440652 
   4290000   400.27116      188.15311      0.0063324719   0.0043728629   0.0053388288   0.0053480546 
   4300000   401.39969      78.55558       0.006323016    0.0043740888   0.0053291491   0.0053420847 
   4310000   395.31878      57.401165      0.0063088491   0.0043669742   0.0053143737   0.0053300657 
   4320000   380.28463      74.678605      0.0063210514   0.0043624068   0.0053243242   0.0053359275 
   4330000   396.79087      194.16065      0.0063056475   0.0043681189   0.0053208155   0.0053315273 
   4340000   402.34273      6.3036098      0.0062920381   0.0043728207   0.0053056522   0.0053235037 
   4350000   400.91832      44.93607       0.0062813793   0.0043730585   0.0052910174   0.0053151517 
   4360000   403.09867      169.73549      0.006268377    0.0043624193   0.0052963931   0.0053090631 
   4370000   396.79608      129.87109      0.0062567911   0.0044080085   0.0052813053   0.0053153683 
   4380000   401.12409      13.959505      0.0062501042   0.004467301    0.0052987532   0.0053387195 
   4390000   391.02098     -169.46344      0.0062364146   0.0044535      0.0052882197   0.0053260448 
   4400000   401.26673     -46.578348      0.006221605    0.0044737327   0.0052968828   0.0053307402 
   4410000   389.7844       85.271383      0.0062244869   0.0044959832   0.0052933795   0.0053379498 
   4420000   403.92624     -121.43737      0.0062457464   0.0045009398   0.0053064291   0.0053510384 
   4430000   403.86924      156.18789      0.0062615006   0.0046442172   0.0053317315   0.0054124831 
   4440000   408.63732     -109.23788      0.0062633747   0.0046816484   0.0053170318   0.005420685  
   4450000   384.11182      229.39812      0.0062948586   0.0046614611   0.0053131776   0.0054231658 
   4460000   407.68419     -35.765899      0.0063230726   0.0046602889   0.0052978732   0.0054270782 
   4470000   399.4379       111.809        0.0063554311   0.0047286639   0.0052926431   0.0054589127 
   4480000   409.3108       104.65367      0.0063437614   0.0046938405   0.00532577     0.0054544573 
   4490000   405.59959     -86.846095      0.0063314481   0.0046820749   0.0052995808   0.0054377013 
   4500000   413.90683      3.5022722      0.0063168139   0.0046718106   0.005296122    0.0054282488 
   4510000   395.15443     -0.25699873     0.0063141449   0.0047252543   0.0052861838   0.005441861  
   4520000   403.38809     -77.321227      0.0063253202   0.0046968277   0.0052861509   0.0054360996 
   4530000   391.76814      143.45637      0.0063167684   0.0046879303   0.0052702837   0.0054249942 
   4540000   394.07404      83.081566      0.0063442937   0.0047092908   0.0053356527   0.0054630791 
   4550000   400.32899     -42.174699      0.0063285665   0.0047145682   0.0054296497   0.0054909281 
   4560000   418.2575      -14.568343      0.006354472    0.004696839    0.005413633    0.0054883146 
   4570000   394.9914       10.008851      0.0064069967   0.0046972966   0.005424893    0.0055097288 
   4580000   406.08682      153.11         0.0064260734   0.0046906867   0.005405283    0.0055073477 
   4590000   383.50515      12.966293      0.0064165415   0.0046809514   0.005541252    0.0055462483 
   4600000   400.06954      63.675182      0.0064072874   0.0047555552   0.005540395    0.0055677459 
   4610000   397.7485      -79.281648      0.0064079973   0.0047494052   0.0055277626   0.0055617217 
   4620000   410.84272     -6.4499595      0.0064228888   0.0047333459   0.0055136656   0.0055566334 
   4630000   400.69572      84.595917      0.0064143367   0.0047217861   0.0055309968   0.0055557065 
   4640000   403.3128       89.699179      0.0063971609   0.0047471095   0.0055139667   0.0055527457 
   4650000   410.84059     -12.932111      0.0063718995   0.0047377865   0.0055113496   0.0055403452 
   4660000   400.30432      264.0334       0.0063600111   0.0047519153   0.0054951941   0.0055357069 
   4670000   406.8098       254.8994       0.0063479667   0.0047550302   0.0054863454   0.0055297808 
   4680000   389.81105      19.740491      0.0063417004   0.0047350802   0.005468234    0.0055150048 
   4690000   399.70026      161.18622      0.0063243896   0.0047266095   0.0054524319   0.0055011437 
   4700000   406.6819       83.383053      0.0063087255   0.0047175309   0.0054365781   0.0054876115 
   4710000   397.62272     -99.217961      0.0062956023   0.0047404105   0.0054256558   0.0054872229 
   4720000   411.18454     -62.419691      0.0062804095   0.0047904986   0.0054062794   0.0054923958 
   4730000   408.89769     -44.217628      0.0062770974   0.0047956974   0.0054049439   0.0054925795 
   4740000   404.04687      178.39907      0.0063044275   0.0047881348   0.0054005207   0.0054976943 
   4750000   421.08131      263.42591      0.0062899515   0.0048015967   0.005389173    0.0054935737 
   4760000   405.39321      63.496947      0.0062741804   0.0047817376   0.005381345    0.0054790877 
   4770000   398.015        52.323083      0.0062686755   0.0048587333   0.0053846397   0.0055040161 
   4780000   408.38873      244.21858      0.0062486677   0.0048500436   0.0053833245   0.0054940119 
   4790000   405.80964      149.94241      0.0062898127   0.0048371152   0.0053780389   0.0055016556 
   4800000   406.45404      167.65608      0.0062870914   0.004823875    0.0053748787   0.0054952817 
   4810000   423.71663      45.638843      0.0063268878   0.0048562214   0.0053753438   0.0055194843 
   4820000   392.06826     -75.410844      0.00631939     0.0048963002   0.005368736    0.0055281421 
   4830000   416.07071      43.653665      0.0063059373   0.0049336833   0.0053589952   0.0055328719 
   4840000   392.77648      59.99592       0.0062977344   0.0049242316   0.0053536594   0.0055252085 
   4850000   390.86719      192.54805      0.0062807157   0.0049195871   0.005343335    0.005514546  
   4860000   396.6397      -31.989365      0.0062702036   0.0049102649   0.0053336607   0.0055047098 
   4870000   411.97764      107.77596      0.0062547794   0.0048954507   0.0053279548   0.0054927283 
   4880000   415.11471      48.823362      0.0062393446   0.0048857508   0.0053351718   0.0054867557 
   4890000   398.46583      14.763561      0.0062288901   0.004887305    0.0053681522   0.0054947824 
   4900000   405.5444       44.234668      0.0062143185   0.0049151166   0.0053607564   0.0054967305 
   4910000   394.44539      117.73631      0.0061964285   0.0049112169   0.0053870895   0.0054982449 
   4920000   408.73261      8.2446595      0.0061821445   0.0049016441   0.0054177683   0.0055005189 
   4930000   389.59231     -59.310698      0.0062684909   0.0048904996   0.0053974638   0.0055188181 
   4940000   399.76615      126.18487      0.0062586789   0.0048717964   0.005382178    0.0055042178 
   4950000   394.79729      59.237968      0.0063565559   0.0048733459   0.005377414    0.0055357719 
   4960000   404.32401      164.29235      0.006345283    0.0048640312   0.0053684895   0.0055259346 
   4970000   403.42178      92.254309      0.0063454956   0.0048468622   0.0054432219   0.0055451932 
   4980000   395.33687     -5.2456572      0.0063490514   0.0048364164   0.0054982651   0.0055612443 
   4990000   396.17516     -123.18123      0.0063313565   0.0048294158   0.0055169315   0.0055592346 
   5000000   395.04453      199.91898      0.0063210838   0.0048306842   0.0055251388   0.0055589689 
   5010000   394.0357      -128.47548      0.006304471    0.0048309857   0.0055792696   0.0055715754 
   5020000   410.17418      206.68763      0.0063009604   0.0048271305   0.0055611142   0.0055630684 
   5030000   401.3778      -121.81236      0.0063068003   0.0048293049   0.0055534626   0.0055631893 
   5040000   395.51223     -75.807235      0.0062998978   0.0048599296   0.0055516497   0.0055704924 
   5050000   399.37392      106.00714      0.0063259104   0.0048617819   0.0055501961   0.0055792961 
   5060000   393.46977      21.378381      0.00634826     0.0048560465   0.0055394833   0.0055812633 
   5070000   422.41555      59.656414      0.006346766    0.0048573225   0.0055312384   0.0055784423 
   5080000   392.12583     -135.05117      0.0063844295   0.0048449362   0.0055208001   0.0055833886 
   5090000   398.75696     -23.517823      0.0063741764   0.0048656494   0.0055133975   0.0055844078 
   5100000   423.52429     -205.07675      0.0063696788   0.0048588223   0.0055191862   0.0055825624 
   5110000   385.405       -7.6819217      0.0063650434   0.0048714962   0.0055307244   0.005589088  
   5120000   390.34506     -60.407455      0.0063535886   0.0048751199   0.0055231731   0.0055839606 
   5130000   402.26909     -140.91004      0.0063660668   0.0048737054   0.005552197    0.0055973231 
   5140000   375.01003     -42.456248      0.0063620322   0.0048578439   0.0055566546   0.0055921769 
   5150000   388.78673      198.38634      0.0063416067   0.0048448194   0.0055966683   0.0055943648 
   5160000   386.76028     -65.40825       0.0063276385   0.0048358193   0.0056199393   0.0055944657 
   5170000   397.74522      49.348977      0.0063577384   0.0048284286   0.00561429     0.0056001523 
   5180000   410.54268      126.59148      0.0063376573   0.0048478506   0.0056152658   0.0056002579 
   5190000   407.50205      51.911531      0.0063427141   0.0048447904   0.0056336206   0.0056070417 
   5200000   388.9742       175.25751      0.006360652    0.0048432101   0.0056389593   0.0056142738 
   5210000   401.77111      149.02507      0.0063533875   0.004853511    0.0056235395   0.005610146  
   5220000   392.01813     -48.740314      0.0063392932   0.0048415183   0.0056441096   0.005608307  
   5230000   390.79566      80.528855      0.0063292463   0.0048371114   0.0056344969   0.0056002848 
   5240000   416.6705       40.368147      0.0063337746   0.0048369388   0.0056258156   0.005598843  
   5250000   408.09072     -32.953675      0.0063155249   0.004867096    0.0056227759   0.005601799  
   5260000   397.7881       252.3265       0.0063029984   0.0048800108   0.0056420753   0.0056083615 
   5270000   414.89499      62.936621      0.0063026305   0.0048963263   0.0056527489   0.0056172352 
   5280000   393.82031      126.65514      0.0062968058   0.0048960656   0.0056681061   0.0056203258 
   5290000   411.06924      75.017864      0.0063310447   0.0048927211   0.0056587961   0.0056275206 
   5300000   396.04915     -131.13815      0.0063338613   0.004901123    0.0056758291   0.0056369378 
   5310000   402.99705      105.60987      0.0063297172   0.0048950632   0.0056795663   0.0056347822 
   5320000   400.6082      -1.2234281      0.0063330057   0.0048941444   0.0056708568   0.005632669  
   5330000   417.39422      97.303615      0.0064137223   0.0048851049   0.0056661963   0.0056550078 
   5340000   407.95725      268.08512      0.0065415747   0.0048845911   0.0056837629   0.0057033096 
   5350000   389.31642      41.396029      0.0065521024   0.0048753986   0.005678839    0.0057021133 
   5360000   399.1223      -1.3509778      0.0065362783   0.004864889    0.0056844668   0.0056952114 
   5370000   403.55026      241.19764      0.006522597    0.0048630153   0.0056836965   0.0056897696 
   5380000   387.06119      202.75617      0.00652325     0.0048588262   0.0056700536   0.0056840433 
   5390000   395.67392     -178.7811       0.0065355303   0.0048507474   0.0056486299   0.0056783025 
   5400000   399.95872      88.764068      0.006527901    0.0048421483   0.005681597    0.0056838821 
   5410000   394.30876      173.10964      0.006517111    0.0048279928   0.0057318155   0.0056923064 
   5420000   408.61116      49.556267      0.0065068527   0.0048264081   0.0057477838   0.0056936815 
   5430000   384.32417      35.090174      0.0065345366   0.0048266311   0.005738829    0.0056999989 
   5440000   407.31258     -2.5543748      0.0065398903   0.0048269684   0.0057261305   0.0056976631 
   5450000   408.77964      171.94806      0.0065497366   0.0048188785   0.0057193644   0.0056959932 
   5460000   389.5738       194.16448      0.0065429697   0.004869666    0.0057052136   0.0057059498 
   5470000   412.40221      126.70696      0.0065317443   0.004870095    0.0056986988   0.0057001794 
   5480000   401.28051      71.651631      0.0065173093   0.0048604799   0.0057367612   0.0057048501 
   5490000   404.98431     -6.4896709      0.0065059745   0.004852556    0.0057467138   0.0057017481 
   5500000   396.12184      54.443161      0.006493479    0.0048487236   0.0057354919   0.0056925648 
Loop time of 381.039 on 16 procs for 5000000 steps with 1100 atoms

Performance: 1133.742 ns/day, 0.021 hours/ns, 13122.014 timesteps/s, 14.434 Matom-step/s
97.0% CPU use with 16 MPI tasks x no OpenMP threads

MPI task timing breakdown:
Section |  min time  |  avg time  |  max time  |%varavg| %total
---------------------------------------------------------------
Pair    | 74.993     | 78.603     | 82.107     |  26.3 | 20.63
Bond    | 25.953     | 26.375     | 26.987     |   4.9 |  6.92
Neigh   | 7.057      | 7.0791     | 7.1064     |   0.5 |  1.86
Comm    | 178.97     | 185.6      | 191.99     |  25.7 | 48.71
Output  | 0.067985   | 1.1297     | 1.2012     |  25.8 |  0.30
Modify  | 53.386     | 55.101     | 57.695     |  16.7 | 14.46
Other   |            | 27.15      |            |       |  7.12

Nlocal:          68.75 ave          76 max          60 min
Histogram: 2 1 0 1 0 5 4 0 1 2
Nghost:        835.812 ave         855 max         821 min
Histogram: 2 1 1 3 3 3 0 2 0 1
Neighs:         2739.5 ave        3136 max        2310 min
Histogram: 1 1 2 0 3 3 2 2 1 1

Total # of neighbors = 43832
Ave neighs/atom = 39.847273
Ave special neighs/atom = 4.9090909
Neighbor list builds = 41962
Dangerous builds = 0
Total wall time: 0:07:04
