LAMMPS (29 Aug 2024)
# LAMMPS输入文件示例：使用Martini 3粗粒化力场计算PDMS的均方回转半径
# -----------------------------------------------------
# 1. 初始化设置
# -----------------------------------------------------
units               real
dimension           3
boundary            p p p
atom_style          full

# 读取包含PDMS分子结构的data文件
read_data           bad_pdms_250_box.data
Reading data file ...
  orthogonal box = (-2.524496 -2.210001 -2.483001) to (241.0155 241.26999 240.987)
  4 by 2 by 2 MPI processor grid
  reading atoms ...
  45000 atoms
  scanning bonds ...
  1 = max bonds/atom
  scanning angles ...
  1 = max angles/atom
  scanning dihedrals ...
  1 = max dihedrals/atom
  orthogonal box = (-2.524496 -2.210001 -2.483001) to (241.0155 241.26999 240.987)
  4 by 2 by 2 MPI processor grid
  reading bonds ...
  44820 bonds
  reading angles ...
  44640 angles
  reading dihedrals ...
  44460 dihedrals
Finding 1-2 1-3 1-4 neighbors ...
  special bond factors lj:    0        0        0       
  special bond factors coul:  0        0        0       
     2 = max # of 1-2 neighbors
     2 = max # of 1-3 neighbors
     4 = max # of 1-4 neighbors
     6 = max # of special neighbors
  special bonds CPU = 0.004 seconds
  read_data CPU = 0.318 seconds

# -----------------------------------------------------
# 2. 力场参数设置（Martini 3参数）
# -----------------------------------------------------
# 定义非键相互作用（示例：Lennard-Jones势，截断距离可参考Martini 3常用取值）
pair_style lj/cut   12.0
special_bonds       lj 0.0 0.0 0.5
Finding 1-2 1-3 1-4 neighbors ...
  special bond factors lj:    0        0        0.5     
  special bond factors coul:  0        0        0       
     2 = max # of 1-2 neighbors
     2 = max # of 1-3 neighbors
     4 = max # of 1-4 neighbors
     6 = max # of special neighbors
  special bonds CPU = 0.002 seconds
pair_coeff          1 1 0.7337 5.1
# 定义键、角、二面角势（示例参数，实际参数请参考相关文献）
bond_style          harmonic
bond_coeff          1 13.243 4.48
angle_style         harmonic
angle_coeff         1 5.48 86.0
dihedral_style      harmonic
dihedral_coeff      1 0.3346  1  1
# -----------------------------------------------------
# 3. 邻域列表设置
# -----------------------------------------------------
neigh_modify    one 1000
neighbor        1 bin
neigh_modify    delay 0 every 1 check yes

# -----------------------------------------------------
# 4. 能量最小化与预平衡
# -----------------------------------------------------
minimize        1.0e-4 1.0e-6 1000 10000

CITE-CITE-CITE-CITE-CITE-CITE-CITE-CITE-CITE-CITE-CITE-CITE-CITE

Your simulation uses code contributions which should be cited:

- Type Label Framework: https://doi.org/10.1021/acs.jpcb.3c08419

@Article{Gissinger24,
 author = {Jacob R. Gissinger, Ilia Nikiforov, Yaser Afshar, Brendon Waters, Moon-ki Choi, Daniel S. Karls, Alexander Stukowski, Wonpil Im, Hendrik Heinz, Axel Kohlmeyer, and Ellad B. Tadmor},
 title = {Type Label Framework for Bonded Force Fields in LAMMPS},
 journal = {J. Phys. Chem. B},
 year =    2024,
 volume =  128,
 number =  13,
 pages =   {3282–-3297}
}

CITE-CITE-CITE-CITE-CITE-CITE-CITE-CITE-CITE-CITE-CITE-CITE-CITE

Generated 0 of 0 mixed pair_coeff terms from geometric mixing rule
Neighbor list info ...
  update: every = 1 steps, delay = 0 steps, check = yes
  max neighbors/atom: 1000, page size: 100000
  master list distance cutoff = 13
  ghost atom cutoff = 13
  binsize = 6.5, bins = 38 38 38
  1 neighbor lists, perpetual/occasional/extra = 1 0 0
  (1) pair lj/cut, perpetual
      attributes: half, newton on
      pair build: half/bin/newton
      stencil: half/bin/3d
      bin: standard
Per MPI rank memory allocation (min/avg/max) = 8.658 | 8.74 | 9.125 Mbytes
   Step          Temp          E_pair         E_mol          TotEng         Press     
         0   0              1.2577438e+12  133332.57      1.2577439e+12  2.3894919e+10
       935   0             -133018.19      37130.182     -95888.012     -90.405037    
Loop time of 2.45288 on 16 procs for 935 steps with 45000 atoms

97.7% CPU use with 16 MPI tasks x no OpenMP threads

Minimization stats:
  Stopping criterion = energy tolerance
  Energy initial, next-to-last, final = 
      1257743934833.77  -95878.7118419265  -95888.0119730322
  Force two-norm initial, final = 1.717759e+12 40.748413
  Force max component initial, final = 9.1109908e+10 13.062578
  Final line search alpha, max atom move = 0.0071054503 0.092815502
  Iterations, force evaluations = 935 937

MPI task timing breakdown:
Section |  min time  |  avg time  |  max time  |%varavg| %total
---------------------------------------------------------------
Pair    | 0.49935    | 0.8425     | 1.2752     |  24.8 | 34.35
Bond    | 0.18697    | 0.26987    | 0.35412    |  10.8 | 11.00
Neigh   | 0.5308     | 0.5346     | 0.53764    |   0.3 | 21.79
Comm    | 0.21854    | 0.66956    | 1.1433     |  32.5 | 27.30
Output  | 0          | 0          | 0          |   0.0 |  0.00
Modify  | 0          | 0          | 0          |   0.0 |  0.00
Other   |            | 0.1364     |            |       |  5.56

Nlocal:         2812.5 ave        3557 max        1965 min
Histogram: 1 1 1 2 2 3 2 1 1 2
Nghost:        2418.06 ave        2989 max        1715 min
Histogram: 4 1 0 0 2 1 0 1 3 4
Neighs:        65570.5 ave       91452 max       43752 min
Histogram: 2 2 1 1 5 1 0 1 2 1

Total # of neighbors = 1049128
Ave neighs/atom = 23.313956
Ave special neighs/atom = 5.952
Neighbor list builds = 128
Dangerous builds = 0
fix             1 all npt temp 300.0 300.0 100.0 iso 1.0 1.0 1000
timestep        1
thermo_style    custom step temp press density vol
thermo          10000
run             500000
Generated 0 of 0 mixed pair_coeff terms from geometric mixing rule
Per MPI rank memory allocation (min/avg/max) = 7.534 | 7.616 | 8.001 Mbytes
   Step          Temp          Press         Density         Volume    
       935   0             -90.405037      0.37266194     14437069     
     10000   300.38313     -8.2585079      0.47898676     11232348     
     20000   298.42859     -7.2097305      0.55531897     9688388.7    
     30000   298.97145      5.4263497      0.5914486      9096557.4    
     40000   300.49895     -0.72859457     0.62396504     8622512      
     50000   298.37475      6.5221913      0.6602379      8148799.3    
     60000   300.42172     -10.522428      0.70367638     7645767.7    
     70000   300.14078      19.264054      0.74716466     7200750.2    
     80000   300.25278      13.577351      0.78143658     6884942.7    
     90000   300.68649     -24.337175      0.80978888     6643887.3    
    100000   297.00342      11.060049      0.83542257     6440029.6    
    110000   301.52147      2.2895825      0.85530546     6290321.3    
    120000   299.15013     -24.701558      0.87236749     6167293.2    
    130000   301.57295      12.177675      0.88418832     6084841.9    
    140000   298.90923     -6.5306777      0.89556446     6007547.6    
    150000   298.60675     -13.878722      0.90703876     5931550.4    
    160000   300.78601      54.655408      0.91526403     5878244.9    
    170000   299.68781     -13.560187      0.91906463     5853936.7    
    180000   298.21497     -13.855974      0.92478821     5817706.2    
    190000   300.83282     -16.361489      0.9296912      5787024.9    
    200000   300.12464     -2.8098568      0.93313056     5765694.9    
    210000   300.44301      21.442963      0.93420758     5759047.8    
    220000   300.62351     -32.001681      0.93609325     5747446.8    
    230000   300.48118      3.7594149      0.94097139     5717651.1    
    240000   299.82971     -11.89977       0.93980404     5724753.1    
    250000   300.26419      22.078038      0.94493544     5693665.3    
    260000   302.97672      19.781269      0.94612905     5686482.3    
    270000   300.3901      -37.946743      0.94629761     5685469.4    
    280000   300.77933     -12.133525      0.94852078     5672143.6    
    290000   298.92791      37.961799      0.95163917     5653556.8    
    300000   302.49748     -18.034897      0.95126197     5655798.6    
    310000   300.57025      16.933069      0.95134475     5655306.5    
    320000   299.82581     -16.149501      0.94938106     5667003.8    
    330000   300.00584     -17.338137      0.95184404     5652340      
    340000   299.23622     -8.1173793      0.95063947     5659502.1    
    350000   297.77875     -0.054819962    0.95374188     5641092.5    
    360000   300.53477     -18.607389      0.95128154     5655682.2    
    370000   300.80976     -17.596714      0.95345045     5642816.7    
    380000   299.43314      5.8122786      0.95390249     5640142.6    
    390000   299.84612     -26.723141      0.95370682     5641299.8    
    400000   299.12625     -11.83659       0.95433937     5637560.7    
    410000   299.79323      14.484141      0.95347445     5642674.6    
    420000   299.65784      40.238705      0.95635883     5625656.3    
    430000   299.74157     -7.3405034      0.95251376     5648365.7    
    440000   298.69241     -6.5326187      0.95270171     5647251.5    
    450000   299.85918     -7.9837382      0.95443909     5636971.7    
    460000   300.18204     -14.634841      0.95406383     5639188.9    
    470000   299.59183     -11.003018      0.95319867     5644307.2    
    480000   299.33831     -32.97053       0.95312451     5644746.3    
    490000   300.98535     -18.074309      0.95420371     5638362.2    
    500000   301.54318      6.2047016      0.95329535     5643734.8    
    500935   302.74412      3.333969       0.95336143     5643343.6    
Loop time of 873.742 on 16 procs for 500000 steps with 45000 atoms

Performance: 49.442 ns/day, 0.485 hours/ns, 572.251 timesteps/s, 25.751 Matom-step/s
98.7% CPU use with 16 MPI tasks x no OpenMP threads

MPI task timing breakdown:
Section |  min time  |  avg time  |  max time  |%varavg| %total
---------------------------------------------------------------
Pair    | 375.41     | 429.16     | 457.41     | 111.1 | 49.12
Bond    | 140.49     | 157.43     | 167.31     |  61.2 | 18.02
Neigh   | 42.193     | 42.254     | 42.297     |   0.6 |  4.84
Comm    | 139.56     | 174.65     | 246.67     | 220.1 | 19.99
Output  | 0.0021849  | 0.0022988  | 0.0036004  |   0.7 |  0.00
Modify  | 54.839     | 59.797     | 70.442     |  75.3 |  6.84
Other   |            | 10.45      |            |       |  1.20

Nlocal:         2812.5 ave        2844 max        2782 min
Histogram: 1 0 2 0 6 3 1 2 0 1
Nghost:        4619.31 ave        4655 max        4578 min
Histogram: 1 1 0 1 3 4 1 4 0 1
Neighs:        95183.2 ave       96674 max       94082 min
Histogram: 2 0 4 4 1 0 1 3 0 1

Total # of neighbors = 1522931
Ave neighs/atom = 33.842911
Ave special neighs/atom = 5.952
Neighbor list builds = 9621
Dangerous builds = 0
unfix           1

# variable        lambda equal ramp(0.8,1.0)
# fix             2 all adapt 1 pair lj/cut/soft lambda * * v_lambda

# fix             3 all npt temp 300.0 300.0 100.0 iso 1.0 1.0 1000
# timestep        1
# thermo_style    custom step temp press density vol
# thermo          10000
# run             50000
# unfix           3

# -----------------------------------------------------
# 5. 计算均方回转半径
# -----------------------------------------------------
# 使用compute gyration命令计算整个体系的回转半径
fix             equil all npt temp 300.0 300.0 100.0 iso 1.0 1.0 1000
group           pdms1 id <= 250
250 atoms in group pdms1
group           pdms2 id 251:500
250 atoms in group pdms2
group           pdms3 id 501:750
250 atoms in group pdms3
group           pdms4 id 751:1000
250 atoms in group pdms4
group           pdms5 id 1001:1250
250 atoms in group pdms5
group           pdms6 id 1251:1500
250 atoms in group pdms6
group           pdms7 id 1501:1750
250 atoms in group pdms7
group           pdms8 id 1751:2000
250 atoms in group pdms8
group           pdms9 id 2001:2250
250 atoms in group pdms9
group           pdms10 id 2251:2500
250 atoms in group pdms10
# variable        d_end equal "sqrt((x[1]-x[10])^2 + (y[1]-y[10])^2 + (z[1]-z[10])^2)"
compute         rg1 pdms1 gyration
compute         rg2 pdms2 gyration
compute         rg3 pdms3 gyration
compute         rg4 pdms4 gyration
compute         rg5 pdms5 gyration
compute         rg6 pdms6 gyration
compute         rg7 pdms7 gyration
compute         rg8 pdms8 gyration
compute         rg9 pdms9 gyration
compute         rg10 pdms10 gyration
variable        d_end equal "sqrt((x[1]-x[250])^2 + (y[1]-y[250])^2 + (z[1]-z[250])^2)"
# fix             avg pdms ave/time 1000 800 1000000 c_rg v_d_end file avg.txt
# 输出热力学信息及回转半径数据，每隔1000步输出一次
thermo_style    custom step temp pe ke etotal c_rg1 c_rg2 c_rg3 c_rg4 c_rg5 c_rg6 c_rg7 c_rg8 c_rg9 c_rg10 press density vol
thermo          10000
# 输出轨迹文件，便于后续可视化与分析
dump            traj all custom 1000 dump.pdms.lammpstrj id type x y z
# 运行模拟，记录回转半径数据（后续可统计分析均值与波动）
run             1000000
Generated 0 of 0 mixed pair_coeff terms from geometric mixing rule
Per MPI rank memory allocation (min/avg/max) = 7.582 | 7.777 | 8.013 Mbytes
   Step          Temp          PotEng         KinEng         TotEng         c_rg1          c_rg2          c_rg3          c_rg4          c_rg5          c_rg6          c_rg7          c_rg8          c_rg9          c_rg10         Press         Density         Volume    
    500935   302.74412     -124034.44      40608.119     -83426.325      34.955788      30.724711      26.098961      33.587288      31.108092      28.103342      32.843851      32.854961      27.338872      29.719876      3.333969       0.95336143     5643343.6    
    510000   301.21688     -123769.71      40403.266     -83366.446      34.30686       30.751037      26.386299      33.605544      31.115768      28.006766      32.946551      33.097555      27.305767      29.736547      1.6500421      0.9530928      5644934.1    
    520000   298.41762     -124307.96      40027.791     -84280.171      34.123747      31.108142      26.222273      33.359013      31.278813      27.574393      32.879602      32.825569      27.46386       29.559628      24.697085      0.95486411     5634462.6    
    530000   299.22589     -124107.61      40136.208     -83971.397      34.165471      30.93479       26.476296      33.333985      31.044435      27.901824      32.816419      33.016051      27.456502      29.49293      -5.5278693      0.95433542     5637584      
    540000   301.00648     -123887.09      40375.044     -83512.041      34.367735      30.808647      26.574898      33.01134       31.201926      27.852717      32.772795      32.829185      27.77447       29.807325     -4.7497188      0.95419818     5638394.8    
    550000   301.51514     -123957.19      40443.272     -83513.92       34.371459      30.718906      26.910577      32.953954      31.229416      28.125099      32.832012      33.405115      27.916659      29.466225      30.776922      0.95491061     5634188.2    
    560000   299.55276     -124119.34      40180.052     -83939.284      34.34916       30.801213      27.019265      33.357043      31.27823       27.838671      32.634337      33.040306      28.023897      29.410925      26.023752      0.95574457     5629272      
    570000   298.35376     -124356.01      40019.226     -84336.783      34.463805      30.971528      26.823641      33.447342      31.513508      28.216723      32.812349      33.302438      27.972909      29.521683     -1.8736731      0.95427065     5637966.7    
    580000   300.79213     -124143.15      40346.292     -83796.86       34.420817      30.770052      26.778771      33.306797      31.264145      27.830136      32.58672       33.335662      28.025478      29.666341      16.829453      0.95406142     5639203.1    
    590000   300.48883     -124164.73      40305.61      -83859.115      34.53873       31.237304      26.605494      33.535998      30.878714      27.730953      32.69405       33.593512      28.060805      29.417692      5.212628       0.95388031     5640273.8    
    600000   299.61525     -123875.79      40188.433     -83687.353      34.225309      31.447925      26.567236      33.601112      31.334458      27.747838      32.234532      33.01806       27.533667      29.096222      1.2999519      0.95370006     5641339.8    
    610000   300.01911     -124134.19      40242.605     -83891.586      33.92841       31.980846      26.725419      33.694401      31.002002      27.37901       32.129096      33.163031      27.413639      29.110084      5.3501581      0.95438004     5637320.5    
    620000   299.05653     -124023.41      40113.491     -83909.924      33.216636      31.985143      26.629566      33.993393      31.106997      27.565577      32.345589      33.50273       27.578412      29.266924     -27.475206      0.95294367     5645817.6    
    630000   300.4495      -124097.26      40300.334     -83796.921      33.378965      31.983624      26.601889      33.819842      31.089239      27.1977        32.203787      33.158684      27.64586       29.484476     -0.069627067    0.95442416     5637059.8    
    640000   300.49182     -123841.92      40306.011     -83535.913      33.375361      31.802753      26.479227      33.811251      30.838665      27.247192      32.031979      32.917494      27.375743      29.482564      29.549253      0.95467105     5635602      
    650000   300.44898     -124221.71      40300.264     -83921.444      33.201869      32.464369      26.127141      34.172529      31.006768      27.136274      32.647633      33.286012      27.026102      29.538672     -15.960499      0.95573771     5629312.3    
    660000   299.2387      -123987.76      40137.926     -83849.83       33.688089      32.257539      26.295735      34.287062      30.621492      27.304344      32.543139      33.393558      27.198792      29.566128     -24.932533      0.95449386     5636648.2    
    670000   300.1035      -124342.32      40253.925     -84088.392      33.967432      31.845587      26.348171      34.474831      30.637119      27.358954      32.913583      33.171581      27.48136       29.394865      0.95796125     0.95440427     5637177.3    
    680000   302.23001     -124066.31      40539.161     -83527.15       33.898849      31.814325      26.298522      34.374943      31.160012      27.233855      32.867537      33.058031      27.632397      29.13576       12.002723      0.95324082     5644057.6    
    690000   300.58101     -123809.35      40317.975     -83491.373      33.732844      31.959113      26.436973      34.658214      30.701011      27.415999      32.759954      33.083275      27.692801      29.677152     -11.877638      0.95276575     5646871.9    
    700000   301.05944     -123758.67      40382.147     -83376.522      33.9716        32.277117      25.593661      34.877081      31.019099      27.421629      32.740186      33.298002      27.816726      29.866193     -18.128125      0.95357219     5642096.3    
    710000   299.5986      -123985.68      40186.201     -83799.481      33.866743      32.231575      26.198001      35.042743      30.747255      27.408376      32.701984      33.394891      27.882452      29.810203     -22.891556      0.95358144     5642041.5    
    720000   300.19413     -124190.36      40266.081     -83924.283      33.918873      32.087546      26.379148      34.819693      30.545411      27.610664      32.804878      33.880709      27.930554      29.501877     -27.72126       0.95425263     5638073.1    
    730000   300.12263     -124311.49      40256.49      -84055          34.125905      31.550209      26.322169      34.619525      30.790182      27.690891      32.889536      33.865137      27.932153      29.263001      3.9186452      0.95411758     5638871.2    
    740000   300.46042     -124409.3       40301.799     -84107.499      34.023144      31.094521      26.672773      34.618898      30.898032      27.766918      32.92845       34.190729      27.671833      29.318835      10.925674      0.95410813     5638927      
    750000   301.39566     -124207.45      40427.246     -83780.208      34.207167      31.443665      26.707628      34.644444      30.990605      27.561931      33.072906      34.349339      27.628256      29.312904      0.46057849     0.95572632     5629379.5    
    760000   300.41583     -124387.61      40295.818     -84091.789      33.764696      31.35908       26.690798      35.201678      31.042704      27.910107      33.175077      34.163709      27.409918      29.012718     -9.9356553      0.95439133     5637253.8    
    770000   301.03917     -123706.35      40379.43      -83326.918      34.127749      31.431037      27.111956      34.90113       30.571379      27.507563      33.029333      34.272635      27.167687      29.149596     -9.4433749      0.95350347     5642502.9    
    780000   299.84838     -124370.48      40219.704     -84150.779      34.119816      31.397256      27.135679      34.844426      30.515013      28.019429      33.172659      34.269774      27.233428      28.97626      -19.207472      0.95313703     5644672.2    
    790000   299.74619     -123636         40205.997     -83429.999      33.832697      31.291636      27.248881      34.67032       30.596755      28.27826       33.527053      34.367791      27.196309      28.721111     -32.021715      0.9512371      5655946.5    
    800000   299.9519      -123792.16      40233.59      -83558.571      33.949425      31.352586      26.522213      34.572123      30.397339      27.901068      33.219511      34.016422      26.842826      28.656423      13.449475      0.95420278     5638367.7    
    810000   298.68213     -124285.97      40063.27      -84222.699      33.537242      31.535937      26.713654      34.820345      30.528927      27.730997      32.841965      33.966988      27.087027      29.174728      10.873294      0.95456763     5636212.6    
    820000   300.25222     -123842.81      40273.873     -83568.941      33.171727      31.619751      26.893178      35.072193      30.899917      27.405656      33.104186      33.960173      27.213755      28.784905      19.701412      0.95433809     5637568.2    
    830000   299.78116     -124622.2       40210.688     -84411.511      33.411818      31.714557      26.84465       35.505367      30.542932      27.465052      33.166407      34.346445      27.138188      28.888127      4.2206038      0.95561968     5630007.7    
    840000   298.51614     -123977.64      40041.006     -83936.634      33.583508      31.458214      26.625532      35.149002      30.842307      27.536963      32.936695      34.594201      27.077718      28.778982      10.273862      0.95440207     5637190.3    
    850000   299.51367     -124336.88      40174.808     -84162.076      33.40456       31.304861      26.526678      35.10662       30.415764      27.828979      32.938138      34.310267      26.955508      28.745167      34.447949      0.95629795     5626014.5    
    860000   299.44614     -124115.43      40165.751     -83949.684      32.969287      31.014729      26.793568      35.045165      30.622875      27.829215      33.449908      34.325738      27.564029      29.100534      53.542423      0.95578336     5629043.5    
    870000   300.21435     -123881.47      40268.793     -83612.672      33.344531      31.478177      26.478305      35.230357      30.531408      27.968814      33.061288      33.988253      28.054347      29.159979      8.1173451      0.95490302     5634233      
    880000   298.48443     -124059.73      40036.753     -84022.975      33.497399      31.241805      26.254354      35.255357      30.718859      28.136649      33.090232      34.138007      28.197057      29.121855     -14.479286      0.95354124     5642279.4    
    890000   300.80052     -124304.85      40347.417     -83957.43       33.626579      31.530092      26.308069      35.000119      30.715368      28.345351      33.338114      34.218484      27.899608      29.359369     -1.0491313      0.95383669     5640531.7    
    900000   301.59059     -124306.5       40453.393     -83853.108      33.478274      31.915943      26.244952      34.850328      30.959509      28.201899      32.982992      33.869759      27.843697      29.602458     -13.221888      0.95410326     5638955.8    
    910000   300.17659     -123860.53      40263.728     -83596.802      33.410824      31.316651      26.251124      34.777949      30.801194      28.216244      33.051841      33.683023      28.131012      29.42468       11.89383       0.95331942     5643592.2    
    920000   302.31006     -123944.64      40549.898     -83394.746      33.056968      31.163914      26.20921       34.957518      31.301695      27.788011      33.290237      33.682463      27.813337      29.178398      36.075737      0.95410121     5638967.9    
    930000   299.13757     -124246.72      40124.361     -84122.364      33.210682      31.204063      26.218834      35.184271      31.053601      27.697698      33.679009      33.883493      27.686947      29.248179     -10.161875      0.95383217     5640558.4    
    940000   300.37284     -124308.17      40290.052     -84018.119      33.45789       31.069215      26.462995      35.073557      30.921243      27.142641      33.143698      33.614351      27.668123      29.688633     -3.8016067      0.95504615     5633388.6    
    950000   300.29991     -123853.18      40280.269     -83572.913      33.660957      30.922954      26.363506      34.91152       31.147546      27.143921      33.303982      33.519297      27.753748      29.697199     -16.280219      0.95342456     5642969.9    
    960000   299.31915     -124043.15      40148.716     -83894.429      33.336024      30.780268      26.329295      34.861437      30.76338       27.247321      33.247555      33.438295      28.351385      29.790849      6.7352189      0.95415618     5638643.1    
    970000   300.58211     -123536.12      40318.122     -83217.995      33.372941      31.137162      26.143113      35.100231      30.384401      27.251156      33.107351      33.923832      27.971204      29.449799     -39.0224        0.95394788     5639874.3    
    980000   299.81732     -124100.64      40215.537     -83885.1        33.248001      31.181285      26.369583      35.356542      30.594942      27.22543       33.099739      33.423973      27.927444      29.636418     -5.8779173      0.95420843     5638334.3    
    990000   298.58516     -124233.85      40050.264     -84183.586      33.504576      31.275646      26.434971      35.07621       30.650816      27.434537      33.283129      33.831776      27.828131      29.367688      14.895168      0.95590521     5628326      
   1000000   300.01158     -123936.39      40241.595     -83694.792      33.293076      31.583575      26.267551      35.054547      30.63833       27.248864      33.25346       33.71775       28.026019      29.555593     -7.9834325      0.95398513     5639654.1    
   1010000   300.83058     -124096.57      40351.451     -83745.124      33.325698      32.010355      26.142266      35.177441      30.899485      26.880551      33.519296      33.642691      27.956384      29.774707     -21.462622      0.95444074     5636961.9    
   1020000   299.02367     -124235.6       40109.083     -84126.515      33.095035      32.018563      26.736531      35.422381      30.809935      26.899841      33.393022      33.747058      28.28832       30.339188      9.1607022      0.95516214     5632704.5    
   1030000   301.47807     -123889.16      40438.299     -83450.858      32.831413      32.223829      26.568634      35.183989      30.963837      26.839035      33.394593      33.389578      27.754058      30.128943     -13.252841      0.95414179     5638728.1    
   1040000   300.65415     -124015.58      40327.784     -83687.791      33.034656      32.180927      26.969197      35.491065      30.249301      27.009537      33.416269      33.347638      28.001812      30.157478      22.774117      0.95628691     5626079.4    
   1050000   300.01862     -123839.7       40242.539     -83597.161      33.544472      32.19866       26.932484      35.59249       30.354475      26.576388      33.16688       33.54069       27.775327      30.326528      24.839445      0.95391597     5640062.9    
   1060000   300.32542     -123656.17      40283.691     -83372.482      33.702695      32.270962      26.63953       35.371359      30.662654      26.910648      33.187738      33.651169      27.896497      30.145538      17.188179      0.95450662     5636572.9    
   1070000   299.81388     -123891.13      40215.076     -83676.053      34.129525      32.323756      26.227123      36.082727      30.828924      26.912068      33.083591      33.861378      28.01679       30.118595      12.073077      0.95382512     5640600.1    
   1080000   298.69115     -123913.52      40064.48      -83849.04       33.926355      32.272685      26.657908      35.702508      30.417339      27.045031      32.948147      34.054917      27.91484       30.349377      6.2082556      0.95374953     5641047.2    
   1090000   299.3129      -123809.39      40147.878     -83661.508      33.463018      32.810357      27.271271      35.557228      30.690019      27.12611       33.006072      33.811497      28.286082      30.323746      18.421015      0.9545688      5636205.7    
   1100000   300.29387     -123955.3       40279.46      -83675.837      33.521934      32.22101       26.973163      35.312993      30.866635      27.277907      32.968657      33.874012      28.239949      30.288148      13.733037      0.95403928     5639333.9    
   1110000   298.26501     -124002.27      40007.321     -83994.953      33.188751      32.267843      26.946517      35.975567      31.08318       27.464381      33.380244      33.761746      27.944212      30.314239      28.388737      0.95427425     5637945.4    
   1120000   299.02444     -124180.29      40109.186     -84071.108      32.840245      31.897467      27.160551      36.062392      30.884119      27.446585      33.470434      33.469037      28.100703      30.257562     -2.958121       0.95497853     5633787.5    
   1130000   301.41125     -124435.35      40429.337     -84006.01       32.889712      32.767309      26.912444      36.116439      30.922509      27.08466       33.23535       33.525221      28.204672      30.017667      1.9417429      0.95519156     5632531.1    
   1140000   300.32174     -124088.66      40283.197     -83805.458      32.819538      32.3938        27.05599       36.085305      30.747824      26.820428      33.587813      33.702145      28.238874      29.967971      10.749759      0.95477244     5635003.6    
   1150000   301.59894     -123890.69      40454.513     -83436.177      32.47818       32.430793      26.944469      36.269164      30.378886      26.52921       33.619792      33.950901      27.805781      29.774739      16.32897       0.95483073     5634659.6    
   1160000   300.77345     -123772.99      40343.787     -83429.203      32.415626      32.237572      26.882281      36.197973      30.476169      26.401493      33.321936      33.938217      27.781116      29.810958     -5.545149       0.95417769     5638515.9    
   1170000   298.60667     -124079.61      40053.149     -84026.461      33.031079      32.384999      26.688341      36.124795      30.50826       26.602104      33.817329      33.919635      27.680951      29.908717      3.0600343      0.95454299     5636358.1    
   1180000   300.94563     -123923.78      40366.882     -83556.898      33.010765      32.841895      26.610365      36.096506      30.610576      26.690776      34.007326      34.070215      27.856473      29.722253      3.0879387      0.9535575      5642183.2    
   1190000   299.17192     -123907.11      40128.968     -83778.138      33.189357      32.883909      26.880247      35.841626      30.094207      26.583887      33.929027      34.053267      27.651551      29.511406      9.1712725      0.95424441     5638121.7    
   1200000   300.57631     -124413.22      40317.344     -84095.874      33.001614      32.81174       26.732647      35.130907      30.008837      26.66514       34.028399      33.846458      27.620021      29.319768      16.234087      0.95510349     5633050.4    
   1210000   299.04805     -123685.08      40112.353     -83572.725      33.208961      32.719046      26.740101      35.350671      30.065841      26.420645      33.954232      33.974894      27.725815      29.464802      6.3316486      0.9535332      5642327      
   1220000   298.70896     -123954.84      40066.87      -83887.973      33.766106      32.514854      26.739211      35.637337      30.418233      26.416461      33.911971      34.009279      27.727269      29.794538      13.700368      0.95547875     5630838      
   1230000   300.83218     -123953.33      40351.665     -83601.66       34.030121      32.343801      26.629658      35.460394      30.591424      26.285453      34.549617      33.985508      27.798482      29.704778      17.085851      0.95481837     5634732.5    
   1240000   299.15579     -123454.7       40126.804     -83327.9        33.745878      32.489507      26.540583      35.736185      30.409199      26.595073      34.504536      34.249834      27.386716      29.714656      0.61265024     0.95166298     5653415.4    
   1250000   301.22889     -123757.2       40404.877     -83352.319      33.530286      32.452438      26.571604      35.748973      30.614131      26.950122      34.382137      34.588638      27.447824      29.567685      12.420093      0.95381974     5640632      
   1260000   301.16834     -123982.24      40396.755     -83585.489      33.582034      32.811845      26.725154      36.005294      30.96738       26.568131      34.415909      34.580416      27.226961      29.811533      13.622711      0.95366689     5641536      
   1270000   301.11935     -124112.74      40390.184     -83722.559      33.330191      32.969974      26.591479      36.105387      30.707896      26.761031      34.434994      34.181761      26.859599      29.625414      6.5453447      0.95592802     5628191.6    
   1280000   301.51836     -124172.92      40443.704     -83729.213      33.090943      33.234768      26.779792      36.425215      30.681853      26.749777      34.473901      34.333567      27.005501      29.93425       7.2031308      0.95581139     5628878.4    
   1290000   302.50867     -124074.75      40576.538     -83498.211      33.265875      33.225842      26.928292      36.191154      30.377806      26.822778      34.404717      34.589418      27.246626      29.873135      13.99049       0.95477834     5634968.8    
   1300000   299.78662     -123812.76      40211.42      -83601.345      33.0003        33.072437      26.907496      36.312033      30.179662      26.992771      34.455205      34.480362      27.003228      30.005563     -31.930351      0.9535917      5641980.9    
   1310000   300.71067     -123687.07      40335.366     -83351.707      32.991959      33.177923      26.950701      36.186594      30.10782       27.013956      34.890094      34.699031      27.576382      29.72584      -15.039446      0.95355053     5642224.4    
   1320000   298.58679     -123919.82      40050.483     -83869.34       33.018325      32.727607      27.106293      36.501853      30.221711      26.964605      35.094456      34.805854      27.42257       29.678301      5.1673287      0.95322131     5644173.1    
   1330000   300.13746     -124423.1       40258.48      -84164.625      33.100309      32.539722      26.884784      36.366226      29.94953       26.925815      34.89201       35.010379      27.743431      30.216957      12.181484      0.95565677     5629789.1    
   1340000   299.78545     -124375.9       40211.264     -84164.64       33.320859      32.362922      26.686592      36.359222      29.754238      27.074921      35.255965      34.871742      27.32166       29.871333      8.4230261      0.95526176     5632117.1    
   1350000   299.57916     -123889.7       40183.592     -83706.111      33.546845      32.348235      27.165387      36.424693      29.632917      27.235213      34.923039      34.6617        27.372955      30.102285     -20.03321       0.95432444     5637648.9    
   1360000   297.98463     -123671.07      39969.713     -83701.353      33.249547      31.989875      27.063822      36.857805      29.908384      27.207297      34.955535      34.656534      27.414929      30.336142     -18.265492      0.95485934     5634490.8    
   1370000   301.03424     -124444.87      40378.767     -84066.099      33.332578      32.353806      27.410202      36.488301      30.303327      27.003826      35.254714      34.518819      27.777961      30.268844     -13.869061      0.95494927     5633960.1    
   1380000   300.20961     -124119.76      40268.157     -83851.607      33.476393      32.274656      26.994113      36.434437      30.456019      27.080933      34.873339      34.4171        27.395088      30.422229      11.794201      0.95546138     5630940.4    
   1390000   299.45582     -124056.54      40167.049     -83889.489      33.092186      32.404734      27.21323       36.558583      30.935854      27.009063      34.820612      34.097087      27.813552      29.928917      0.95277584     0.95341246     5643041.5    
   1400000   300.058       -124078.69      40247.822     -83830.867      33.280577      32.180159      27.217954      36.830468      30.654964      27.100062      34.978506      34.516913      27.609501      29.686389     -9.3217917      0.95399236     5639611.3    
   1410000   299.90972     -124243.86      40227.932     -84015.923      33.22896       32.095126      26.990751      36.994797      30.71124       27.220102      34.686062      34.945489      27.730451      29.556707     -4.5446971      0.95278003     5646787.2    
   1420000   297.64928     -124128.06      39924.731     -84203.33       32.644838      32.364426      26.651094      36.910994      30.430226      27.382315      34.910429      34.779182      27.837722      30.041437     -7.2592842      0.95300805     5645436.2    
   1430000   300.53318     -123704.26      40311.558     -83392.705      32.438267      32.174957      26.639314      36.713842      30.166976      27.317721      35.106815      34.804902      27.145709      29.989489     -28.801174      0.95324037     5644060.3    
   1440000   300.01115     -124173.46      40241.537     -83931.923      32.628492      32.439688      26.771918      36.906375      30.157137      27.047961      35.027379      35.174887      27.143701      29.780633      31.103983      0.95556978     5630301.7    
   1450000   297.6839      -123889.66      39929.375     -83960.289      32.426383      32.150484      26.841214      36.815706      30.095033      26.98748       34.96184       34.740384      27.066809      29.900636     -6.496262       0.95463572     5635810.6    
   1460000   299.33464     -123861.32      40150.795     -83710.529      32.588757      31.786988      26.919932      36.90764       30.36722       26.904715      35.253138      34.509598      27.170581      30.286965     -21.377816      0.95426416     5638005      
   1470000   299.59972     -123712.92      40186.35      -83526.567      32.651821      32.106196      26.872609      36.876322      30.226225      26.975864      35.194149      34.538584      26.987248      30.265823     -2.3427722      0.95360372     5641909.7    
   1480000   299.49251     -123978.79      40171.97      -83806.816      32.712181      32.418863      27.035615      36.342107      30.078452      27.23936       34.794779      34.170404      26.881211      30.148674     -2.9133539      0.95427575     5637936.6    
   1490000   299.55788     -123534.93      40180.738     -83354.19       32.584467      32.315672      26.776345      36.348643      30.235652      27.392266      35.298968      34.167657      27.007961      30.207738      8.6352645      0.95286387     5646290.4    
   1500000   298.00114     -124005.22      39971.927     -84033.298      32.655732      31.803836      27.10201       36.582582      30.039192      26.932097      35.133034      34.374108      26.887488      30.131748      6.0617467      0.95409269     5639018.3    
   1500935   299.92862     -124046.21      40230.467     -83815.739      32.441461      31.711562      27.05535       36.61437       30.021692      27.008439      35.134023      34.419752      26.880976      30.060301     -9.1268499      0.95415313     5638661.1    
Loop time of 1725.92 on 16 procs for 1000000 steps with 45000 atoms

Performance: 50.060 ns/day, 0.479 hours/ns, 579.401 timesteps/s, 26.073 Matom-step/s
98.9% CPU use with 16 MPI tasks x no OpenMP threads

MPI task timing breakdown:
Section |  min time  |  avg time  |  max time  |%varavg| %total
---------------------------------------------------------------
Pair    | 867.14     | 886.91     | 903.44     |  34.7 | 51.39
Bond    | 309.3      | 316.28     | 324.06     |  23.0 | 18.33
Neigh   | 81.583     | 81.626     | 81.674     |   0.2 |  4.73
Comm    | 282.29     | 305.56     | 330.32     |  78.4 | 17.70
Output  | 3.1927     | 4.3669     | 5.5447     |  34.6 |  0.25
Modify  | 109.16     | 111.53     | 113.9      |  14.5 |  6.46
Other   |            | 19.65      |            |       |  1.14

Nlocal:         2812.5 ave        2847 max        2774 min
Histogram: 1 2 0 2 2 1 4 1 2 1
Nghost:        4626.56 ave        4663 max        4585 min
Histogram: 1 2 1 0 1 4 2 2 2 1
Neighs:        95254.9 ave       96916 max       93642 min
Histogram: 1 1 3 2 3 1 1 0 1 3

Total # of neighbors = 1524078
Ave neighs/atom = 33.8684
Ave special neighs/atom = 5.952
Neighbor list builds = 18947
Dangerous builds = 0
unfix           equil
# -----------------------------------------------------
# 6. 数据输出
# -----------------------------------------------------


# # 写出最终体系数据文件
# write_data      pdms_out.data
Total wall time: 0:43:22
