LAMMPS (29 Aug 2024)
# LAMMPS输入文件示例：使用Martini 3粗粒化力场计算PDMS的均方回转半径
# -----------------------------------------------------
# 1. 初始化设置
# -----------------------------------------------------
units               real
dimension           3
boundary            p p p
atom_style          full

# 读取包含PDMS分子结构的data文件
read_data           PDMS_50_solvent.data
Reading data file ...
  orthogonal box = (-65 -65 -65) to (65 65 65)
  2 by 2 by 4 MPI processor grid
  reading atoms ...
  18978 atoms
  scanning bonds ...
  1 = max bonds/atom
  scanning angles ...
  1 = max angles/atom
  scanning dihedrals ...
  1 = max dihedrals/atom
  orthogonal box = (-65 -65 -65) to (65 65 65)
  2 by 2 by 4 MPI processor grid
  reading bonds ...
  49 bonds
  reading angles ...
  48 angles
  reading dihedrals ...
  47 dihedrals
Finding 1-2 1-3 1-4 neighbors ...
  special bond factors lj:    0        0        0       
  special bond factors coul:  0        0        0       
     2 = max # of 1-2 neighbors
     2 = max # of 1-3 neighbors
     4 = max # of 1-4 neighbors
     6 = max # of special neighbors
  special bonds CPU = 0.002 seconds
  read_data CPU = 0.040 seconds

# -----------------------------------------------------
# 2. 力场参数设置（Martini 3参数）
# -----------------------------------------------------
# 定义非键相互作用（示例：Lennard-Jones势，截断距离可参考Martini 3常用取值）
pair_style lj/cut   12.0
special_bonds       lj 0.0 0.0 0.5
Finding 1-2 1-3 1-4 neighbors ...
  special bond factors lj:    0        0        0.5     
  special bond factors coul:  0        0        0       
     2 = max # of 1-2 neighbors
     2 = max # of 1-3 neighbors
     4 = max # of 1-4 neighbors
     6 = max # of special neighbors
  special bonds CPU = 0.000 seconds
pair_coeff          1 1 0.7337 5.1
pair_coeff          2 2 0.7337 5.1
pair_coeff          1 2 0.7337 5.1
pair_coeff          1 3 0.5762 4.65
pair_coeff          2 3 0.5762 4.65
pair_coeff          3 3 1.1071 4.7
# 定义键、角、二面角势（示例参数，实际参数请参考相关文献）
bond_style          harmonic
bond_coeff          1 13.243 4.48
angle_style         harmonic
angle_coeff         1 5.48 86.0
dihedral_style      harmonic
dihedral_coeff      1 0.3346  1  1
# -----------------------------------------------------
# 3. 邻域列表设置
# -----------------------------------------------------
neigh_modify    one 1000
neighbor        1 bin
neigh_modify    delay 0 every 1 check yes

# -----------------------------------------------------
# 4. 能量最小化与预平衡
# -----------------------------------------------------
minimize        1.0e-4 1.0e-6 1000 10000

CITE-CITE-CITE-CITE-CITE-CITE-CITE-CITE-CITE-CITE-CITE-CITE-CITE

Your simulation uses code contributions which should be cited:

- Type Label Framework: https://doi.org/10.1021/acs.jpcb.3c08419

@Article{Gissinger24,
 author = {Jacob R. Gissinger, Ilia Nikiforov, Yaser Afshar, Brendon Waters, Moon-ki Choi, Daniel S. Karls, Alexander Stukowski, Wonpil Im, Hendrik Heinz, Axel Kohlmeyer, and Ellad B. Tadmor},
 title = {Type Label Framework for Bonded Force Fields in LAMMPS},
 journal = {J. Phys. Chem. B},
 year =    2024,
 volume =  128,
 number =  13,
 pages =   {3282–-3297}
}

CITE-CITE-CITE-CITE-CITE-CITE-CITE-CITE-CITE-CITE-CITE-CITE-CITE

Generated 0 of 3 mixed pair_coeff terms from geometric mixing rule
Neighbor list info ...
  update: every = 1 steps, delay = 0 steps, check = yes
  max neighbors/atom: 1000, page size: 100000
  master list distance cutoff = 13
  ghost atom cutoff = 13
  binsize = 6.5, bins = 20 20 20
  1 neighbor lists, perpetual/occasional/extra = 1 0 0
  (1) pair lj/cut, perpetual
      attributes: half, newton on
      pair build: half/bin/newton
      stencil: half/bin/3d
      bin: standard
Per MPI rank memory allocation (min/avg/max) = 8.41 | 8.529 | 8.878 Mbytes
   Step          Temp          E_pair         E_mol          TotEng         Press     
         0   0              5.091222e+10   163.62551      5.091222e+10   6.3559324e+09
       397   0             -147214.25      112.02352     -147102.22     -1107.2485    
Loop time of 0.411419 on 16 procs for 397 steps with 18978 atoms

96.9% CPU use with 16 MPI tasks x no OpenMP threads

Minimization stats:
  Stopping criterion = energy tolerance
  Energy initial, next-to-last, final = 
      50912220371.6911  -147087.572964878  -147102.222820278
  Force two-norm initial, final = 1.3496059e+12 24.199641
  Force max component initial, final = 6.8699702e+11 3.3512
  Final line search alpha, max atom move = 0.017534659 0.058762149
  Iterations, force evaluations = 397 404

MPI task timing breakdown:
Section |  min time  |  avg time  |  max time  |%varavg| %total
---------------------------------------------------------------
Pair    | 0.12002    | 0.19128    | 0.28638    |  10.9 | 46.49
Bond    | 0.00010821 | 0.00026551 | 0.00089747 |   0.0 |  0.06
Neigh   | 0.070203   | 0.070896   | 0.071801   |   0.2 | 17.23
Comm    | 0.033407   | 0.12588    | 0.19893    |  13.8 | 30.60
Output  | 0          | 0          | 0          |   0.0 |  0.00
Modify  | 0          | 0          | 0          |   0.0 |  0.00
Other   |            | 0.0231     |            |       |  5.61

Nlocal:        1186.12 ave        1312 max         885 min
Histogram: 2 2 0 0 0 0 0 1 3 8
Nghost:        2794.56 ave        3093 max        2314 min
Histogram: 1 2 1 0 3 1 0 0 3 5
Neighs:          46613 ave       55167 max       28573 min
Histogram: 2 2 0 0 0 0 1 0 5 6

Total # of neighbors = 745808
Ave neighs/atom = 39.298556
Ave special neighs/atom = 0.015175466
Neighbor list builds = 48
Dangerous builds = 0
fix             1 all npt temp 300.0 300.0 100.0 iso 1.0 1.0 1000
timestep        1
thermo_style    custom step temp press density vol
thermo          10000
run             500000
Generated 0 of 3 mixed pair_coeff terms from geometric mixing rule
Per MPI rank memory allocation (min/avg/max) = 7.288 | 7.408 | 7.756 Mbytes
   Step          Temp          Press         Density         Volume    
       397   0             -1107.2485      1.032766       2197000      
     10000   300.51099     -21.100277      0.82147174     2762099.8    
     20000   300.34115     -0.84072626     0.84553183     2683502.7    
     30000   297.75622      30.565453      0.8841805      2566203.3    
     40000   299.77816     -18.629771      0.91685922     2474738.7    
     50000   296.81444      12.476229      0.9423687      2407748.6    
     60000   298.29901     -3.149472       0.96144992     2359963.7    
     70000   300.03939      48.632349      0.9793157      2316910.6    
     80000   304.12555     -38.952173      0.98974179     2292503.9    
     90000   299.79005     -4.7792053      0.9990772      2271082.7    
    100000   298.97781     -14.790581      0.99917352     2270863.8    
    110000   300.75152      19.504212      1.0002386      2268445.6    
    120000   297.61381     -11.467067      1.000496       2267862.1    
    130000   297.88911      3.5480542      1.0033927      2261315      
    140000   302.04519      41.626239      1.0018084      2264891      
    150000   298.73833     -5.4453302      1.0003441      2268206.5    
    160000   301.77629     -1.1725089      1.0004153      2268045      
    170000   301.68986      14.930141      0.99974292     2269570.4    
    180000   299.55471     -10.589525      1.0000723      2268823      
    190000   298.71064      43.8088        1.0009788      2266768.2    
    200000   298.01798     -11.938362      1.0000663      2268836.5    
    210000   300.17764      28.760684      0.99980467     2269430.2    
    220000   300.24857      38.780148      1.001795       2264921.4    
    230000   300.88587      6.8609095      1.0007677      2267246.4    
    240000   298.47211      9.1173842      1.0005203      2267806.9    
    250000   299.48875      32.702249      1.0031029      2261968.2    
    260000   301.2108      -15.925291      1.0008967      2266954.2    
    270000   298.58456      22.448996      0.99879192     2271731.4    
    280000   301.9332      -28.024969      0.99906617     2271107.8    
    290000   297.35067      31.248479      1.0021353      2264152.2    
    300000   298.18597     -34.450007      0.99946505     2270201.4    
    310000   298.67198     -31.433629      1.0011503      2266380      
    320000   296.75822      11.014569      1.0005294      2267786.4    
    330000   303.33894      9.1792715      1.0010803      2266538.4    
    340000   299.76697      8.6089403      1.0008725      2267009      
    350000   302.49854      10.550386      0.99966871     2269738.9    
    360000   298.69844      18.424386      1.0010572      2266590.7    
    370000   297.71422      52.902244      1.0027503      2262763.6    
    380000   303.21131     -13.880006      1.0006347      2267547.7    
    390000   300.25179     -12.776642      1.0004336      2268003.5    
    400000   297.35102      15.065707      1.003086       2262006.3    
    410000   300.84069      11.355063      1.0011472      2266386.9    
    420000   300.56205      21.70856       1.0022527      2263887      
    430000   299.6682       10.669459      1.0002865      2268337      
    440000   301.01211      15.879241      1.0006306      2267557      
    450000   301.03971     -42.079492      1.0005421      2267757.7    
    460000   299.69862     -4.5965371      1.0000366      2268904      
    470000   298.65849      5.9073705      1.0000013      2268984.1    
    480000   302.39664      6.1642719      1.0007305      2267330.6    
    490000   300.23866     -15.146255      0.99908614     2271062.4    
    500000   302.95124      11.043731      1.0001453      2268657.2    
    500397   301.29667      13.890707      1.0021867      2264036.2    
Loop time of 299.907 on 16 procs for 500000 steps with 18978 atoms

Performance: 144.045 ns/day, 0.167 hours/ns, 1667.182 timesteps/s, 31.640 Matom-step/s
98.5% CPU use with 16 MPI tasks x no OpenMP threads

MPI task timing breakdown:
Section |  min time  |  avg time  |  max time  |%varavg| %total
---------------------------------------------------------------
Pair    | 166.82     | 178.04     | 186.74     |  45.9 | 59.37
Bond    | 0.14006    | 0.37105    | 1.1817     |  57.1 |  0.12
Neigh   | 13.967     | 13.978     | 13.995     |   0.2 |  4.66
Comm    | 64.631     | 73.454     | 83.085     |  64.8 | 24.49
Output  | 0.0015814  | 0.0016689  | 0.0027944  |   0.7 |  0.00
Modify  | 27.847     | 28.844     | 30.173     |  16.9 |  9.62
Other   |            | 5.215      |            |       |  1.74

Nlocal:        1186.12 ave        1201 max        1159 min
Histogram: 1 0 0 0 1 4 4 3 1 2
Nghost:           2948 ave        2992 max        2916 min
Histogram: 1 2 2 3 2 3 1 0 1 1
Neighs:        43864.5 ave       44484 max       42531 min
Histogram: 1 0 0 0 0 3 4 3 3 2

Total # of neighbors = 701832
Ave neighs/atom = 36.981347
Ave special neighs/atom = 0.015175466
Neighbor list builds = 9322
Dangerous builds = 0
unfix           1

# variable        lambda equal ramp(0.8,1.0)
# fix             2 all adapt 1 pair lj/cut/soft lambda * * v_lambda

# fix             3 all npt temp 300.0 300.0 100.0 iso 1.0 1.0 1000
# timestep        1
# thermo_style    custom step temp press density vol
# thermo          10000
# run             50000
# unfix           3

# -----------------------------------------------------
# 5. 计算均方回转半径
# -----------------------------------------------------
# 使用compute gyration命令计算整个体系的回转半径
fix             equil all npt temp 300.0 300.0 100.0 iso 1.0 1.0 1000
group           pdms id <= 50
50 atoms in group pdms
variable        d_end equal "sqrt((x[1]-x[50])^2 + (y[1]-y[50])^2 + (z[1]-z[50])^2)"
compute         rg pdms gyration
fix             avg pdms ave/time 1000 800 1000000 c_rg v_d_end file avg.txt
# 输出热力学信息及回转半径数据，每隔1000步输出一次
thermo_style    custom step temp pe ke etotal c_rg v_d_end press density vol
thermo          10000
# 输出轨迹文件，便于后续可视化与分析
dump            traj all custom 1000 dump.pdms.lammpstrj id type x y z
# 运行模拟，记录回转半径数据（后续可统计分析均值与波动）
run             1000000
Generated 0 of 3 mixed pair_coeff terms from geometric mixing rule
Per MPI rank memory allocation (min/avg/max) = 7.293 | 7.526 | 7.76 Mbytes
   Step          Temp          PotEng         KinEng         TotEng          c_rg         v_d_end         Press         Density         Volume    
    500397   301.29667     -126609.28      17043.398     -109565.88      21.665746      61.875283      13.890707      1.0021867      2264036.2    
    510000   300.26585     -126373.81      16985.088     -109388.72      21.167462      60.975241      4.3240622      1.0005098      2267830.8    
    520000   301.95658     -126536         17080.727     -109455.27      21.219294      59.930353      10.633632      1.0016402      2265271.4    
    530000   299.12566     -126546.06      16920.591     -109625.47      20.719134      58.625529     -8.5584573      1.0013151      2266006.8    
    540000   296.2932      -126442.93      16760.368     -109682.56      19.879351      55.829863     -1.2968832      1.0008831      2266985.1    
    550000   303.47424     -126331.11      17166.576     -109164.53      19.593351      57.734505      14.149996      1.0007132      2267369.9    
    560000   297.56317     -126178.98      16832.206     -109346.78      18.395083      56.516901      22.03762       1.0000607      2268849.3    
    570000   298.32176     -126498.26      16875.117     -109623.14      18.407623      56.117142     -27.404795      1.0002338      2268456.5    
    580000   299.41127     -126632.93      16936.747     -109696.18      18.7923        59.134841      22.546362      1.0025502      2263215.4    
    590000   297.6813      -126259.3       16838.888     -109420.41      18.915895      58.712518     -18.435846      0.99939478     2270361      
    600000   298.85099     -126271.65      16905.054     -109366.59      18.840839      58.347956     -29.250762      0.99881066     2271688.8    
    610000   302.32952     -126020.23      17101.823     -108918.4       18.560226      59.061936      24.008515      0.99916858     2270875      
    620000   300.56533     -126534.87      17002.028     -109532.84      17.718894      50.036474      6.0826072      1.0015976      2265367.9    
    630000   302.7461      -126561.31      17125.388     -109435.92      17.323375      47.769138      31.378585      1.002411       2263529.6    
    640000   298.28031     -126523.31      16872.772     -109650.54      17.194785      46.539268      2.3100275      1.0016837      2265173.2    
    650000   299.61587     -126029.18      16948.321     -109080.86      16.125793      44.917519      1.1019943      0.99856838     2272239.9    
    660000   298.99435     -126348.01      16913.163     -109434.84      15.736062      47.133007     -1.9131452      1.0005742      2267684.9    
    670000   298.91444     -126599.17      16908.643     -109690.52      16.162729      45.038391     -14.243916      1.0014221      2265764.7    
    680000   298.75353     -126496.11      16899.541     -109596.57      16.263424      46.816052     -7.6053775      1.0008345      2267095.1    
    690000   301.09588     -126796.14      17032.04      -109764.1       15.603368      44.272884      19.791521      1.0037126      2260594.2    
    700000   298.74656     -126566.73      16899.147     -109667.59      16.080755      45.195398     -0.80852351     1.0014431      2265717.3    
    710000   300.93371     -126289.36      17022.867     -109266.49      15.920327      48.507764     -30.507458      0.99867665     2271993.6    
    720000   297.05521     -126456.5       16803.472     -109653.03      15.37424       46.590842      8.7920399      1.0008708      2267012.8    
    730000   300.087       -126510.42      16974.971     -109535.45      15.358743      45.927367     -63.626597      0.9992078      2270785.9    
    740000   301.47149     -126262.62      17053.287     -109209.33      14.888663      45.397088     -18.705269      0.99898871     2271283.9    
    750000   295.95352     -126421.29      16741.153     -109680.14      15.074516      44.549588     -9.2510039      1.0003893      2268104      
    760000   301.5287      -126608.52      17056.523     -109552         14.358331      43.172112      28.868904      1.002538       2263242.8    
    770000   298.17576     -126401.02      16866.858     -109534.16      14.13155       40.992041     -13.982288      1.0002253      2268475.9    
    780000   298.38433     -126372.82      16878.656     -109494.16      14.282886      32.190328      3.3269362      1.0000883      2268786.7    
    790000   297.4941      -126663.92      16828.299     -109835.62      13.408434      28.795806      28.387928      1.0030152      2262166.1    
    800000   298.17616     -126493.94      16866.881     -109627.06      12.760068      28.657644     -9.9417479      1.0008661      2267023.5    
    810000   299.91673     -126392.86      16965.34      -109427.52      12.371602      27.693299      7.4609844      1.0005037      2267844.7    
    820000   302.39073     -126616.18      17105.285     -109510.89      12.612412      28.012168      2.0344469      1.0018745      2264741.6    
    830000   297.42378     -126678.61      16824.321     -109854.29      12.77479       31.74059       5.0046925      1.0022846      2263815.1    
    840000   299.16401     -126411.69      16922.76      -109488.93      12.134696      27.677815     -24.664447      0.99967032     2269735.2    
    850000   299.6601      -126355         16950.823     -109404.18      11.790505      29.069028     -17.668529      0.99965025     2269780.8    
    860000   302.66747     -126379.73      17120.94      -109258.79      11.201132      26.936186     -3.8855472      0.9999734      2269047.3    
    870000   300.29305     -126237.27      16986.626     -109250.64      11.297166      27.795185      23.296092      0.99986821     2269286      
    880000   299.77899     -126272.13      16957.548     -109314.58      10.909048      23.229704      0.53932731     0.99966525     2269746.8    
    890000   301.97583     -126679.94      17081.816     -109598.12      10.829653      23.160697     -28.735469      1.0007952      2267184      
    900000   298.61134     -126555.76      16891.498     -109664.26      10.306425      23.137626      1.6785818      1.0015813      2265404.6    
    910000   301.82541     -126391.88      17073.307     -109318.57      9.4492487      18.538079     -18.639678      0.99991196     2269186.7    
    920000   298.27503     -126575.07      16872.473     -109702.6       9.7623255      18.438711      15.686273      1.0019105      2264660.4    
    930000   300.27365     -126451.92      16985.529     -109466.39      9.6391433      15.982316      58.536815      1.0027802      2262696.2    
    940000   300.04516     -126298.28      16972.604     -109325.67      9.8787704      19.985324      2.7397119      0.99979896     2269443.2    
    950000   298.74338     -126656.06      16898.967     -109757.09      9.6191455      13.442357      22.977341      1.0025967      2263110.4    
    960000   300.15856     -126368.1       16979.019     -109389.08      9.8277906      13.897977      0.46973736     1.0000301      2268918.7    
    970000   299.71359     -126348.26      16953.848     -109394.41      9.661485       14.633897      6.9612052      1.0001643      2268614.2    
    980000   298.27085     -126290.83      16872.237     -109418.6       10.192884      18.909701      68.030479      1.0020859      2264264      
    990000   300.67204     -126117.8       17008.065     -109109.73      10.132533      19.237351     -12.795185      0.99819956     2273079.5    
   1000000   299.56804     -126201.89      16945.615     -109256.27      10.033547      20.073864     -9.4800218      0.99914466     2270929.4    
   1010000   303.9545      -126458.77      17193.743     -109265.02      9.9924861      21.724001      47.008314      1.0021175      2264192.6    
   1020000   300.52598     -126442.23      16999.803     -109442.43      10.018805      22.821048      23.798889      1.0011682      2266339.3    
   1030000   297.75571     -126258.07      16843.097     -109414.97      9.7735433      26.056908      14.17876       1.000091       2268780.5    
   1040000   297.99774     -126638.24      16856.788     -109781.45      9.259783       26.349215      29.202294      1.0026841      2262913      
   1050000   302.57731     -126393.27      17115.84      -109277.43      9.2239788      26.075474     -22.567229      0.9992717      2270640.7    
   1060000   299.92689     -126249.41      16965.914     -109283.49      9.2398727      29.058706     -16.645119      0.99883107     2271642.3    
   1070000   297.62416     -126507.8       16835.656     -109672.14      8.985881       24.613885     -2.5839444      1.0008732      2267007.4    
   1080000   300.68583     -126570.07      17008.845     -109561.22      9.2219308      22.565243      12.123899      1.001594       2265375.8    
   1090000   300.93388     -126393.62      17022.876     -109370.75      9.4514884      22.622583     -2.8691159      1.0000125      2268958.6    
   1100000   301.87571     -126559.84      17076.153     -109483.69      9.1342699      23.384608     -36.694749      1.0000792      2268807.2    
   1110000   300.74434     -126540.99      17012.155     -109528.84      9.5843723      23.578836      2.097464       1.0014236      2265761.4    
   1120000   299.25874     -126421.73      16928.119     -109493.61      9.4701135      22.229041     -19.709223      1.0000076      2268969.8    
   1130000   299.76571     -126369.21      16956.797     -109412.41      9.4033396      21.4174       -13.763784      0.99969423     2269681      
   1140000   298.63298     -126178.36      16892.722     -109285.64      9.1581169      24.945835      10.035456      0.99906205     2271117.1    
   1150000   302.35368     -126632.21      17103.19      -109529.02      9.3082091      26.308996      35.535584      1.0028102      2262628.6    
   1160000   302.37382     -126357.34      17104.329     -109253.01      9.4005062      24.758054      36.871879      1.0010819      2266534.7    
   1170000   296.17197     -126137.86      16753.51      -109384.35      9.3221733      19.60732       3.4530334      0.99934728     2270468.9    
   1180000   302.60299     -126380.13      17117.293     -109262.84      9.4552022      24.904957      17.135582      1.000638       2267540.2    
   1190000   296.3598      -126209.33      16764.135     -109445.2       9.2895152      23.469823      35.259464      1.0005092      2267832.1    
   1200000   297.18548     -126048.37      16810.841     -109237.53      9.2563269      20.372113      4.8814142      0.99878658     2271743.5    
   1210000   298.72271     -126463.47      16897.798     -109565.67      9.6208615      18.46639       14.539362      1.001285       2266075.1    
   1220000   296.87475     -126381.14      16793.264     -109587.88      10.022617      19.914901      9.2298963      1.000594       2267640      
   1230000   299.08605     -126194.93      16918.35      -109276.58      9.7044336      19.040379     -2.7783164      0.99906698     2271105.9    
   1240000   298.15324     -126370.59      16865.584     -109505.01      9.6834901      18.821411     -10.159482      1.0001524      2268641.3    
   1250000   299.30556     -126293.04      16930.767     -109362.27      8.9156034      19.049265     -3.3291299      0.99928133     2270618.8    
   1260000   298.64943     -126492.29      16893.652     -109598.63      9.3647074      17.854481     -19.050306      1.0003169      2268268.2    
   1270000   298.50022     -126407.44      16885.212     -109522.23      9.4470958      20.326285     -20.759445      0.99960117     2269892.2    
   1280000   303.69924     -126351.59      17179.304     -109172.29      9.4294812      17.436483     -9.7074271      0.99950579     2270108.8    
   1290000   301.72723     -126276.78      17067.753     -109209.02      9.2629177      16.755604      15.128638      0.99982618     2269381.4    
   1300000   299.64829     -126357.79      16950.155     -109407.63      9.4819147      15.441227     -4.2435285      0.99992552     2269156      
   1310000   301.43101     -126403.9       17050.998     -109352.9       9.1067317      13.793456     -8.4578207      0.99983289     2269366.2    
   1320000   297.07722     -126336.59      16804.717     -109531.87      9.122094       13.978064     -28.519665      0.99936875     2270420.2    
   1330000   298.80348     -126222.88      16902.366     -109320.51      8.9733669      16.409049     -24.823616      0.99880107     2271710.6    
   1340000   299.14953     -126292.48      16921.941     -109370.54      9.0720055      18.912778     -6.5157309      0.99920657     2270788.7    
   1350000   299.30502     -126010.94      16930.737     -109080.21      8.8204483      20.823222     -6.5457263      0.99749693     2274680.6    
   1360000   303.11031     -126545.62      17145.99      -109399.63      8.8204672      16.661805      14.965798      1.0015273      2265526.8    
   1370000   301.88116     -126679.66      17076.461     -109603.2       9.0694939      18.666641     -17.510875      1.001234       2266190.6    
   1380000   301.14341     -126366.49      17034.729     -109331.76      9.216485       17.801229      16.638104      1.0007823      2267213.2    
   1390000   300.52191     -126457.46      16999.572     -109457.88      9.2032573      17.894462     -20.248825      1.0000354      2268906.6    
   1400000   299.3691      -126291.48      16934.361     -109357.12      9.2605173      18.555786      9.6316417      0.99976751     2269514.6    
   1410000   302.7703      -126266.18      17126.757     -109139.42      9.0982114      18.220353      24.354724      1.000047       2268880.4    
   1420000   297.34764     -126683.98      16820.014     -109863.96      9.1330384      17.410736      5.9408139      1.0022039      2263997.3    
   1430000   299.43957     -126345.94      16938.348     -109407.59      9.0478098      17.703757      0.96736231     0.9998937      2269228.2    
   1440000   300.94865     -126365.92      17023.712     -109342.21      9.1288574      19.030275     -23.269605      0.99899387     2271272.2    
   1450000   300.48836     -126294.4       16997.675     -109296.72      8.8842043      19.460663     -6.9198236      0.99923458     2270725      
   1460000   299.4589      -126256.78      16939.442     -109317.33      8.6700202      17.328746      32.342855      1.0004995      2267854.1    
   1470000   299.99345     -126311.55      16969.679     -109341.88      8.7131101      16.106358     -11.070389      0.99945153     2270232.1    
   1480000   298.14422     -126306.1       16865.074     -109441.03      8.5121062      15.231179      15.799424      1.0002982      2268310.4    
   1490000   299.90154     -126306.74      16964.48      -109342.26      9.0451681      11.566106     -7.7220092      0.99972516     2269610.7    
   1500000   297.58556     -126227.72      16833.473     -109394.25      8.7016933      11.164238      19.554893      0.99992441     2269158.5    
   1500397   300.77799     -126378.06      17014.058     -109364         8.7168739      12.218288      17.137086      1.000667       2267474.5    
Loop time of 596.478 on 16 procs for 1000000 steps with 18978 atoms

Performance: 144.850 ns/day, 0.166 hours/ns, 1676.507 timesteps/s, 31.817 Matom-step/s
98.5% CPU use with 16 MPI tasks x no OpenMP threads

MPI task timing breakdown:
Section |  min time  |  avg time  |  max time  |%varavg| %total
---------------------------------------------------------------
Pair    | 344.68     | 357.92     | 364.69     |  25.2 | 60.01
Bond    | 0.27511    | 0.70837    | 2.6764     |  93.8 |  0.12
Neigh   | 27.355     | 27.374     | 27.404     |   0.3 |  4.59
Comm    | 133.67     | 140.77     | 153.84     |  40.8 | 23.60
Output  | 1.2935     | 1.6969     | 2.0918     |  18.7 |  0.28
Modify  | 56.602     | 57.612     | 58.525     |   7.9 |  9.66
Other   |            | 10.39      |            |       |  1.74

Nlocal:        1186.12 ave        1198 max        1171 min
Histogram: 1 2 0 0 1 4 5 1 0 2
Nghost:        2956.88 ave        2984 max        2930 min
Histogram: 2 0 2 1 2 2 3 3 0 1
Neighs:        43768.9 ave       44192 max       42881 min
Histogram: 1 1 0 1 0 1 2 3 4 3

Total # of neighbors = 700302
Ave neighs/atom = 36.900727
Ave special neighs/atom = 0.015175466
Neighbor list builds = 18547
Dangerous builds = 0
unfix           equil
# -----------------------------------------------------
# 6. 数据输出
# -----------------------------------------------------


# # 写出最终体系数据文件
# write_data      pdms_out.data
Total wall time: 0:14:56
