units               real
dimension           3
boundary            p p p
atom_style          full

# 读取包含PDMS分子结构的data文件
read_data           bad_pdms_50_box_nvt.data
Reading data file ...
  orthogonal box = (-2.699997 -2.594002 -2.75) to (181.7 181.956 181.75)
  2 by 4 by 2 MPI processor grid
  reading atoms ...
  12350 atoms
  scanning bonds ...
  1 = max bonds/atom
  scanning angles ...
  1 = max angles/atom
  scanning dihedrals ...
  1 = max dihedrals/atom
  orthogonal box = (-2.699997 -2.594002 -2.75) to (181.7 181.956 181.75)
  2 by 4 by 2 MPI processor grid
  reading bonds ...
  12103 bonds
  reading angles ...
  11856 angles
  reading dihedrals ...
  11609 dihedrals
Finding 1-2 1-3 1-4 neighbors ...
  special bond factors lj:    0        0        0       
  special bond factors coul:  0        0        0       
     2 = max # of 1-2 neighbors
     2 = max # of 1-3 neighbors
     4 = max # of 1-4 neighbors
     6 = max # of special neighbors
  special bonds CPU = 0.002 seconds
  read_data CPU = 0.120 seconds
mass                1 72
# -----------------------------------------------------
# 2. 力场参数设置（Martini 3参数）
# -----------------------------------------------------
# 定义非键相互作用（示例：Lennard-Jones势，截断距离可参考Martini 3常用取值）
pair_style lj/cut   12.0
special_bonds       lj 0.0 0.0 0.5
Finding 1-2 1-3 1-4 neighbors ...
  special bond factors lj:    0        0        0.5     
  special bond factors coul:  0        0        0       
     2 = max # of 1-2 neighbors
     2 = max # of 1-3 neighbors
     4 = max # of 1-4 neighbors
     6 = max # of special neighbors
  special bonds CPU = 0.000 seconds
pair_coeff          1 1 0.7337 5.1
# 定义键、角、二面角势（示例参数，实际参数请参考相关文献）
bond_style          harmonic
bond_coeff          1 13.243 4.48
angle_style         harmonic
angle_coeff         1 5.48 86.0
dihedral_style      harmonic
dihedral_coeff      1 0.3346  1  1
# -----------------------------------------------------
# 3. 邻域列表设置
# -----------------------------------------------------
neigh_modify        one 1000
neighbor            1 bin
neigh_modify        delay 0 every 1 check yes

# -----------------------------------------------------
# 4. 能量最小化与预平衡
# -----------------------------------------------------
minimize            1.0e-4 1.0e-6 10000 100000

CITE-CITE-CITE-CITE-CITE-CITE-CITE-CITE-CITE-CITE-CITE-CITE-CITE

Your simulation uses code contributions which should be cited:

- Type Label Framework: https://doi.org/10.1021/acs.jpcb.3c08419

@Article{Gissinger24,
 author = {Jacob R. Gissinger, Ilia Nikiforov, Yaser Afshar, Brendon Waters, Moon-ki Choi, Daniel S. Karls, Alexander Stukowski, Wonpil Im, Hendrik Heinz, Axel Kohlmeyer, and Ellad B. Tadmor},
 title = {Type Label Framework for Bonded Force Fields in LAMMPS},
 journal = {J. Phys. Chem. B},
 year =    2024,
 volume =  128,
 number =  13,
 pages =   {3282–-3297}
}

CITE-CITE-CITE-CITE-CITE-CITE-CITE-CITE-CITE-CITE-CITE-CITE-CITE

Generated 0 of 0 mixed pair_coeff terms from geometric mixing rule
Neighbor list info ...
  update: every = 1 steps, delay = 0 steps, check = yes
  max neighbors/atom: 1000, page size: 100000
  master list distance cutoff = 13
  ghost atom cutoff = 13
  binsize = 6.5, bins = 29 29 29
  1 neighbor lists, perpetual/occasional/extra = 1 0 0
  (1) pair lj/cut, perpetual
      attributes: half, newton on
      pair build: half/bin/newton
      stencil: half/bin/3d
      bin: standard
Per MPI rank memory allocation (min/avg/max) = 8.28 | 8.366 | 8.79 Mbytes
   Step          Temp          E_pair         E_mol          TotEng         Press     
         0   0              12362163       8080.9318      12370244       547701.99    
       864   0             -33201.439      4728.3822     -28473.057     -88.004302    
Loop time of 0.62367 on 16 procs for 864 steps with 12350 atoms

95.5% CPU use with 16 MPI tasks x no OpenMP threads

Minimization stats:
  Stopping criterion = energy tolerance
  Energy initial, next-to-last, final = 
      12370244.3955073   -28470.390358934  -28473.0572160329
  Force two-norm initial, final = 2189056.9 11.10734
  Force max component initial, final = 115970.56 3.7283548
  Final line search alpha, max atom move = 0.030740086 0.11460995
  Iterations, force evaluations = 864 886

MPI task timing breakdown:
Section |  min time  |  avg time  |  max time  |%varavg| %total
---------------------------------------------------------------
Pair    | 0.027825   | 0.1286     | 0.32351    |  23.3 | 20.62
Bond    | 0.019847   | 0.050361   | 0.10163    |  11.0 |  8.07
Neigh   | 0.1345     | 0.13607    | 0.13747    |   0.3 | 21.82
Comm    | 0.029145   | 0.24042    | 0.38806    |  22.1 | 38.55
Output  | 0          | 0          | 0          |   0.0 |  0.00
Modify  | 0          | 0          | 0          |   0.0 |  0.00
Other   |            | 0.06822    |            |       | 10.94

Nlocal:        771.875 ave        1385 max         252 min
Histogram: 2 2 2 1 2 1 3 1 1 1
Nghost:        1045.06 ave        1694 max         531 min
Histogram: 2 5 1 0 0 1 1 3 2 1
Neighs:        15575.7 ave       32627 max        4696 min
Histogram: 4 2 2 1 0 2 2 2 0 1

Total # of neighbors = 249211
Ave neighs/atom = 20.179028
Ave special neighs/atom = 5.76
Neighbor list builds = 114
Dangerous builds = 0
velocity            all create 300 4928459
region              slab block 75 105 75 105 75 105 units box
group               slabs dynamic all region slab every 100
dynamic group slabs defined
variable            nslab equal count(slabs)
variable            step equal step
variable            pxx  equal pxx
variable            pyy  equal pyy
variable            pzz  equal pzz
variable            etotal equal etotal
compute             pressperatom all stress/atom NULL
compute             Ppairperatom all stress/atom NULL pair
compute             Pbondperatom all stress/atom NULL bond
compute             Pangleperatom all stress/atom NULL angle
compute             Pdihedralperatom all stress/atom NULL dihedral
compute             peperatom all pe/atom
compute             Epairperatom all pe/atom pair
compute             Ebondperatom all pe/atom bond
compute             Eangleperatom all pe/atom angle
compute             Edihedralperatom all pe/atom dihedral
variable            pxxperatom atom c_pressperatom[1]
variable            pyyperatom atom c_pressperatom[2]
variable            pzzperatom atom c_pressperatom[3]
variable            Pxxpairperatom atom c_Ppairperatom[1]
variable            Pyypairperatom atom c_Ppairperatom[2]
variable            Pzzpairperatom atom c_Ppairperatom[3]
variable            Pxxbondperatom atom c_Pbondperatom[1]
variable            Pyybondperatom atom c_Pbondperatom[2]
variable            Pzzbondperatom atom c_Pbondperatom[3]
variable            Pxxangleperatom atom c_Pangleperatom[1]
variable            Pyyangleperatom atom c_Pangleperatom[2]
variable            Pzzangleperatom atom c_Pangleperatom[3]
variable            Pxxdihedralperatom atom c_Pdihedralperatom[1]
variable            Pyydihedralperatom atom c_Pdihedralperatom[2]
variable            Pzzdihedralperatom atom c_Pdihedralperatom[3]
variable            NA equal 6.02214076e23
variable            dens equal "12350 * 72 / v_NA / (vol / 1e24)"  # 计算整体密度，单位g/cm3
variable            slabdens equal "v_nslab * 72 / v_NA / (30 * 30 * 30 / 1e24)"  # 计算slab密度，单位g/cm3
# npt系综下驰豫
dump                min all custom 10000 dump.pdms_min.lammpstrj id type x y z vx vy vz v_pxxperatom v_pyyperatom v_pzzperatom v_Pxxpairperatom v_Pyypairperatom v_Pzzpairperatom v_Pxxbondperatom v_Pyybondperatom v_Pzzbondperatom v_Pxxangleperatom v_Pyyangleperatom v_Pzzangleperatom v_Pxxdihedralperatom v_Pyydihedralperatom v_Pzzdihedralperatom c_peperatom c_Epairperatom c_Ebondperatom c_Eangleperatom c_Edihedralperatom
fix                 minp all print 1 "${step} ${pxx} ${pyy} ${pzz}" file minp100.txt screen no
fix                 1 all npt temp 300 600 10 iso 0 0 500 drag 2
thermo_style        custom step temp density press etotal pxx pyy pzz lx ly lz
thermo              10000
run                 500000
Generated 0 of 0 mixed pair_coeff terms from geometric mixing rule
Per MPI rank memory allocation (min/avg/max) = 10.66 | 10.77 | 11.17 Mbytes
   Step          Temp         Density         Press          TotEng          Pxx            Pyy            Pzz             Lx             Ly             Lz      
       864   300            0.23516744    -7.6056313     -17430.05      -8.9861015     -3.5045957     -10.326197      184.39999      184.55         184.5        
     10000   305.7396       0.35037738    -3.5874685     -13142.758     -7.2991057      9.6924861     -13.155786      161.4512       161.58254      161.53876    
     20000   311.23588      0.39126709     1.4839699     -15660.336      5.2029066     -0.61111063    -0.13988618     155.61885      155.74544      155.70324    
     30000   317.54155      0.39889251    -5.5079028     -16290.211     -11.017159      0.41177809    -5.918328       154.62083      154.74661      154.70469    
     40000   322.9371       0.39338913    -2.515718      -16224.894      10.797809     -16.438455     -1.9065086      155.33853      155.46489      155.42277    
     50000   328.19668      0.39004699    -2.0648467     -15860.894     -2.9533867     -16.408474      13.16732       155.78094      155.90767      155.86542    
     60000   335.12749      0.38517453     0.57717212    -15074.372      9.2571006     -2.3494658     -5.1761185      156.43507      156.56233      156.51991    
     70000   341.31465      0.38554595    -2.095874      -14795.836      2.0180586     -6.690375      -1.6153056      156.38482      156.51203      156.46963    
     80000   347.15153      0.3862757      0.1677027     -14425.4        4.0460654     -13.654944      10.111987      156.28627      156.41341      156.37103    
     90000   352.90917      0.38722757     3.6429448     -13855.775      21.802316     -1.6766807     -9.1968008      156.15811      156.28514      156.2428     
    100000   358.38137      0.3899553     -0.0043322803  -13444.205      31.854332     -23.683035     -8.184294       155.79315      155.91989      155.87764    
    110000   364.13385      0.39605997     1.4322457     -12613.96       8.8761176     -0.9111737     -3.6682066      154.98856      155.11464      155.07262    
    120000   372.96707      0.40663838    -5.0997042     -12252.841      4.7984771      8.0223706     -28.11996       153.63276      153.75774      153.71608    
    130000   378.37426      0.42345082     2.4484646     -11584.061      2.3407163     -4.1114069      9.1160845      151.572        151.6953       151.6542     
    140000   383.08036      0.44623931    -1.2432956     -11301.119     -24.54092       1.0531217      19.757912      148.94663      149.0678       149.02741    
    150000   389.44543      0.47500674    -1.9166412     -10631.528     -32.45262       31.442573     -4.7398771      145.87696      145.99563      145.95607    
    160000   396.09563      0.52762632    -9.4953289     -10708.928     -1.7636059     -28.930299      2.2079186      140.8568       140.97138      140.93319    
    170000   402.19837      0.57972498    -9.3952174     -10181.29      -3.8102344     -8.2184609     -16.156957      136.50418      136.61523      136.57821    
    180000   407.19168      0.62937279     3.2672616     -9937.4707      16.956391     -30.23356       23.078954      132.81608      132.92412      132.88811    
    190000   411.90054      0.68784512     0.088475874   -9795.7701     -56.682745      48.77319       8.1749832      128.94062      129.04551      129.01055    
    200000   418.62762      0.72689315     3.6674109     -9776.0939     -35.46987       21.516618      24.955485      126.58914      126.69212      126.65779    
    210000   425.84832      0.74961791    -3.9941273     -9543.4884      0.098999006    40.060272     -52.141653      125.2968       125.39873      125.36475    
    220000   432.58535      0.76550481    -10.246638     -8845.7599     -23.650763     -13.696543      6.6073915      124.42395      124.52517      124.49143    
    230000   436.40986      0.77942124     1.249373      -8503.0937      25.820857      39.48167      -61.554408      123.67898      123.77959      123.74605    
    240000   442.58957      0.80230936     1.6966494     -8148.5173     -72.266066      53.995328      23.360686      122.49152      122.59116      122.55795    
    250000   450.23824      0.82072112    -5.2448945     -8075.3648      8.0349778      18.256903     -42.026564      121.5686       121.6675       121.63453    
    260000   454.68393      0.83269218     6.5731973     -7503.6738      30.474237      1.983259      -12.737904      120.98322      121.08164      121.04883    
    270000   462.64588      0.83259335    -12.345033     -6733.1678      5.446867      -47.727094      5.2451298      120.98801      121.08643      121.05362    
    280000   465.35198      0.84288355     8.3778555     -6839.9645     -7.5994834      68.483757     -35.750707      120.49363      120.59166      120.55898    
    290000   473.64816      0.84142582    -6.6497962     -5877.3435     -20.960361     -42.815184      43.826156      120.56318      120.66126      120.62856    
    300000   478.47003      0.84606781    -5.492073      -5491.2722      10.877147      13.535425     -40.888791      120.34228      120.44018      120.40755    
    310000   486.70683      0.8488617     -11.772669     -4979.937       67.462485     -57.80402      -44.976472      120.21011      120.3079       120.2753     
    320000   492.86026      0.85077933     8.8370454     -4661.3158      0.56394193     68.533071     -42.585877      120.11972      120.21744      120.18487    
    330000   496.68028      0.84361052    -3.8288217     -4022.1203     -5.5392273      21.879586     -27.826824      120.45901      120.55701      120.52434    
    340000   502.12597      0.84119778     8.3770521     -3157.6914      7.8495103     -14.019818      31.301464      120.57407      120.67216      120.63946    
    350000   510.50006      0.84732428    -1.7231078     -2921.2718     -13.505088      0.17632054     8.1594445      120.28277      120.38062      120.348      
    360000   515.39085      0.84090153    -16.342671     -2259.3657     -47.751157      38.474327     -39.751183      120.58823      120.68633      120.65363    
    370000   522.67883      0.8385578      2.5268321     -1619.2354      4.8972091     -11.462665      14.145952      120.70047      120.79866      120.76593    
    380000   528.91681      0.83898034    -4.2151973     -1199.7375      22.840437     -33.637802     -1.8482269      120.6802       120.77838      120.74565    
    390000   531.73235      0.83392331     7.4692012     -877.1674       37.6349        2.4690447     -17.696341      120.92365      121.02202      120.98923    
    400000   538.60537      0.82815496    -0.95353076    -79.012543      6.6576941     -1.7973322     -7.7209541      121.20376      121.30236      121.26949    
    410000   545.8734       0.82706735    -4.0439866      574.11766      21.105693      12.470683     -45.708335      121.25687      121.35551      121.32263    
    420000   552.66725      0.82339329    -22.082691      1185.1446      29.603346     -36.387275     -59.464143      121.43695      121.53574      121.50281    
    430000   557.94481      0.82194684     4.363321       1825.7012     -18.288186     -8.4404257      39.818575      121.50814      121.60699      121.57404    
    440000   564.47631      0.81601335     0.851313       2418.4621      17.605242     -35.570564      20.519261      121.80194      121.90103      121.868      
    450000   566.95937      0.81156624     10.054186      3122.4764     -28.926914      44.802572      14.286901      122.02401      122.12328      122.09019    
    460000   576.70857      0.81185921    -15.999558      3325.7121     -40.283875     -13.707506      5.9927078      122.00933      122.10859      122.0755     
    470000   580.14997      0.80377115     0.8285937      4276.9996      4.439817      -44.463069      42.509033      122.41721      122.5168       122.4836     
    480000   587.93288      0.80496733    -10.253175      4503.2846     -37.235125      17.317221     -10.84162       122.35655      122.45608      122.4229     
    490000   593.19797      0.79925551    -4.3885623      5190.7121      69.475324     -22.490229     -60.150782      122.64733      122.7471       122.71384    
    500000   601.13323      0.79846366    -5.9673347      5641.4855      5.696282       5.9091755     -29.507462      122.68786      122.78766      122.75439    
    500864   600.59651      0.79545652    -7.9650835      5475.1213     -18.167238     -29.443899      23.715887      122.84226      122.9422       122.90889    
Loop time of 233.736 on 16 procs for 500000 steps with 12350 atoms

Performance: 184.824 ns/day, 0.130 hours/ns, 2139.170 timesteps/s, 26.419 Matom-step/s
96.9% CPU use with 16 MPI tasks x no OpenMP threads

MPI task timing breakdown:
Section |  min time  |  avg time  |  max time  |%varavg| %total
---------------------------------------------------------------
Pair    | 51.347     | 74.642     | 96.495     | 170.8 | 31.93
Bond    | 23.807     | 33.791     | 42.247     |  97.3 | 14.46
Neigh   | 12.268     | 12.299     | 12.336     |   0.6 |  5.26
Comm    | 40.932     | 68.428     | 99.515     | 217.9 | 29.28
Output  | 0.34894    | 0.43146    | 0.51821    |   8.0 |  0.18
Modify  | 36.578     | 39.427     | 42.981     |  39.9 | 16.87
Other   |            | 4.718      |            |       |  2.02

Nlocal:        771.875 ave         790 max         752 min
Histogram: 3 1 0 1 2 2 1 2 2 2
Nghost:        2116.06 ave        2172 max        2076 min
Histogram: 2 0 4 2 2 2 2 1 0 1
Neighs:        21765.3 ave       22792 max       20859 min
Histogram: 2 1 2 2 1 3 1 2 1 1

Total # of neighbors = 348245
Ave neighs/atom = 28.197976
Ave special neighs/atom = 5.76
Neighbor list builds = 11097
Dangerous builds = 0
unfix               1

fix                 2 all npt temp 600 300 10 iso 0 0 500 drag 2
thermo_style        custom step temp density press etotal pxx pyy pzz lx ly lz
thermo              10000
run                 500000
Generated 0 of 0 mixed pair_coeff terms from geometric mixing rule
Per MPI rank memory allocation (min/avg/max) = 18.47 | 18.63 | 18.95 Mbytes
   Step          Temp         Density         Press          TotEng          Pxx            Pyy            Pzz             Lx             Ly             Lz      
    500864   600.59651      0.79545652    -7.9650835      5475.1213     -18.167238     -29.443899      23.715887      122.84226      122.9422       122.90889    
    510000   594.38183      0.80170894    -3.2135668      5231.3895     -57.233434      66.159485     -18.566752      122.52209      122.62176      122.58854    
    520000   587.66636      0.80029599    -22.816796      4761.5881     -46.629917     -13.275768     -8.5447033      122.59415      122.69388      122.66064    
    530000   582.836        0.80673331    -16.986775      4249.9488     -64.407851      17.481945     -4.0344207      122.2672       122.36666      122.33351    
    540000   575.86346      0.81119389    -5.4429397      3714.1204     -39.169511      74.532037     -51.691345      122.04268      122.14196      122.10887    
    550000   571.63128      0.81170543     6.8062947      3262.4559     -15.335293     -8.0909319      43.845109      122.01704      122.1163       122.08321    
    560000   564.22616      0.82216063     1.981021       2033.8557      31.603753     -42.229719      16.56903       121.49761      121.59645      121.5635     
    570000   559.97064      0.81856638     12.744447      2133.1303      22.348094     -43.569421      59.454669      121.67518      121.77416      121.74117    
    580000   549.70811      0.82207807     30.920567      1554.4325      40.04841       50.243304      2.4699868      121.50168      121.60052      121.56757    
    590000   546.20155      0.82731288    -10.667136      874.13159      33.580991     -29.862259     -35.720141      121.24487      121.3435       121.31062    
    600000   541.07563      0.82843875     13.732196      343.17488      19.358803      11.66309       10.174696      121.18992      121.28851      121.25564    
    610000   535.13615      0.82852587    -10.736665      18.23319      -3.6503307      11.731355     -40.291018      121.18567      121.28426      121.25139    
    620000   528.09934      0.83684065     1.9701852     -780.90258      2.860845       32.19284      -29.143129      120.78297      120.88123      120.84848    
    630000   524.5511       0.83621492    -9.5786941     -1315.9916     -10.109187     -71.726543      53.099649      120.81309      120.91137      120.87861    
    640000   516.04053      0.83918375     2.3392176     -1842.6725     -16.625223      8.757222       14.885654      120.67045      120.76862      120.7359     
    650000   509.69262      0.84388124     3.389762      -2535.0562     -12.576359      51.431807     -28.686162      120.44613      120.54411      120.51145    
    660000   504.21003      0.84312391    -21.60327      -2916.1091     -42.085766     -31.605672      8.8816268      120.48218      120.5802       120.54752    
    670000   498.73791      0.85165885     2.4342324     -3666.2879     -27.518587      29.352685      5.4685995      120.07836      120.17604      120.14348    
    680000   492.86958      0.85423828     14.528311     -4210.2386     -16.19181       8.9637334      50.813009      119.95738      120.05496      120.02243    
    690000   486.53788      0.85631177    -17.924558     -4847.0259     -46.567882     -62.459925      55.254132      119.86047      119.95798      119.92548    
    700000   481.68041      0.8578395     -18.753701     -5350.9173     -11.97393      -54.257157      9.9699848      119.78928      119.88673      119.85424    
    710000   474.79469      0.85866351    -11.35726      -5857.2833      20.803755     -55.135709      0.26017528     119.75095      119.84837      119.81589    
    720000   468.28735      0.86298558     3.7450696     -6387.994       85.477997     -80.623665      6.3808773      119.5507       119.64795      119.61553    
    730000   462.28117      0.86712046    -20.167094     -7128.3935     -28.695607     -36.014844      4.209168       119.36037      119.45747      119.4251     
    740000   456.18718      0.8693361     -17.929289     -7737.8352     -51.044821      16.985396     -19.728443      119.25888      119.3559       119.32356    
    750000   449.24835      0.87513196    -1.3890786     -8220.0058      33.657152     -90.626963      52.802575      118.99502      119.09182      119.05955    
    760000   444.8232       0.87874851    -3.4056504     -8861.76        61.746047     -0.95071716    -71.012281      118.83155      118.92822      118.896      
    770000   437.85602      0.87683496     6.789121      -9122.2744     -36.898812      3.4595548      53.806621      118.91793      119.01467      118.98242    
    780000   432.19022      0.88534801     5.2700723     -10210.419      10.554861     -5.17246        10.427816      118.53555      118.63198      118.59984    
    790000   427.29161      0.88809879     7.0670846     -10692.391      0.16769688    -10.417039      31.450596      118.41304      118.50937      118.47726    
    800000   421.37878      0.88837368    -2.5226438     -11189.097     -18.522461      61.165443     -50.210913      118.40083      118.49715      118.46504    
    810000   414.61663      0.88565541    -11.093911     -11313.002     -30.825427     -38.409702      35.953395      118.52184      118.61825      118.58611    
    820000   408.05344      0.89183471    -9.3196309     -12293.616     -36.310425      43.524541     -35.173009      118.24747      118.34366      118.31159    
    830000   401.56971      0.89650633    -1.7444855     -12630.524      63.950155     -39.264026     -29.919585      118.04171      118.13774      118.10573    
    840000   395.51319      0.89739682    -17.483633     -13351.426     -53.665005     -0.41857439     1.6326795      118.00266      118.09865      118.06665    
    850000   391.01792      0.90175957    -10.795881     -14080.7       -5.00992       -26.610193     -0.76753021     117.81205      117.90789      117.87594    
    860000   386.08513      0.9075282      1.5065691     -14702.782     -16.644503      8.5026145      12.661596      117.5619       117.65753      117.62566    
    870000   378.63331      0.91063942     3.9796487     -15376.593      2.2377328     -8.6827076      18.383921      117.42786      117.52339      117.49155    
    880000   372.88065      0.91235657     2.5149248     -15905.266     -12.193317      42.362066     -22.623975      117.35414      117.44961      117.41779    
    890000   367.77273      0.91453277     0.68084356    -16717.124     -26.291648      45.548113     -17.213935      117.26099      117.35638      117.32458    
    900000   360.08261      0.92126024     0.11962612    -17400.444      49.094483     -90.483976      41.748371      116.97486      117.07002      117.0383     
    910000   354.53174      0.92264532    -2.2342664     -17619.836      20.024445     -1.4061645     -25.32108       116.91629      117.0114       116.9797     
    920000   347.64422      0.9249421     -3.3482715     -18292.078      59.028799     -33.897492     -35.176122      116.81944      116.91447      116.88279    
    930000   343.00886      0.92415863    -13.444123     -18905.056     -7.4735131      6.5955285     -39.454385      116.85244      116.9475       116.91581    
    940000   336.35551      0.93019012     9.1395962     -19536.512      30.386754      34.686385     -37.654351      116.59933      116.69418      116.66257    
    950000   330.33168      0.93229092    -5.6173663     -19976.972     -8.4427565     -16.910438      8.5010953      116.51168      116.60647      116.57487    
    960000   324.51895      0.93392802     8.0942029     -20797.124     -17.438214      46.028299     -4.3074761      116.44357      116.53829      116.50672    
    970000   318.8314       0.93792595    -4.935784      -21533.942      8.0077841     -8.8444156     -13.97072       116.27788      116.37247      116.34094    
    980000   311.94613      0.9407095      9.329384      -21837.559      43.808367     -31.476589      15.656374      116.16308      116.25758      116.22608    
    990000   307.23732      0.94276959    -13.967902     -22661.009     -28.325003     -24.090274      10.51157       116.07841      116.17284      116.14136    
   1000000   300.78038      0.94737722    -12.113856     -23360.439      7.3109808     -48.30065       4.6481029      115.88992      115.98419      115.95277    
   1000864   300.38967      0.94943117     5.2797955     -23459.237      26.53037      -42.722713      32.031729      115.80629      115.90049      115.86909    
Loop time of 214.402 on 16 procs for 500000 steps with 12350 atoms

Performance: 201.491 ns/day, 0.119 hours/ns, 2332.070 timesteps/s, 28.801 Matom-step/s
97.5% CPU use with 16 MPI tasks x no OpenMP threads

MPI task timing breakdown:
Section |  min time  |  avg time  |  max time  |%varavg| %total
---------------------------------------------------------------
Pair    | 77.39      | 81.112     | 85.548     |  25.2 | 37.83
Bond    | 33.294     | 34.697     | 36.088     |  14.3 | 16.18
Neigh   | 10.917     | 10.923     | 10.929     |   0.1 |  5.09
Comm    | 39.538     | 45.827     | 50.745     |  47.0 | 21.37
Output  | 0.30043    | 0.37769    | 0.45771    |   7.9 |  0.18
Modify  | 36.954     | 37.403     | 37.901     |   5.0 | 17.45
Other   |            | 4.062      |            |       |  1.89

Nlocal:        771.875 ave         789 max         755 min
Histogram: 2 0 1 3 2 2 2 2 1 1
Nghost:        2300.94 ave        2321 max        2278 min
Histogram: 1 1 1 1 3 3 1 3 0 2
Neighs:        26056.9 ave       26957 max       25324 min
Histogram: 1 1 2 3 2 3 3 0 0 1

Total # of neighbors = 416910
Ave neighs/atom = 33.757895
Ave special neighs/atom = 5.76
Neighbor list builds = 10908
Dangerous builds = 0
unfix               2

fix                 3 all npt temp 300 300 10 iso 0 0 250 drag 2
thermo_style        custom step temp density press etotal pxx pyy pzz lx ly lz
thermo              10000
run                 5000000
Generated 0 of 0 mixed pair_coeff terms from geometric mixing rule
Per MPI rank memory allocation (min/avg/max) = 18.48 | 18.63 | 18.95 Mbytes
   Step          Temp         Density         Press          TotEng          Pxx            Pyy            Pzz             Lx             Ly             Lz      
   1000864   300.38967      0.94943117     5.2797955     -23459.237      26.53037      -42.722713      32.031729      115.80629      115.90049      115.86909    
   1010000   301.18808      0.94712538    -1.3819251     -23492.932      13.498772     -29.008174      11.363627      115.90019      115.99447      115.96304    
   1020000   299.43206      0.94615112    -2.2266428     -23363.635      16.689133     -25.785959      2.4168978      115.93996      116.03427      116.00283    
   1030000   299.88584      0.94901444     0.47621777    -23412.16      -25.5181        59.029916     -32.083163      115.82323      115.91746      115.88605    
   1040000   299.61111      0.94810631    -0.028015382   -23377.837     -1.646442       32.357942     -30.795546      115.8602       115.95446      115.92304    
   1050000   299.9391       0.94718221     0.25203737    -23404.967     -53.531136      21.92297       32.364278      115.89787      115.99215      115.96072    
   1060000   299.90296      0.94629177    -2.1724406     -23587.486     -6.6213424      20.077043     -19.973022      115.93421      116.02852      115.99709    
   1070000   301.6221       0.94935915    -3.2824421     -23507.436     -28.192842     -18.542822      36.888337      115.80921      115.90343      115.87202    
   1080000   298.86931      0.94975438     0.5218008     -23615.257      0.69636501    -24.066154      24.935191      115.79315      115.88735      115.85595    
   1090000   300.09291      0.95018011     4.0266669     -23614.316      9.8392959      34.73927      -32.498565      115.77585      115.87004      115.83864    
   1100000   300.32132      0.9464286     -1.549584      -23393.917     -25.875102     -9.8597491      31.086099      115.92862      116.02293      115.9915     
   1110000   299.70522      0.94761707    -0.69269052    -23451.286     -9.9745783      1.5482487      6.348258       115.88014      115.97441      115.94298    
   1120000   299.57674      0.94837369     0.52001314    -23418.898     -33.26141       35.178365     -0.35691513     115.84931      115.94356      115.91214    
   1130000   300.18053      0.94722842    -2.6723914     -23371.744     -22.230878      37.359128     -23.145424      115.89598      115.99027      115.95884    
   1140000   298.88042      0.94966371     0.50336668    -23481.646     -82.737742      74.916574      9.3312687      115.79683      115.89103      115.85963    
   1150000   300.5519       0.94851657    -2.2102981     -23542.252      17.28782      -1.0120734     -22.90664       115.8435       115.93773      115.90632    
   1160000   301.43938      0.95016683    -1.5503171     -23546.064     -9.5255028      19.382168     -14.507617      115.77639      115.87057      115.83918    
   1170000   299.94813      0.94877433    -1.7889809     -23596.129      5.5736195     -9.2445756     -1.6959866      115.833        115.92723      115.89582    
   1180000   300.77266      0.95155422     0.60647781    -23664.196     -7.3031502     -40.644118      49.766702      115.7201       115.81423      115.78285    
   1190000   300.20719      0.94969646     0.63847204    -23580.877      54.384668     -32.697484     -19.771768      115.7955       115.8897       115.8583     
   1200000   300.03927      0.94746648    -0.24067946    -23486.696      41.773626     -7.8488074     -34.646857      115.88628      115.98055      115.94913    
   1210000   300.04877      0.94658383     1.0798433     -23535.763     -34.843419      68.885648     -30.802699      115.92229      116.01659      115.98515    
   1220000   299.14633      0.949036       1.7731109     -23518.093      56.853495     -25.924298     -25.609864      115.82236      115.91658      115.88517    
   1230000   301.03191      0.94907889    -0.88014629    -23556.741      14.997426      18.862761     -36.500625      115.82061      115.91483      115.88343    
   1240000   299.52938      0.94606631     1.5354258     -23323.437     -22.808129      8.2573225      19.157084      115.94342      116.03774      116.0063     
   1250000   299.74844      0.94916347    -1.7398591     -23619.83      -29.067058     -19.09811       42.945591      115.81717      115.91139      115.87998    
   1260000   300.86511      0.94824139    -3.0827724     -23655.018      42.035401     -40.786424     -10.497294      115.8547       115.94895      115.91753    
   1270000   299.97478      0.94894961    -3.4204195     -23668.56      -65.867341      57.221324     -1.6152415      115.82587      115.9201       115.88869    
   1280000   299.27594      0.94912144     1.3654252     -23616.862     -26.462939      12.539708      18.019507      115.81888      115.9131       115.88169    
   1290000   299.09117      0.94788817    -0.63306669    -23508.778     -17.757706      38.161728     -22.303222      115.86909      115.96335      115.93193    
   1300000   300.48258      0.94789149    -1.2813455     -23506.682      3.0991487     -3.657859      -3.2853263      115.86895      115.96321      115.93179    
   1310000   299.64544      0.95088268     1.8414377     -23616.781      32.218217     -0.21036614    -26.483538      115.74733      115.84149      115.8101     
   1320000   299.57685      0.94935668     2.3055904     -23810.527     -37.765206      13.329792      31.352185      115.80932      115.90353      115.87212    
   1330000   299.61752      0.94777163    -1.1938614     -23613.681     -6.2360983     -12.472297      15.126811      115.87384      115.9681       115.93668    
   1340000   300.08453      0.94897643     0.25233395    -23523.853     -20.941265     -28.657309      50.355576      115.82478      115.919        115.8876     
   1350000   300.55809      0.94909901    -2.1357421     -23628.997     -8.4210607      2.1031995     -0.089365061    115.81979      115.91401      115.88261    
   1360000   299.84588      0.95162197     1.112747      -23721.463     -42.902909      21.779095      24.462056      115.71735      115.81149      115.78011    
   1370000   299.13889      0.94896374     0.71335927    -23667.086     -2.1098903     -27.929489      32.179457      115.8253       115.91952      115.88811    
   1380000   299.80461      0.94778006     0.75251044    -23605.869     -4.4033378      11.361547     -4.7006776      115.8735       115.96776      115.93634    
   1390000   299.78338      0.947496      -2.2242308     -23732.255     -34.510068      10.230619      17.606756      115.88507      115.97935      115.94792    
   1400000   300.07889      0.94846638     0.3281342     -23633.912     -13.710786      20.022042     -5.3268538      115.84554      115.93978      115.90837    
   1410000   299.64273      0.95061492     2.2069835     -23517.835     -25.227219      24.546147      7.3020224      115.7582       115.85237      115.82098    
   1420000   299.95029      0.95028822     1.6301763     -23675.533      37.244303     -13.20399      -19.149784      115.77146      115.86564      115.83425    
   1430000   300.0011       0.94921704     0.26894417    -23496.545     -52.996332     -26.351912      80.155076      115.81499      115.90921      115.8778     
   1440000   300.47791      0.94806409    -0.46108581    -23529.641      37.932702      19.868622     -59.184581      115.86192      115.95618      115.92476    
   1450000   300.17807      0.94766247     0.47094597    -23523.806      26.741121      30.975005     -56.303288      115.87829      115.97255      115.94113    
   1460000   299.9528       0.94657223    -1.0159213     -23558.048     -18.642827      17.234774     -1.639711       115.92276      116.01706      115.98563    
   1470000   299.11535      0.94842609    -0.45807292    -23611.263      18.666043      24.400304     -44.440566      115.84718      115.94142      115.91001    
   1480000   300.40137      0.9491667     -2.269427      -23601.557      49.529227     -44.329682     -12.007826      115.81704      115.91126      115.87985    
   1490000   299.69247      0.94877142    -1.4803622     -23591.549     -24.367899      44.780615     -24.853802      115.83312      115.92735      115.89594    
   1500000   300.6112       0.94719468     1.05453       -23481.586     -5.2191906     -15.390143      23.772923      115.89736      115.99164      115.96022    
   1510000   299.8861       0.94690823     1.4706716     -23540.571     -2.9381218      9.5166634     -2.1665267      115.90905      116.00334      115.97191    
   1520000   299.26093      0.94945668    -0.32851169    -23606.159      12.069223     -11.153925     -1.9008339      115.80525      115.89946      115.86805    
   1530000   300.12549      0.95074035    -0.76592017    -23826.74      -1.2229806     -19.956964      18.882184      115.75311      115.84727      115.81588    
   1540000   299.99886      0.94725411     0.57939269    -23450.597      6.6081219     -14.41791       9.5479665      115.89494      115.98922      115.95779    
   1550000   299.79899      0.95179903     2.0612477     -23744.803      7.8564073     -19.22399       17.551326      115.71017      115.8043       115.77293    
   1560000   300.2948       0.94898392    -0.017888033   -23533.416     -6.9174079     -24.795987      31.65973       115.82448      115.9187       115.88729    
   1570000   299.92676      0.947207       0.24208834    -23362.389     -57.528755     -8.5888523      66.843873      115.89686      115.99114      115.95971    
   1580000   300.05358      0.95085422    -1.1127211     -23646.565     -61.343492      34.06275       23.942578      115.74849      115.84265      115.81126    
   1590000   299.14275      0.94654441     0.099662624   -23535.282     -0.69275978    -8.1596528      9.1514005      115.9239       116.0182       115.98676    
   1600000   299.463        0.94906879     2.2343133     -23599.777     -39.517473      45.47193       0.7484837      115.82102      115.91524      115.88384    
   1610000   299.94852      0.94766799     0.98254833    -23640.646     -2.020436       10.631918     -5.6638371      115.87806      115.97233      115.94091    
   1620000   298.76224      0.94601906    -0.60010308    -23488.904     -40.988399      18.878769      20.309321      115.94535      116.03967      116.00823    
   1630000   300.81736      0.95098843     0.60535358    -23704.697     -26.013658     -5.7122157      33.541935      115.74304      115.8372       115.80581    
   1640000   301.15958      0.94897793    -0.5568664     -23623.561     -1.5296601      1.7449606     -1.8858998      115.82472      115.91894      115.88754    
   1650000   300.98161      0.94752879    -0.5578216     -23463.327      24.079391     -31.207953      5.4550968      115.88374      115.97801      115.94658    
   1660000   300.47235      0.94744446    -3.4964289     -23479.86       17.587962      18.373412     -46.45066       115.88718      115.98145      115.95002    
   1670000   300.57657      0.94799346     0.47100492    -23504.222      35.510726     -42.285504      8.1877922      115.8648       115.95906      115.92764    
   1680000   299.90415      0.94946928    -2.0432046     -23604.801      19.125406     -36.87331       11.618291      115.80474      115.89894      115.86754    
   1690000   299.0362       0.94931701     0.68580551    -23541.796     -16.743725      9.6389962      9.1621455      115.81093      115.90514      115.87374    
   1700000   300.44063      0.94826997    -0.46380632    -23542.82      -11.838339      0.22643424     10.220486      115.85354      115.94778      115.91637    
   1710000   301.62767      0.94651317    -2.1762127     -23442.396      36.859686      31.053821     -74.442145      115.92517      116.01948      115.98804    
   1720000   300.07078      0.94910152    -3.9418567     -23591.436      1.0590021     -3.7401059     -9.1444663      115.81969      115.91391      115.88251    
   1730000   300.0076       0.9501246      0.34366958    -23694.244      1.9607597      11.207481     -12.137232      115.77811      115.87229      115.8409     
   1740000   299.82164      0.95123174    -0.3943566     -23591.957     -43.302891      13.84912       28.270702      115.73317      115.82732      115.79594    
   1750000   299.65614      0.94864669    -1.8225805     -23552.807     -23.928622     -42.056854      60.517734      115.8382       115.93243      115.90102    
   1760000   300.47933      0.94762455    -0.65015455    -23460.664     -39.96665       9.9028537      28.113333      115.87983      115.9741       115.94268    
   1770000   299.852        0.94667158     0.84077795    -23364.299     -17.830399      7.6600109      12.692722      115.9187       116.013        115.98157    
   1780000   300.05793      0.94816047     2.1548076     -23540.699     -73.217722      14.884562      64.797583      115.858        115.95225      115.92083    
   1790000   300.81995      0.94896752     1.3018496     -23427.11       3.9072347      23.438051     -23.439736      115.82514      115.91937      115.88796    
   1800000   299.99888      0.95037486     0.44070415    -23531.09       39.826382     -29.305092     -9.1991769      115.76794      115.86212      115.83073    
   1810000   300.04077      0.94803168    -5.0699524     -23476.37       58.254579     -34.368201     -39.096236      115.86324      115.9575       115.92608    
   1820000   299.19343      0.9492392     -0.48978499    -23642.067      9.6152247     -35.272249      24.187669      115.81409      115.90831      115.8769     
   1830000   299.61266      0.94767293    -1.4366052     -23603.379      5.3740206     -32.496667      22.812831      115.87786      115.97213      115.94071    
   1840000   300.28692      0.95008572     0.67106559    -23566.997      92.707883     -12.61408      -78.080606      115.77969      115.87387      115.84248    
   1850000   299.74793      0.94750808    -0.79303081    -23516.609      0.764935      -15.665881      12.521854      115.88458      115.97885      115.94743    
   1860000   300.24693      0.94987979     1.0038444     -23604.586      34.708439     -6.7167598     -24.980146      115.78805      115.88225      115.85085    
   1870000   298.84334      0.9479853      1.60045       -23582.587     -22.209808     -18.191397      45.202556      115.86513      115.95939      115.92797    
   1880000   299.82312      0.94500946     0.39072866    -23336.651     -15.670587      38.182514     -21.339741      115.98663      116.08098      116.04953    
   1890000   299.41586      0.95039333     1.2206114     -23741.793      51.301327      11.555009     -59.194502      115.76719      115.86137      115.82998    
   1900000   300.50659      0.94742175     0.66802795    -23469.145      13.4092        1.7312317     -13.136348      115.8881       115.98238      115.95095    
   1910000   299.16929      0.94841226     3.2925249     -23540.623     -19.234765     -14.543682      43.656022      115.84774      115.94198      115.91057    
   1920000   300.93629      0.94855266     0.56661439    -23528.257      19.36811       30.065155     -47.733423      115.84203      115.93626      115.90485    
   1930000   300.38188      0.94855086    -0.6038791     -23629.589      50.871821     -49.492678     -3.1907799      115.8421       115.93634      115.90493    
   1940000   298.39042      0.94722228     4.0289341     -23555.284      7.8103541      1.5242207      2.7522275      115.89624      115.99052      115.95909    
   1950000   298.79814      0.9474345     -0.14099375    -23466.069     -55.286794     -5.3778443      60.241657      115.88758      115.98186      115.95043    
   1960000   300.5345       0.94954349    -0.28557852    -23484.029      17.00759      -32.537602      14.673277      115.80172      115.89592      115.86452    
   1970000   300.73827      0.95027706     1.1769672     -23746.353     -3.6794353      42.643726     -35.433389      115.77191      115.86609      115.8347     
   1980000   300.22382      0.94774501    -1.4582186     -23635.866     -1.5722112     -10.885877      8.0834324      115.87492      115.96919      115.93777    
   1990000   299.978        0.94932529     0.80568184    -23608.761     -33.823508     -26.837749      63.078303      115.81059      115.9048       115.8734     
   2000000   299.50202      0.94903642    -0.99618847    -23585.993      47.021283     -52.453805      2.4439564      115.82234      115.91656      115.88515    
   2010000   299.85403      0.95005719     0.11803921    -23655.319     -17.868638      29.517443     -11.294687      115.78084      115.87503      115.84364    
   2020000   299.18902      0.94910758     1.6251816     -23586.645     -66.717173      23.144275      48.448443      115.81945      115.91366      115.88226    
   2030000   300.44109      0.94618412    -0.72160829    -23554.185      28.625081     -30.158735     -0.6311705      115.93861      116.03292      116.00148    
   2040000   300.74073      0.94792087     0.53253473    -23431.711     -7.4223482     -21.060482      30.080434      115.86776      115.96202      115.9306     
   2050000   300.23236      0.94674122     1.7687394     -23385.614      18.160181     -12.657759     -0.19620359     115.91586      116.01016      115.97873    
   2060000   300.31087      0.94639949     0.1551049     -23461.983     -33.087392      29.491261      4.0614456      115.92981      116.02412      115.99268    
   2070000   299.31705      0.95017916     0.72472425    -23603.446     -22.745327     -12.137009      37.056509      115.77589      115.87007      115.83868    
   2080000   300.63351      0.94786767    -0.1370007     -23622.415     -1.4950517      20.967479     -19.88343       115.86993      115.96419      115.93277    
   2090000   300.2545       0.94719458    -1.108105      -23477.179      28.351829      5.5132946     -37.189438      115.89737      115.99165      115.96022    
   2100000   299.00022      0.94532226    -0.95824142    -23482.26      -32.671962      27.047254      2.7499834      115.97383      116.06818      116.03673    
   2110000   299.24557      0.94878034    -2.3254353     -23577.743     -17.644917      24.1322       -13.463588      115.83276      115.92699      115.89558    
   2120000   301.10836      0.94916544    -0.47038425    -23739.093     -40.279441     -20.802701      59.670989      115.81709      115.91131      115.8799     
   2130000   299.30466      0.94898431    -0.92661277    -23704.289     -32.625472      20.10768       9.7379536      115.82446      115.91868      115.88728    
   2140000   299.79074      0.95008268     0.84051305    -23688.197     -43.932245      59.796751     -13.342967      115.77981      115.874        115.8426     
   2150000   299.7088       0.95047888    -0.72221246    -23604.211     -13.391739     -5.2123702      16.437471      115.76372      115.85789      115.8265     
   2160000   300.12556      0.94949456     1.0519406     -23654.798      43.86316      -13.242022     -27.465316      115.80371      115.89792      115.86651    
   2170000   299.40973      0.94925261    -0.024007194   -23525.928      10.996199     -25.860915      14.792695      115.81355      115.90776      115.87636    
   2180000   300.62646      0.94754861    -1.023375      -23691         -27.118308      14.940458      9.1077247      115.88293      115.9772       115.94578    
   2190000   300.26256      0.94816536    -2.869129      -23481.836     -95.517668      16.558649      70.351632      115.8578       115.95205      115.92063    
   2200000   300.40859      0.94837944    -4.3234851     -23638.184     -23.562568     -25.047132      35.639245      115.84908      115.94332      115.91191    
   2210000   299.83386      0.94919999    -0.19855409    -23640.602      28.835211      5.997494      -35.428367      115.81569      115.9099       115.8785     
   2220000   300.29882      0.94755678     2.3619769     -23506.885     -23.617539      8.0018884      22.701581      115.8826       115.97687      115.94544    
   2230000   300.38083      0.94780504    -1.0773002     -23590.072     -71.180053      5.5466649      62.401488      115.87248      115.96674      115.93532    
   2240000   300.18047      0.95089028     2.0694246     -23610.67      -68.675821      108.03519     -33.151095      115.74702      115.84118      115.8098     
   2250000   299.77035      0.94889965     0.75551217    -23415.239      8.8803475     -26.774557      20.160746      115.8279       115.92213      115.89072    
   2260000   300.3906       0.95007431    -2.2837749     -23630.611      16.64026       6.6508951     -30.14248       115.78015      115.87434      115.84294    
   2270000   299.88794      0.94715695     1.819368      -23460.491      18.864407      19.329085     -32.735388      115.8989       115.99318      115.96176    
   2280000   300.01577      0.94995052     1.5271795     -23658.506      8.9714081      18.558513     -22.948382      115.78518      115.87937      115.84797    
   2290000   299.79366      0.94825932     0.76627564    -23606.701     -13.813135      1.5964765      14.515485      115.85397      115.94822      115.9168     
   2300000   300.82178      0.9467254      0.11763002    -23552.232     -4.359648       9.7571615     -5.0446235      115.91651      116.01081      115.97937    
   2310000   299.78055      0.94836643     0.96092925    -23558.33      -10.517743      18.388377     -4.987847       115.84961      115.94385      115.91244    
   2320000   299.87375      0.94978049     0.13529443    -23618.843     -26.782526     -13.183612      40.372022      115.79209      115.88628      115.85489    
   2330000   300.91748      0.94980317    -0.17509884    -23700.853      18.234562      43.895643     -62.655501      115.79117      115.88536      115.85396    
   2340000   300.53676      0.94796396    -0.65413317    -23592.791     -26.002949      32.839525     -8.798976       115.866        115.96026      115.92884    
   2350000   299.77838      0.94693668    -0.20499042    -23588.621      35.907703      7.7855145     -44.308189      115.90789      116.00218      115.97075    
   2360000   299.89655      0.94800658    -0.14785093    -23474.727      29.958273     -10.911983     -19.489844      115.86427      115.95852      115.9271     
   2370000   300.00934      0.9483959     -0.57055874    -23535.435     -24.910146      48.723072     -25.524603      115.84841      115.94265      115.91124    
   2380000   298.93962      0.94958976     2.3559479     -23665.255      18.592071     -39.502545      27.978318      115.79984      115.89404      115.86264    
   2390000   299.52749      0.94822806     2.1945663     -23473.882      11.250553     -25.584414      20.91756       115.85524      115.94949      115.91808    
   2400000   301.34899      0.9502981      0.99732069    -23719.487     -28.462769     -15.215832      46.670564      115.77106      115.86524      115.83385    
   2410000   301.2681       0.94762784    -3.4442209     -23511.724      5.7609906     -18.833767      2.7401139      115.8797       115.97397      115.94254    
   2420000   299.4945       0.94962783     0.49575168    -23555.634     -23.467479      0.39959505     24.555139      115.79829      115.89249      115.86109    
   2430000   299.21147      0.9485652     -1.2161337     -23520.648      17.385783      23.448231     -44.482415      115.84152      115.93575      115.90434    
   2440000   300.23207      0.95161636     0.86155766    -23647.854      23.215835     -15.73263      -4.898532       115.71758      115.81171      115.78033    
   2450000   299.74158      0.94739189    -1.9511133     -23615.555     -1.5824184      4.7121354     -8.9830571      115.88932      115.98359      115.95217    
   2460000   299.71015      0.95231194    -0.4463481     -23745.263     -1.6843817     -69.835234      70.180572      115.6894       115.78351      115.75214    
   2470000   299.80968      0.94980941     0.45524452    -23540.761     -0.27692105    -14.255374      15.898029      115.79091      115.88511      115.85371    
   2480000   300.23081      0.94662288     0.91022362    -23512.122     -24.997653      30.150355     -2.4220317      115.92069      116.01499      115.98356    
   2490000   298.719        0.94974129    -0.47173609    -23571.877     -20.474669     -7.8729344      26.932395      115.79368      115.88788      115.85648    
   2500000   299.7548       0.94779612     2.0286174     -23474.841      15.591429      50.751335     -60.256911      115.87284      115.9671       115.93568    
   2510000   300.07873      0.94838409    -1.5382279     -23556.081     -35.816492     -8.5161443      39.717953      115.84889      115.94313      115.91172    
   2520000   299.75312      0.94671907    -1.2372227     -23553.099     -2.7245346     -11.834646      10.847513      115.91677      116.01106      115.97963    
   2530000   299.57803      0.94828304     1.7379985     -23503.987      23.669122     -0.53188925    -17.923237      115.853        115.94725      115.91584    
   2540000   298.86711      0.94692568     0.11418109    -23517.099      47.100524     -5.4110333     -41.346947      115.90833      116.00263      115.9712     
   2550000   299.68788      0.94719461    -0.054888903   -23528.259      7.1776074      3.5555795     -10.897854      115.89736      115.99165      115.96022    
   2560000   299.23698      0.95095451     1.9412487     -23611.044      4.8654044      9.1569133     -8.1985717      115.74442      115.83857      115.80719    
   2570000   299.45221      0.94857931     2.7341814     -23608.109     -19.199682      13.793578      13.608648      115.84094      115.93518      115.90377    
   2580000   299.88331      0.94524401    -4.6598692     -23404.678      27.272359     -64.35203       23.100064      115.97703      116.07138      116.03993    
   2590000   300.03075      0.94645433    -1.8306742     -23395.952      18.423352     -36.03648       12.121105      115.92757      116.02188      115.99044    
   2600000   299.51311      0.94721206     2.4808246     -23554.749      33.258743     -35.668385      9.8521156      115.89665      115.99093      115.95951    
   2610000   299.59843      0.94465107     1.4007745     -23465.06      -60.601634      25.374177      39.42978       116.00129      116.09566      116.0642     
   2620000   300.05672      0.95070744     0.50910131    -23642.073      25.756715      22.600158     -46.829569      115.75444      115.84861      115.81722    
   2630000   300.03369      0.94935039    -1.9339202     -23600.684     -40.232118      67.530781     -33.100424      115.80957      115.90378      115.87238    
   2640000   299.79813      0.94974065    -0.070386049   -23690.201     -24.611681     -7.3116226      31.712145      115.79371      115.8879       115.8565     
   2650000   299.67761      0.94908481     0.76506027    -23610.876      6.7951222     -17.055902      12.555961      115.82037      115.91459      115.88319    
   2660000   300.05187      0.94890206     1.3978598     -23571.523      51.269944     -10.137031     -36.939334      115.82781      115.92203      115.89062    
   2670000   299.46154      0.95254089     2.9852387     -23691.706     -25.276181      28.972057      5.2598398      115.68013      115.77423      115.74286    
   2680000   300.53324      0.94866215    -1.3399938     -23605.612      2.2416856      27.414986     -33.676653      115.83757      115.9318       115.90039    
   2690000   299.65864      0.9476219     -1.1364209     -23634.55      -4.8962239     -27.806276      29.293237      115.87994      115.97421      115.94279    
   2700000   299.32653      0.94871302     2.7050562     -23701.484      16.427236      7.5685729     -15.88064       115.8355       115.92973      115.89832    
   2710000   300.7448       0.94548125    -1.06211       -23385.256     -68.028495      52.411752      12.430413      115.96733      116.06167      116.03022    
   2720000   299.16179      0.94817539     1.1437903     -23642.078     -20.944642      50.070133     -25.69412       115.85739      115.95164      115.92022    
   2730000   300.47989      0.94657889    -0.78797069    -23448.629      16.020983      21.263483     -39.648377      115.92249      116.01679      115.98536    
   2740000   300.81573      0.94990562     3.9232335     -23702.201      0.83532106     46.035262     -35.100882      115.787        115.8812       115.8498     
   2750000   300.85669      0.95043273     1.7990616     -23723.909      1.4942294     -4.4224635      8.325419       115.76559      115.85977      115.82838    
   2760000   301.05189      0.9483969     -1.4710951     -23696.835     -54.795528      64.910798     -14.528554      115.84837      115.94261      115.9112     
   2770000   299.88155      0.94975834    -2.1640515     -23630.176     -43.348217      16.900013      19.956049      115.79299      115.88718      115.85579    
   2780000   300.40112      0.94811643    -0.62504913    -23639.809      15.611505      4.7993733     -22.286026      115.85979      115.95404      115.92263    
   2790000   299.6896       0.94768039     2.6205747     -23599.419      25.115256      0.54393333    -17.797465      115.87756      115.97182      115.9404     
   2800000   299.27814      0.94807371     0.86700186    -23488.665      15.735325     -22.442908      9.3085882      115.86153      115.95578      115.92437    
   2810000   300.33176      0.94709907     0.18482596    -23481.799      60.281538     -50.00355      -9.7235102      115.90126      115.99555      115.96412    
   2820000   299.31817      0.94539932    -1.1702872     -23575.519     -19.079479     -3.3095019      18.878119      115.97068      116.06502      116.03357    
   2830000   300.39682      0.94807259    -0.82594392    -23482.718     -21.521916      57.44315      -38.399065      115.86158      115.95583      115.92441    
   2840000   299.22453      0.94882408     1.591685      -23619.953      32.544518     -16.158197     -11.611266      115.83098      115.92521      115.8938     
   2850000   299.40352      0.9478609      0.59295903    -23493.242     -11.190218      4.2234003      8.7456949      115.8702       115.96446      115.93304    
   2860000   300.10753      0.94929278    -2.4862526     -23802.528      5.2530531      23.785589     -36.4974        115.81191      115.90613      115.87472    
   2870000   299.97474      0.95049119     2.2282951     -23641.98      -2.9860581      56.9707       -47.299756      115.76322      115.85739      115.826      
   2880000   300.88286      0.94965451     1.0652032     -23714.825     -29.004803     -24.931008      57.131421      115.79721      115.89141      115.86001    
   2890000   300.03634      0.94712244     0.016687873   -23591.717     -29.451678      36.947509     -7.4457672      115.90031      115.99459      115.96316    
   2900000   299.79526      0.94624071     0.88526974    -23479.805      1.421919       35.5428       -34.30891       115.9363       116.03061      115.99917    
   2910000   299.79416      0.95036282     2.1786559     -23572.448     -40.882932      17.564494      29.854406      115.76843      115.86261      115.83122    
   2920000   300.47034      0.9468654      0.98472022    -23484.493      35.587739      7.1404478     -39.774026      115.91079      116.00509      115.97366    
   2930000   299.34731      0.9480089     -0.64696943    -23585.061     -58.093758      56.437937     -0.28508753     115.86417      115.95843      115.92701    
   2940000   299.01832      0.94943326     2.1205927     -23626.116      34.990831     -13.065572     -15.563481      115.8062       115.90041      115.86901    
   2950000   300.34904      0.94802457     0.75415902    -23570.356     -33.641815     -10.785284      46.689577      115.86353      115.95779      115.92637    
   2960000   299.21318      0.95075677     1.6970545     -23528.372     -5.5152658      5.694642       4.9117873      115.75244      115.8466       115.81522    
   2970000   301.33668      0.94805809    -0.071285668   -23513.735     -14.690249     -48.210409      62.686801      115.86217      115.95642      115.925      
   2980000   299.80994      0.94847203    -0.53643024    -23614.933     -44.84976       19.989826      23.250643      115.84531      115.93955      115.90814    
   2990000   300.54863      0.94999615    -1.3844458     -23769.419     -1.1348785     -20.880462      17.862003      115.78332      115.87751      115.84612    
   3000000   299.02512      0.95057596    -1.1871644     -23839.767      58.365762     -51.601771     -10.325484      115.75978      115.85395      115.82256    
   3010000   299.06971      0.94863995     0.59822488    -23631.079      8.8049076      56.420788     -63.431021      115.83847      115.93271      115.9013     
   3020000   298.85092      0.94721321    -0.7850591     -23517.338      24.902257     -44.044597      16.787163      115.89661      115.99089      115.95946    
   3030000   300.94039      0.94823213     1.6139631     -23424.457      1.1015951      5.1702671     -1.429973       115.85508      115.94933      115.91791    
   3040000   300.60661      0.95085093     0.53317282    -23718.324     -8.8813444      31.620036     -21.139173      115.74862      115.84278      115.81139    
   3050000   300.0611       0.95004634     0.30724525    -23603.786     -26.629542      25.688918      1.8623599      115.78129      115.87547      115.84408    
   3060000   299.67807      0.9497343      1.4171088     -23699.064     -9.4415207     -23.371701      37.064548      115.79396      115.88816      115.85676    
   3070000   299.1842       0.94891276     2.2095601     -23696.138      17.942242      11.900514     -23.214076      115.82737      115.9216       115.89019    
   3080000   298.99145      0.94984002     1.7553073     -23662.478     -16.17077       35.311741     -13.875049      115.78967      115.88386      115.85246    
   3090000   299.10197      0.94864979     0.4370155     -23498.375     -1.928591      -34.001077      37.240714      115.83807      115.93231      115.9009     
   3100000   301.24753      0.94944352     0.71554976    -23647.143      21.398406      5.094086      -24.345842      115.80578      115.89999      115.86859    
   3110000   300.42024      0.9475772     -0.51843523    -23489.383      5.2443409     -12.139746      5.3400993      115.88176      115.97603      115.94461    
   3120000   299.65588      0.94632634    -1.0988218     -23650.533      25.945847     -19.547242     -9.6950708      115.9328       116.02711      115.99567    
   3130000   300.10257      0.94877124     1.8086609     -23562.035      28.936747     -37.266619      13.755854      115.83313      115.92736      115.89595    
   3140000   299.72056      0.94843631    -1.3751475     -23495.076     -96.763542      46.725839      45.912261      115.84676      115.94101      115.90959    
   3150000   300.25896      0.94831537     0.11019286    -23643.224     -11.42617       14.096814     -2.3400658      115.85169      115.94593      115.91452    
   3160000   300.64577      0.94748479    -0.39065256    -23515.017     -0.3632522      69.065138     -69.873844      115.88553      115.9798       115.94838    
   3170000   299.40317      0.950827       0.92576477    -23646.143      18.919198     -5.1474985     -10.994405      115.74959      115.84375      115.81236    
   3180000   301.17188      0.9486504      1.1660425     -23553.128      21.669545     -20.743865      2.5724472      115.83805      115.93228      115.90087    
   3190000   300.33998      0.9483567      0.96505802    -23647.365      39.539411     -41.789371      5.1451335      115.85001      115.94425      115.91283    
   3200000   299.7908       0.95075567     1.2554117     -23710.758      17.392521     -2.6040051     -11.022281      115.75248      115.84665      115.81526    
   3210000   300.04486      0.95030358     0.71399561    -23609.428      2.4938515      36.866309     -37.218174      115.77084      115.86502      115.83362    
   3220000   300.3896       0.94790907    -1.1606552     -23479.998      45.779882     -25.072771     -24.189076      115.86824      115.9625       115.93108    
   3230000   300.49763      0.95102573     1.1317103     -23633.735     -34.063208      20.703571      16.754767      115.74153      115.83568      115.8043     
   3240000   299.18312      0.94932242    -0.77568241    -23612.89      -36.743448     -42.329783      76.746183      115.81071      115.90492      115.87352    
   3250000   299.47796      0.94856385     1.1195064     -23460.244     -2.6938581     -21.439876      27.492254      115.84157      115.93581      115.9044     
   3260000   299.80697      0.94681812     0.50543712    -23470.768     -13.019368      3.1238432      11.411836      115.91272      116.00702      115.97559    
   3270000   300.34712      0.94871747     2.2153293     -23604.535     -14.459151      18.112788      2.9923509      115.83532      115.92955      115.89814    
   3280000   300.52952      0.95029095     0.26600815    -23726.222      26.342849     -22.974095     -2.5707296      115.77135      115.86553      115.83414    
   3290000   299.48865      0.94918954     0.12623041    -23607.214      13.430377     -49.040382      35.988696      115.81611      115.91033      115.87892    
   3300000   300.57343      0.94600708     1.267655      -23424         -21.828068     -44.000603      69.631636      115.94584      116.04016      116.00872    
   3310000   300.17053      0.9494334      0.58433688    -23640.337      24.27341      -25.420144      2.899744       115.8062       115.9004       115.869      
   3320000   299.25912      0.94729989    -0.70712721    -23472.014     -29.165767     -13.548689      40.593074      115.89307      115.98735      115.95592    
   3330000   299.78283      0.94836659     0.11191521    -23709.02       17.281491     -25.006903      8.0611575      115.8496       115.94385      115.91243    
   3340000   299.77072      0.9500301      0.91452047    -23647.955     -0.52585288     32.670401     -29.400987      115.78195      115.87613      115.84474    
   3350000   299.68834      0.94814175    -1.2785442     -23632.668      0.81034238     0.25325482    -4.8992297      115.85876      115.95301      115.92159    
   3360000   300.55045      0.94814902    -0.54165693    -23610.736     -25.905236      59.547973     -35.267708      115.85846      115.95271      115.9213     
   3370000   300.00691      0.94708738    -1.6986994     -23747.709     -2.655791       4.3684646     -6.8087716      115.90174      115.99602      115.96459    
   3380000   300.08591      0.94757355    -0.049678428   -23599.963     -11.592195      21.921746     -10.478586      115.88191      115.97618      115.94476    
   3390000   298.78784      0.95032443     2.9919312     -23487.751     -37.879199      25.86339       20.991603      115.76999      115.86417      115.83278    
   3400000   299.03863      0.94693014    -0.31812168    -23532.961     -22.101862      12.644094      8.5034029      115.90815      116.00244      115.97101    
   3410000   299.4011       0.94851417    -0.33754038    -23562.468      42.599034     -38.52505      -5.0866054      115.84359      115.93783      115.90642    
   3420000   299.48154      0.94747029     2.409981      -23522.219      9.6006175     -23.477472      21.106797      115.88612      115.9804       115.94897    
   3430000   299.35765      0.94888374     0.13236534    -23421.889      45.09722      -20.016257     -24.683868      115.82855      115.92278      115.89137    
   3440000   300.26193      0.94888513    -1.7374846     -23746.362     -40.693331     -3.7035209      39.184398      115.8285       115.92272      115.89131    
   3450000   300.30101      0.94824021    -0.83866915    -23592.765     -0.21213655     13.133014     -15.436885      115.85475      115.949        115.91758    
   3460000   300.88892      0.94834657    -1.2475795     -23634.806      90.707908     -53.144898     -41.305748      115.85042      115.94466      115.91325    
   3470000   300.61196      0.94769258    -0.52194083    -23557.949     -13.359477      13.27385      -1.4801957      115.87706      115.97133      115.9399     
   3480000   299.92281      0.94711356    -1.1172896     -23558.362      7.9690719     -2.3871124     -8.9338281      115.90067      115.99495      115.96353    
   3490000   300.0552       0.95107072     0.10286994    -23585.144      15.87401       35.776256     -51.341656      115.7397       115.83386      115.80247    
   3500000   300.57076      0.94788678    -2.8681974     -23599.049      29.265394      37.554699     -75.424686      115.86915      115.96341      115.93199    
   3510000   300.66798      0.95219624    -1.0078433     -23676.935     -6.5148819     -14.490627      17.981979      115.69408      115.7882       115.75683    
   3520000   300.5596       0.94797049    -1.0318777     -23489.944     -35.408735      13.231386      19.081716      115.86574      115.95999      115.92857    
   3530000   300.85677      0.94882192    -0.45177121    -23521.976      29.357986      0.40251565    -31.115815      115.83107      115.9253       115.89389    
   3540000   299.93673      0.95017321    -1.2001381     -23617.213     -35.473304     -16.398903      48.271793      115.77613      115.87032      115.83892    
   3550000   299.85348      0.947832       1.3459876     -23504.07       16.815481      20.740048     -33.517566      115.87138      115.96564      115.93422    
   3560000   299.77548      0.95026312     2.8951228     -23532.421      23.492227     -2.5937695     -12.21309       115.77248      115.86666      115.83527    
   3570000   299.5631       0.94844707    -0.071084525   -23641.324      26.377045     -14.448151     -12.142148      115.84633      115.94057      115.90915    
   3580000   300.24669      0.94797498     1.4230523     -23444.172     -15.037681      4.7655437      14.541295      115.86555      115.95981      115.92839    
   3590000   300.47501      0.95060567    -2.331081      -23607.054     -5.1742453     -31.595009      29.776011      115.75857      115.85274      115.82135    
   3600000   299.50293      0.94928414    -2.3473776     -23671.677      30.360181     -19.69706      -17.705254      115.81227      115.90648      115.87507    
   3610000   300.14921      0.94859968    -1.460759      -23561.253      5.2990371      10.895329     -20.576643      115.84011      115.93435      115.90294    
   3620000   299.23939      0.94719918     0.51035016    -23499.671      26.508561     -7.6174264     -17.360084      115.89718      115.99146      115.96003    
   3630000   299.21253      0.94960357     0.32903232    -23709.774     -17.382696      0.36020682     18.009586      115.79928      115.89348      115.86208    
   3640000   299.74267      0.94802196    -1.7820515     -23614.953     -4.8378366      26.518522     -27.02684       115.86364      115.95789      115.92648    
   3650000   299.60692      0.94850731     2.2983148     -23659.938      17.002992     -56.860453      46.752406      115.84387      115.93811      115.9067     
   3660000   300.20408      0.94709332    -2.2620506     -23521.416     -40.208705      6.9086663      26.513887      115.9015       115.99578      115.96435    
   3670000   300.90028      0.9476107     -0.34454836    -23530.716     -26.68232      -12.415342      38.064017      115.8804       115.97467      115.94324    
   3680000   300.84786      0.94771362    -2.1591923     -23335.196     -37.75017       3.2895306      27.983063      115.8762       115.97047      115.93905    
   3690000   299.44219      0.94877709    -0.64993288    -23471.157     -2.0598229     -19.148014      19.258038      115.83289      115.92712      115.89571    
   3700000   299.79222      0.94879227    -0.95100369    -23479.627      36.66627      -50.563006      11.043725      115.83227      115.9265       115.89509    
   3710000   300.19486      0.94981504     1.4962737     -23618.233     -18.236581     -11.489471      34.214873      115.79068      115.88488      115.85348    
   3720000   300.00663      0.95228934     2.3259315     -23879.182      43.110144      6.0302183     -42.162567      115.69031      115.78442      115.75305    
   3730000   300.6275       0.94821766    -0.31971011    -23576.61      -4.6455711     -50.054189      53.740629      115.85567      115.94992      115.9185     
   3740000   300.68462      0.94744414     2.291666      -23589.421      1.3946806      44.924082     -39.443764      115.88719      115.98146      115.95004    
   3750000   299.85293      0.94886089     0.37715475    -23513.875      26.562333     -17.172089     -8.2587795      115.82948      115.92371      115.8923     
   3760000   300.28443      0.95030024    -0.055565585   -23580.731     -6.9135966      75.003167     -68.256267      115.77097      115.86515      115.83376    
   3770000   300.02511      0.9472977     -1.4169829     -23499.016      26.463962      3.6998923     -34.414803      115.89316      115.98744      115.95601    
   3780000   299.55844      0.94698769    -0.28368023    -23497.19      -26.350439     -18.728464      44.227862      115.9058       116.00009      115.96866    
   3790000   300.3688       0.9485069     -0.86460138    -23731.571     -71.790971      64.440308      4.756859       115.84389      115.93813      115.90672    
   3800000   300.42044      0.94784313    -1.0684859     -23418.607      31.736388      4.1364449     -39.078291      115.87093      115.96519      115.93377    
   3810000   300.11905      0.94723018    -1.9035544     -23712.641     -10.640022     -34.146823      39.076183      115.89591      115.99019      115.95877    
   3820000   299.60933      0.94598628    -1.6432642     -23485.304     -3.2991464     -8.0680607      6.4374144      115.94669      116.04101      116.00957    
   3830000   300.34496      0.94995817     1.0086858     -23876.251     -3.3501898      20.817969     -14.441722      115.78487      115.87906      115.84766    
   3840000   299.96879      0.9472751      0.25181793    -23432.167     -17.985953     -30.28322       49.024626      115.89408      115.98836      115.95693    
   3850000   300.20452      0.94672426    -1.7333569     -23559.042      34.716452     -6.242327      -33.674196      115.91655      116.01085      115.97942    
   3860000   299.16308      0.95018332     1.1986496     -23616.753     -34.756788      17.001166      21.351571      115.77572      115.86991      115.83851    
   3870000   299.27358      0.94737337     0.72673609    -23515.214      24.47457       11.759114     -34.053476      115.89007      115.98435      115.95292    
   3880000   300.08806      0.95099933    -0.46843336    -23545.711      33.118812     -29.199284     -5.3248279      115.7426       115.83675      115.80537    
   3890000   300.1761       0.94969374    -0.69844047    -23635.318      53.524457     -53.571957     -2.0478208      115.79561      115.88981      115.85841    
   3900000   301.20019      0.9484135     -0.3901015     -23433.625     -7.732883      -56.131241      62.69382       115.84769      115.94193      115.91052    
   3910000   299.45022      0.95031093     0.21095029    -23582.597     -10.758603     -4.7467536      16.138207      115.77054      115.86472      115.83333    
   3920000   299.98431      0.94595275    -1.0451403     -23318.416     -12.942781      3.7357416      6.0716182      115.94806      116.04238      116.01094    
   3930000   300.31334      0.94866584    -0.038633452   -23569.163     -26.419844      31.615909     -5.3119644      115.83742      115.93165      115.90024    
   3940000   299.85715      0.94938955     0.36286055    -23678.741      32.811666      11.643467     -43.366551      115.80798      115.90219      115.87078    
   3950000   300.0398       0.95003462     0.52742576    -23647.045      24.026212      1.595266      -24.039201      115.78176      115.87595      115.84455    
   3960000   300.81636      0.95025418     0.58715297    -23510.846     -20.410185      14.821281      7.3503637      115.77284      115.86702      115.83563    
   3970000   300.10727      0.94894966    -2.7846992     -23587.848     -0.89525743    -0.14632521    -7.312515       115.82587      115.92009      115.88869    
   3980000   300.86979      0.94750096    -2.6279152     -23554.408      18.936146     -48.431797      21.611906      115.88487      115.97914      115.94772    
   3990000   300.51159      0.94697132    -1.6028748     -23378.94       16.007681     -20.578245     -0.23805975     115.90647      116.00076      115.96933    
   4000000   301.16258      0.9508898      0.22676263    -23572.837     -7.6790281      12.054718     -3.6954022      115.74704      115.8412       115.80982    
   4010000   300.38         0.94961856    -1.0973091     -23475          5.6063028     -12.384709      3.4864787      115.79867      115.89287      115.86147    
   4020000   299.6524       0.94562118     1.4048727     -23650.757      2.9006235     -34.603524      35.917519      115.96161      116.05594      116.0245     
   4030000   300.08254      0.94849427    -0.83889156    -23677.019      27.014503     -5.4997758     -24.031402      115.8444       115.93864      115.90723    
   4040000   300.56823      0.94710448     1.2085973     -23519.722      37.942135     -15.636301     -18.680041      115.90104      115.99533      115.9639     
   4050000   300.59419      0.94773037    -1.2137416     -23745.34      -32.583129     -17.342802      46.284707      115.87552      115.96978      115.93836    
   4060000   299.56404      0.94773766    -0.32172954    -23518.67      -30.397513      18.274486      11.157839      115.87522      115.96949      115.93807    
   4070000   300.10785      0.94978449     2.6371361     -23585.881      17.004483      40.590509     -49.683583      115.79192      115.88612      115.85472    
   4080000   299.94307      0.94825664     0.16878436    -23672.244     -10.48773      -41.608492      52.602575      115.85408      115.94833      115.91691    
   4090000   300.63283      0.94955139    -0.37160736    -23674.064      8.2691374     -24.672113      15.288154      115.8014       115.8956       115.8642     
   4100000   300.63773      0.94748334     1.0326047     -23649.562      19.145661     -49.731135      33.683288      115.88559      115.97986      115.94844    
   4110000   300.26458      0.94853339     1.6626135     -23719.434     -10.034453      3.3119728      11.71032       115.84281      115.93705      115.90564    
   4120000   300.0726       0.94910635     0.0018862419  -23726.364     -24.503422      15.275393      9.2336875      115.8195       115.91372      115.88231    
   4130000   301.52572      0.95032125     2.9444455     -23630.78      -13.796617      40.803883     -18.173929      115.77012      115.8643       115.83291    
   4140000   300.31243      0.94925192     3.2401838     -23665.358      3.301915      -56.772162      63.190798      115.81358      115.90779      115.87638    
   4150000   299.28913      0.94915551     0.10090988    -23673.881     -7.3566604      0.90994586     6.7494442      115.8175       115.91171      115.88031    
   4160000   299.44494      0.94712569     0.065644161   -23523.542      5.9980007     -14.775769      8.9747007      115.90017      115.99446      115.96303    
   4170000   300.48686      0.94642253    -1.6448009     -23384.559      7.4714884     -4.3269106     -8.0789804      115.92887      116.02318      115.99174    
   4180000   299.56427      0.94614277     0.022406146   -23587.791     -7.8284572     -11.668062      19.563738      115.9403       116.03461      116.00317    
   4190000   300.32801      0.95051189     1.8850411     -23650.283     -67.762215     -11.963283      85.380621      115.76238      115.85655      115.82516    
   4200000   301.60894      0.95038552     0.44785513    -23729.154     -41.145271      31.661619      10.827217      115.76751      115.86169      115.83029    
   4210000   300.70472      0.94652168    -0.61764045    -23510.334      17.695744     -4.2617513     -15.286914      115.92482      116.01913      115.98769    
   4220000   300.18879      0.94870541     1.1165881     -23364.638     -27.128828      43.349973     -12.87138       115.83581      115.93004      115.89863    
   4230000   300.49429      0.94539476    -1.8121167     -23368.539      58.695585     -13.254991     -50.876944      115.97087      116.06521      116.03376    
   4240000   299.92451      0.94639634    -1.2734101     -23513.57       7.133132       15.911905     -26.865267      115.92994      116.02425      115.99281    
   4250000   299.1569       0.95115608     1.152706      -23526.469      6.7265162      10.24259      -13.510988      115.73624      115.83039      115.79901    
   4260000   300.10938      0.95005072     4.4947491     -23732.291      1.8447633      47.518262     -35.878778      115.78111      115.8753       115.8439     
   4270000   300.61027      0.94862559    -0.84930765    -23693.998      48.70243      -14.080547     -37.169806      115.83906      115.93329      115.90188    
   4280000   299.95827      0.9484851      2.1640183     -23488.806     -14.253582     -3.7131501      24.458786      115.84478      115.93902      115.9076     
   4290000   300.57431      0.94874866     0.28965628    -23583.434     -13.113079     -46.596863      60.578911      115.83405      115.92828      115.89687    
   4300000   299.49308      0.94556478     0.90470005    -23351.728     -62.941196      50.228898      15.426398      115.96391      116.05825      116.02681    
   4310000   299.18354      0.94884755     1.0789524     -23427.824      14.771294     -9.3978792     -2.1365574      115.83002      115.92425      115.89284    
   4320000   299.42107      0.94709834    -0.54666848    -23552.133     -48.769583      31.055452      16.074125      115.90129      115.99558      115.96415    
   4330000   299.80111      0.95014432     0.94319443    -23618.581      26.604476     -43.033659      19.258766      115.77731      115.87149      115.8401     
   4340000   300.53685      0.94527199    -3.3014276     -23502.427     -7.1277343      21.613698     -24.390246      115.97589      116.07023      116.03878    
   4350000   299.40434      0.94969559     1.9934735     -23642.088     -13.841963      28.064657     -8.2422738      115.79554      115.88974      115.85834    
   4360000   299.51666      0.95175318     1.0373943     -23672.044     -24.009474      29.864207     -2.7425509      115.71203      115.80616      115.77479    
   4370000   300.23448      0.94775464     0.42795064    -23552.252     -13.632676     -3.8097107      18.726239      115.87453      115.9688       115.93737    
   4380000   299.50297      0.94887596     1.2143828     -23607.339     -26.199921      6.4111888      23.43188       115.82887      115.9231       115.89169    
   4390000   300.07733      0.94792892    -1.7506161     -23573.321     -16.830357     -1.5025003      13.081009      115.86743      115.96169      115.93027    
   4400000   299.30493      0.95014595     1.5403503     -23725.115     -11.903449     -4.0881707      20.612671      115.77724      115.87142      115.84003    
   4410000   300.17708      0.94789129    -0.7906171     -23745.412     -1.9296182      49.9641       -50.406333      115.86896      115.96322      115.9318     
   4420000   300.36013      0.94657219     0.76243555    -23541.764      31.89252       8.6065384     -38.211752      115.92276      116.01706      115.98563    
   4430000   299.25287      0.94814695     0.2014046     -23568.207     -17.288937      6.4307959      11.462355      115.85855      115.9528       115.92138    
   4440000   300.96881      0.94805832    -1.4219387     -23655.334      59.460738      0.90709473    -64.633649      115.86216      115.95641      115.92499    
   4450000   300.23959      0.94949596    -1.0483716     -23596.24       35.952543     -5.9865101     -33.111147      115.80365      115.89786      115.86646    
   4460000   300.16612      0.94411844    -1.2893345     -23394.273      43.669904     -5.3328743     -42.205033      116.0231       116.11749      116.08602    
   4470000   299.76449      0.9481097      0.59735295    -23593.783     -16.318469     -15.374311      33.484839      115.86006      115.95432      115.9229     
   4480000   299.2317       0.94925208    -0.83180791    -23657.045      6.8718117     -12.268797      2.9015618      115.81357      115.90778      115.87638    
   4490000   299.37278      0.9473022      0.78662583    -23444.13      -39.662298      7.9176928      34.104482      115.89298      115.98725      115.95583    
   4500000   300.48547      0.94844744    -0.63785408    -23510.309      24.918165     -5.9411355     -20.890592      115.84631      115.94055      115.90914    
   4510000   300.40969      0.94927626    -0.21059117    -23666.824      22.730212     -8.5996663     -14.76232       115.81259      115.9068       115.87539    
   4520000   300.37875      0.94967551    -0.25371296    -23619.269     -0.73406006     13.661171     -13.68825       115.79635      115.89055      115.85915    
   4530000   299.78714      0.94727169     0.47631408    -23462.63      -54.801183      34.945622      21.284503      115.89422      115.9885       115.95707    
   4540000   300.26065      0.94647016     0.83916762    -23396.84      -16.273454     -9.4629746      28.253932      115.92693      116.02123      115.9898     
   4550000   300.23443      0.9508636      0.042563256   -23781.935      20.776645     -39.103705      18.45475       115.7481       115.84227      115.81088    
   4560000   300.57078      0.94816741     1.3825136     -23456.217     -3.0901927     -19.975918      27.213652      115.85771      115.95196      115.92055    
   4570000   299.24143      0.94698121     0.32819359    -23503.142      12.444688     -1.9766783     -9.4834288      115.90607      116.00036      115.96893    
   4580000   300.73979      0.9489863     -0.49833855    -23507.177     -0.29454769    -14.043326      12.842858      115.82438      115.9186       115.88719    
   4590000   300.42249      0.95000943     1.4006314     -23547.937     -31.239087      16.896108      18.544873      115.78279      115.87697      115.84558    
   4600000   300.41221      0.94813776    -3.0097313     -23538.45       7.7056056      7.3438155     -24.078615      115.85892      115.95317      115.92176    
   4610000   300.14711      0.94731009    -0.39478182    -23607.331      19.315575     -55.07666       34.576739      115.89265      115.98693      115.95551    
   4620000   299.8223       0.95095411     1.262776      -23602.098     -18.340388     -6.618423       28.747139      115.74443      115.83859      115.8072     
   4630000   300.62988      0.94826208     0.14037376    -23642.666      16.951292     -45.06042       28.53025       115.85386      115.94811      115.91669    
   4640000   299.30792      0.94905021     0.92649481    -23543.53      -10.453606      25.755593     -12.522503      115.82178      115.916        115.88459    
   4650000   300.10899      0.94779239    -0.7378371     -23540.23      -33.376983     -35.088492      66.251964      115.87299      115.96726      115.93583    
   4660000   299.65421      0.94703679    -0.21432332    -23484.319      33.628473     -23.967025     -10.304418      115.9038       115.99809      115.96666    
   4670000   299.90319      0.94791744     0.22275561    -23544.871      60.240112     -52.395571     -7.1762745      115.8679       115.96216      115.93074    
   4680000   300.58635      0.94656426     0.73274612    -23410.045      15.604409      4.9617232     -18.367894      115.92308      116.01739      115.98595    
   4690000   299.92689      0.94718259     0.63075525    -23539.893      51.910149     -53.750251      3.7323678      115.89785      115.99214      115.96071    
   4700000   300.26091      0.95057187     3.1211652     -23646.546      49.026729     -26.305276     -13.357957      115.75994      115.85412      115.82273    
   4710000   300.2885       0.95078489     0.19529894    -23715.019      30.854343     -53.474059      23.205612      115.7513       115.84546      115.81407    
   4720000   300.38217      0.94771329    -3.293835      -23601.877     -61.831028      99.569049     -47.619526      115.87622      115.97048      115.93906    
   4730000   299.89678      0.94955865     0.56954063    -23750.536     -17.643648     -14.261669      33.613938      115.8011       115.89531      115.86391    
   4740000   300.31983      0.94697672     0.16995066    -23564.587     -69.969428      18.318845      52.160435      115.90625      116.00054      115.96911    
   4750000   299.7412       0.94777734    -0.76516097    -23523.259     -19.51078      -31.419797      48.635095      115.87361      115.96787      115.93645    
   4760000   299.52313      0.94914032     1.5136555     -23560.111     -0.29348413    -12.776827      17.611278      115.81811      115.91233      115.88093    
   4770000   300.03476      0.94801031     0.4461524     -23657.606     -7.8624008     -6.4155015      15.61636       115.86411      115.95837      115.92695    
   4780000   299.777        0.94572189    -0.29614623    -23461.029     -31.868735      19.574213      11.406083      115.95749      116.05182      116.02038    
   4790000   298.98064      0.95010815    -0.2408969     -23846.07       18.658088      30.375686     -49.756464      115.77877      115.87296      115.84157    
   4800000   299.84128      0.94707623    -0.37536082    -23550.809      9.6318809      29.792621     -40.550584      115.90219      115.99648      115.96505    
   4810000   299.744        0.94862654     1.0438386     -23473.842     -44.922602      15.040688      33.01343       115.83902      115.93325      115.90184    
   4820000   299.93037      0.94586038    -0.87476277    -23530.449     -28.978862      39.953549     -13.598976      115.95183      116.04616      116.01472    
   4830000   300.02604      0.94766804    -1.4142741     -23678.946      25.166118     -75.957127      46.548187      115.87806      115.97233      115.94091    
   4840000   300.78182      0.94870119     1.73139       -23612.66      -7.5206684      45.067403     -32.352565      115.83598      115.93021      115.8988     
   4850000   299.06999      0.94620602    -0.82022325    -23553.07       26.728485     -53.6154        24.426245      115.93771      116.03203      116.00059    
   4860000   299.41511      0.94851916    -2.7054418     -23570.405      38.819245     -41.008788     -5.9267827      115.84339      115.93763      115.90622    
   4870000   300.07049      0.94967528     1.8893227     -23575.38       15.00521      -18.105714      8.768472       115.79636      115.89056      115.85916    
   4880000   300.06593      0.94704244    -0.91641453    -23542.257      24.795225      19.792965     -47.337433      115.90357      115.99786      115.96643    
   4890000   300.57347      0.94733043     1.9903148     -23475.048     -11.444662     -14.98649       32.402097      115.89182      115.9861       115.95468    
   4900000   300.8276       0.94806597     2.2775903     -23462.039     -17.4559       -12.745675      37.034345      115.86185      115.9561       115.92468    
   4910000   301.01563      0.9478775     -0.21983623    -23633.007      16.452323      0.046972445   -17.158804      115.86952      115.96378      115.93236    
   4920000   299.91883      0.94753326    -0.61064599    -23557.374      40.177807     -6.3888659     -35.620879      115.88355      115.97783      115.9464     
   4930000   299.77513      0.94830872     3.1515236     -23697.464     -31.149122      24.416612      16.187081      115.85196      115.9462       115.91479    
   4940000   299.72582      0.9482985     -0.40058378    -23566.853      1.2911755     -1.4517718     -1.0411551      115.85238      115.94662      115.91521    
   4950000   300.20122      0.9481202      1.7914679     -23628.717      21.571698      3.3243061     -19.5216        115.85964      115.95389      115.92247    
   4960000   299.96099      0.94901923     2.904868      -23708.002      22.595805      10.422478     -24.303678      115.82304      115.91726      115.88585    
   4970000   299.86702      0.94717119     1.4573608     -23500.062     -23.333973     -10.989119      38.695173      115.89832      115.9926       115.96117    
   4980000   300.00149      0.94892956     1.8490679     -23655.047      32.959953      9.9156484     -37.328398      115.82669      115.92091      115.8895     
   4990000   300.12133      0.94836735    -0.82634495    -23427.163      8.8333397      13.474908     -24.787282      115.84957      115.94381      115.9124     
   5000000   300.42         0.9463937      0.66715609    -23430.282     -31.206684     -38.418732      71.626885      115.93005      116.02436      115.99292    
   5010000   299.96068      0.9479752     -0.2773625     -23453.404     -0.35015967    -4.4295414      3.9476135      115.86554      115.9598       115.92838    
   5020000   300.47506      0.94906151     0.29090581    -23604.861     -12.8354       -20.834115      34.542233      115.82132      115.91554      115.88413    
   5030000   299.45682      0.94608414    -0.62767186    -23597.797      4.8877096     -3.1209738     -3.6497514      115.94269      116.03701      116.00557    
   5040000   300.5543       0.94867859     2.6295102     -23574.028     -8.5065823      31.916893     -15.52178       115.8369       115.93113      115.89972    
   5050000   300.05201      0.95047628    -1.5080309     -23650.573     -14.554435     -13.588124      23.618466      115.76383      115.858        115.82661    
   5060000   299.67968      0.95038272    -0.31750947    -23873.555      33.138766     -39.507716      5.4164215      115.76762      115.8618       115.83041    
   5070000   299.54181      0.94885509     2.6838819     -23699.239      53.395128      0.49892247    -45.842405      115.82972      115.92395      115.89254    
   5080000   299.8794       0.95001412    -1.2146348     -23756.635      43.651719      4.8702607     -52.165884      115.78259      115.87678      115.84539    
   5090000   299.76149      0.94977065     0.9057076     -23663.108     -18.586452      65.374056     -44.070482      115.79249      115.88668      115.85528    
   5100000   300.0845       0.94963103    -1.1804335     -23638.984      7.7220738     -13.066854      1.80348        115.79816      115.89236      115.86096    
   5110000   299.43876      0.94675595    -0.32483174    -23560.857     -12.834327     -43.617014      55.476846      115.91526      116.00956      115.97813    
   5120000   299.95603      0.9503713     -0.089524739   -23708.378      5.2780417      46.310513     -51.857129      115.76809      115.86226      115.83087    
   5130000   299.9923       0.95134264     0.33416476    -23755.727     -4.0686023      27.612177     -22.541081      115.72867      115.82282      115.79144    
   5140000   300.0326       0.94888291    -0.73610646    -23622.138     -15.595047     -22.919628      36.306356      115.82859      115.92281      115.8914     
   5150000   299.28182      0.94928547     3.1308997     -23622.322     -38.430371      27.706651      20.11642       115.81221      115.90642      115.87502    
   5160000   299.29582      0.94692667     0.40302533    -23632.602     -9.5648975      40.817825     -30.043852      115.90829      116.00259      115.97116    
   5170000   300.23439      0.94776262     1.125862      -23489.686     -13.415446     -4.7604877      21.55352       115.87421      115.96847      115.93705    
   5180000   300.28751      0.94882783    -1.5148333     -23594.305     -58.895651      40.097492      14.253659      115.83083      115.92506      115.89365    
   5190000   299.59978      0.94803394     1.5186817     -23586.336     -25.041531      66.187899     -36.590323      115.86315      115.95741      115.92599    
   5200000   300.69071      0.94934389     2.0795299     -23574.367      10.664647      2.7562836     -7.1823406      115.80984      115.90405      115.87264    
   5210000   300.14847      0.94618746    -1.1304297     -23490.152      56.327776     -20.679072     -39.039992      115.93847      116.03279      116.00135    
   5220000   300.13664      0.94930429     0.15374874    -23602.803      10.873546     -12.060538      1.6482383      115.81145      115.90566      115.87425    
   5230000   300.12007      0.95191884     2.8790223     -23855.938      71.50126      -15.359447     -47.504746      115.70532      115.79944      115.76807    
   5240000   299.79626      0.95002867     1.2284493     -23516.669     -13.038962      25.362815     -8.638505       115.782        115.87619      115.8448     
   5250000   300.04106      0.94899101    -0.03706043    -23551.677      1.3297715      17.961837     -19.40279       115.82419      115.91841      115.887      
   5260000   300.28591      0.94762434     3.7927646     -23444.858      7.1792748      4.5547248     -0.35570567     115.87984      115.97411      115.94269    
   5270000   300.8823       0.95079876    -1.9467114     -23614.361      9.3296517     -15.672657      0.50287117     115.75074      115.8449       115.81351    
   5280000   300.34326      0.946833      -0.25152665    -23481.351     -30.936802     -8.9908775      39.173099      115.91212      116.00641      115.97498    
   5290000   300.04577      0.94715258    -0.073282307   -23494.837     -30.188211      3.7796532      26.188711      115.89908      115.99336      115.96193    
   5300000   299.4451       0.94739674    -1.6231898     -23475.464      17.052717     -5.3660524     -16.556234      115.88912      115.9834       115.95197    
   5310000   299.66968      0.94795994     0.43480511    -23522.591      45.872066     -43.110823     -1.456828       115.86617      115.96042      115.929      
   5320000   300.42164      0.94785296     1.1013493     -23538.09      -29.505517      18.377688      14.431877      115.87052      115.96478      115.93336    
   5330000   299.98303      0.9457999     -2.1964803     -23427.688      11.172147     -19.349319      1.5877311      115.9543       116.04863      116.01719    
   5340000   300.52132      0.94886965    -0.65078226    -23719.749     -24.654812     -21.386905      44.089371      115.82913      115.92335      115.89194    
   5350000   298.50288      0.9471104     -0.06332458    -23567.629      60.03918       12.910063     -73.139217      115.9008       115.99508      115.96366    
   5360000   300.58411      0.94770073     0.65154323    -23501.983      37.753441      1.8052422     -37.604054      115.87673      115.97099      115.93957    
   5370000   299.05461      0.9487209      1.7333734     -23648.21       9.4777191     -29.928385      25.650786      115.83518      115.92941      115.898      
   5380000   300.81599      0.94858136    -2.6360853     -23611.422     -75.19313       72.934612     -5.6497382      115.84086      115.93509      115.90368    
   5390000   300.30881      0.94819019    -2.2563582     -23470.223     -63.140471     -0.63169882     57.003095      115.85679      115.95104      115.91962    
   5400000   300.18009      0.95026394     2.3731477     -23595.55      -8.5958398      43.844481     -28.129198      115.77245      115.86663      115.83523    
   5410000   300.6405       0.94888575     0.4761762     -23626.261     -22.007125     -29.684768      53.120422      115.82847      115.9227       115.89129    
   5420000   299.02474      0.94913226    -0.1608361     -23574.378     -24.091546      19.286073      4.3229645      115.81844      115.91266      115.88125    
   5430000   299.66421      0.94965638     1.174617      -23644.076     -40.575714      35.074014      9.0255516      115.79713      115.89133      115.85993    
   5440000   300.22747      0.94558681    -2.9362388     -23512.185      16.916945     -9.2603653     -16.465296      115.96301      116.05735      116.0259     
   5450000   301.55001      0.94860591     1.8499095     -23465.773      0.3837522     -15.00316       20.169136      115.83986      115.93409      115.90268    
   5460000   300.42447      0.94987652     1.3231805     -23563.233      70.466026      0.68867107    -67.185155      115.78818      115.88238      115.85098    
   5470000   300.09892      0.94806278     0.062256572   -23573.913      39.107792      34.167795     -73.088817      115.86198      115.95623      115.92481    
   5480000   300.14002      0.94816951    -0.66557417    -23551.799      2.7670496      33.612627     -38.3764        115.85763      115.95188      115.92046    
   5490000   299.5662       0.95051316     1.1511872     -23527.752      4.0784339     -40.372968      39.748096      115.76233      115.8565       115.82511    
   5500000   299.61553      0.95033118     0.57892538    -23597.15       9.3373925      62.831679     -70.432295      115.76972      115.8639       115.8325     
   5510000   299.89176      0.94842277     0.46173843    -23649.22       38.810589     -16.601856     -20.823517      115.84732      115.94156      115.91014    
   5520000   300.0523       0.94682977    -0.49907415    -23583.099      31.23387      -49.098808      16.367716      115.91225      116.00654      115.97511    
   5530000   300.49525      0.94741848     1.2104305     -23693.367      34.903321     -32.34582       1.0737902      115.88823      115.98251      115.95108    
   5540000   299.98951      0.94736988     0.37310686    -23476.928      40.992191     -36.856069     -3.0168009      115.89022      115.98449      115.95307    
   5550000   298.76956      0.9482726      0.7398478     -23583.857      40.522752      33.365832     -71.66904       115.85343      115.94768      115.91626    
   5560000   299.78838      0.94702464     0.95374607    -23454.521      48.516574     -42.261666     -3.3936698      115.9043       115.99859      115.96716    
   5570000   299.15835      0.95021357     1.0454112     -23726.087      18.950394     -9.941074      -5.8730863      115.77449      115.86868      115.83728    
   5580000   301.09892      0.9499022      3.0497168     -23573.19       41.628812     -35.051374      2.5717125      115.78714      115.88133      115.84994    
   5590000   301.76662      0.94880133     0.2637849     -23653.295     -23.445898     -20.581332      44.818585      115.83191      115.92613      115.89473    
   5600000   300.37121      0.94882554     0.062471998   -23598.977     -77.768645      51.035278      26.920783      115.83092      115.92515      115.89374    
   5610000   300.65895      0.94999585    -0.46196058    -23756.592      15.615154      28.675381     -45.676418      115.78334      115.87753      115.84613    
   5620000   300.87421      0.94767652    -0.093289933   -23382.124      69.190727     -65.04109      -4.4295072      115.87772      115.97198      115.94056    
   5630000   300.17746      0.94807185    -1.3893912     -23572.737     -66.551748     -9.1284628      71.512038      115.86161      115.95586      115.92444    
   5640000   300.17264      0.94999872    -1.5239941     -23571.174     -33.259425      25.496183      3.1912598      115.78322      115.87741      115.84601    
   5650000   299.55285      0.95232596     4.8853865     -23749.531     -14.83039       15.362456      14.124094      115.68883      115.78294      115.75157    
   5660000   299.96209      0.94672913    -0.42882918    -23381.22      -23.224399      15.296559      6.6413522      115.91636      116.01065      115.97922    
   5670000   300.42701      0.94858367     0.23741089    -23658.24       8.6353428      11.894628     -19.817738      115.84076      115.935        115.90359    
   5680000   300.19611      0.94980441     0.43192313    -23775.512     -22.012014      53.088955     -29.781172      115.79112      115.88531      115.85391    
   5690000   300.50107      0.94705273     0.028486331   -23383.261      18.875186     -23.958221      5.1684941      115.90315      115.99744      115.96601    
   5700000   300.41059      0.94897221     0.42753623    -23501.294      27.61073      -19.396151     -6.9319704      115.82495      115.91918      115.88777    
   5710000   299.90146      0.94884407     0.53916571    -23587.787     -15.550363      21.737161     -4.569301       115.83017      115.92439      115.89298    
   5720000   300.39706      0.94763067     1.992507      -23565.623     -10.123635      35.589211     -19.488054      115.87958      115.97385      115.94243    
   5730000   299.3956       0.94613312    -2.0337206     -23387.756     -18.596261     -18.004024      30.499123      115.94069      116.03501      116.00357    
   5740000   299.35169      0.94773974     0.96064413    -23647.334     -54.620431      29.019274      28.483089      115.87514      115.9694       115.93798    
   5750000   299.49525      0.9459604     -0.6830206     -23391.863     -10.356714     -13.691599      21.99925       115.94775      116.04207      116.01063    
   5760000   300.23624      0.9480966     -2.2146959     -23656.057      46.071226     -30.349452     -22.365862      115.8606       115.95485      115.92343    
   5770000   299.65007      0.94666974    -0.79429104    -23608.298      4.8083461      2.2732196     -9.4644388      115.91878      116.01308      115.98165    
   5780000   300.35616      0.94821359    -0.25588559    -23715.509      9.3323054      7.334641      -17.434603      115.85583      115.95008      115.91867    
   5790000   299.82157      0.94964144     0.92717454    -23725.637     -15.634446     -6.0243225      24.440292      115.79774      115.89194      115.86054    
   5800000   300.56559      0.95126691     0.46798613    -23676.103      85.182346     -24.609277     -59.169111      115.73174      115.82589      115.79451    
   5810000   300.60041      0.94959628     0.75600005    -23782.513     -63.905678      40.205469      25.968209      115.79957      115.89378      115.86238    
   5820000   299.89913      0.9479736      1.5712854     -23625.708     -19.099931     -4.265304       28.079091      115.86561      115.95987      115.92845    
   5830000   300.03195      0.95055243     2.2771642     -23633.174      15.184098      29.717077     -38.069683      115.76073      115.85491      115.82351    
   5840000   300.15101      0.9479214      2.2995124     -23557.977     -22.565067      34.846639     -5.3830348      115.86774      115.96199      115.93057    
   5850000   300.69086      0.94733966    -0.09674279    -23645.086      1.6828032      35.30133      -37.274362      115.89145      115.98573      115.9543     
   5860000   301.30494      0.94706471    -0.82613405    -23592.518      24.658533     -1.2682317     -25.868703      115.90266      115.99695      115.96552    
   5870000   299.66068      0.94803494    -0.19495335    -23613.284     -19.173323      10.412848      8.1756154      115.86311      115.95736      115.92595    
   5880000   299.8989       0.94903562    -1.0118834     -23574.915     -5.967965      -29.734414      32.666729      115.82237      115.91659      115.88519    
   5890000   299.69411      0.94515945    -1.649079      -23413.569      37.479459     -75.463974      33.037278      115.98049      116.07484      116.04339    
   5900000   300.1788       0.95019783    -0.01638931    -23510.87       26.292852     -3.4290448     -22.912975      115.77513      115.86932      115.83792    
   5910000   300.09199      0.94796673    -0.38839881    -23530.724     -29.186764      37.518237     -9.4966693      115.86589      115.96015      115.92873    
   5920000   300.93926      0.94799879     0.32560731    -23605.964      17.045436     -13.288332     -2.7802821      115.86458      115.95884      115.92742    
   5930000   300.34563      0.94936172     1.3450401     -23726.148     -8.9911765     -9.3797994      22.406096      115.80911      115.90332      115.87192    
   5940000   299.6997       0.94710384    -2.5695392     -23492.816     -37.175155      25.752729      3.7138086      115.90107      115.99535      115.96392    
   5950000   299.75623      0.94581413    -0.42660048    -23518.322      14.566086      15.037175     -30.883063      115.95372      116.04805      116.01661    
   5960000   299.90025      0.94707583    -0.99938761    -23589.342      18.703002     -3.4181509     -18.283014      115.90221      115.99649      115.96507    
   5970000   299.51688      0.94939792     0.56999355    -23587.941      16.947009     -11.75338      -3.4836486      115.80764      115.90185      115.87044    
   5980000   299.44094      0.95069675     0.2657128     -23619.765     -23.187218      26.723983     -2.7396266      115.75488      115.84904      115.81765    
   5990000   299.02817      0.95050101    -0.85824575    -23610.458     -5.5703177      50.846082     -47.850502      115.76282      115.85699      115.8256     
   6000000   300.17156      0.94794645    -0.54684354    -23599.741     -19.891204      3.8123044      14.438369      115.86672      115.96097      115.92955    
   6000864   300.18539      0.94812915     0.22390023    -23473.654     -135.84949      48.876829      87.644361      115.85927      115.95352      115.92211    
Loop time of 2233.53 on 16 procs for 5000000 steps with 12350 atoms

Performance: 193.416 ns/day, 0.124 hours/ns, 2238.606 timesteps/s, 27.647 Matom-step/s
97.6% CPU use with 16 MPI tasks x no OpenMP threads

MPI task timing breakdown:
Section |  min time  |  avg time  |  max time  |%varavg| %total
---------------------------------------------------------------
Pair    | 846.9      | 887.95     | 919.33     |  71.6 | 39.76
Bond    | 334.08     | 346.69     | 354.64     |  31.2 | 15.52
Neigh   | 96.302     | 96.346     | 96.4       |   0.3 |  4.31
Comm    | 442.73     | 482.75     | 534.66     | 122.2 | 21.61
Output  | 3.032      | 3.8172     | 4.6412     |  25.6 |  0.17
Modify  | 370.51     | 374.63     | 379        |  12.5 | 16.77
Other   |            | 41.35      |            |       |  1.85

Nlocal:        771.875 ave         793 max         756 min
Histogram: 2 1 2 2 3 3 1 1 0 1
Nghost:        2295.06 ave        2322 max        2267 min
Histogram: 1 2 2 1 1 0 6 0 2 1
Neighs:        26026.2 ave       27314 max       24977 min
Histogram: 2 0 3 2 2 3 2 1 0 1

Total # of neighbors = 416420
Ave neighs/atom = 33.718219
Ave special neighs/atom = 5.76
Neighbor list builds = 88947
Dangerous builds = 0
unfix               3
undump              min
unfix               minp

write_data          pdms_50_nvt_relaxation.data
System init for write_data ...
Generated 0 of 0 mixed pair_coeff terms from geometric mixing rule
# -----------------------------------------------------
# 5. npt下拉伸
# -----------------------------------------------------
# 计算应力
reset_timestep      0
timestep            1
compute             slabpressperatom slabs stress/atom NULL
compute             2 slabs reduce sum c_slabpressperatom[1] c_slabpressperatom[2]
variable            CorVol equal 30*30*30
variable            slabsigmaxx equal c_2[1]/(v_CorVol*10)
compute             3 all reduce sum c_pressperatom[1] c_pressperatom[2]
variable            sigmaxx equal c_3[1]/(vol*10)
# 计算应变值
variable            tmp equal "lx"
variable            L0 equal ${tmp}
variable            L0 equal 115.859272598862
variable            strain equal "(lx - v_L0)/v_L0"
#dump输出
dump                1 all custom 100000 dump.pdms.lammpstrj id type x y z vx vy vz v_pxxperatom v_pyyperatom v_pzzperatom v_Pxxpairperatom v_Pyypairperatom v_Pzzpairperatom v_Pxxbondperatom v_Pyybondperatom v_Pzzbondperatom v_Pxxangleperatom v_Pyyangleperatom v_Pzzangleperatom v_Pxxdihedralperatom v_Pyydihedralperatom v_Pzzdihedralperatom c_peperatom c_Epairperatom c_Ebondperatom c_Eangleperatom c_Edihedralperatom
# 设置npt系综
fix                 1 all npt temp 300 300 50 y 0 0 2000 z 0 0 2000 drag 2
# deform拉伸，x方向
fix                 2 all deform 1 x erate 1e-7 units box remap x
# 热力学输出
# fix                 ave_sxx all ave/time 100 100 10000 v_strain v_sigmaxx v_px file stress_profile.dat ave one
# fix                 ave_sxx2 all ave/time 1000 200 200000 v_strain v_sigmaxx v_px file stress_profile2.dat ave one
# fix                 ave_sxx3 all ave/time 200 1000 200000 v_strain v_sigmaxx v_px file stress_profile3.dat ave one
# fix                 ave_sxx4 all ave/time 1000 1000 1000000 v_strain v_sigmaxx v_px file stress_profile4.dat ave one
fix                 origin all print 100 "${strain} ${sigmaxx} ${etotal}" file origin100.txt screen no
# thermo_style        custom step temp v_strain v_sigmaxx density press pxx pyy pzz lx ly lz etotal
thermo_style        custom step temp density etotal ebond eangle edihed epair v_strain v_sigmaxx press pxx pyy pzz lx ly lz
thermo              10000

# 启动模拟，n步
run                 3#000000
Generated 0 of 0 mixed pair_coeff terms from geometric mixing rule
Per MPI rank memory allocation (min/avg/max) = 15.08 | 15.23 | 15.55 Mbytes
   Step          Temp         Density         TotEng         E_bond        E_angle        E_dihed         E_pair        v_strain      v_sigmaxx        Press           Pxx            Pyy            Pzz             Lx             Ly             Lz      
         0   300.18539      0.94812915    -23473.654      3801.6492      5065.7781      2166.1564     -45557.069     -3.3117166e-15  13.584949      0.22390023    -135.84949      48.876829      87.644361      115.85927      115.95352      115.92211    
         3   300.25915      0.94812842    -23473.643      3800.6536      5064.3689      2166.1805     -45557.392      3e-07          13.515227      0.75270643    -135.15227      49.266873      88.14352       115.85931      115.95354      115.92214    
Loop time of 0.00149725 on 16 procs for 3 steps with 12350 atoms

Performance: 173.118 ns/day, 0.139 hours/ns, 2003.677 timesteps/s, 24.745 Matom-step/s
100.1% CPU use with 16 MPI tasks x no OpenMP threads

MPI task timing breakdown:
Section |  min time  |  avg time  |  max time  |%varavg| %total
---------------------------------------------------------------
Pair    | 0.00068294 | 0.0007117  | 0.00073209 |   0.0 | 47.53
Bond    | 0.00019242 | 0.0002106  | 0.00025124 |   0.0 | 14.07
Neigh   | 0          | 0          | 0          |   0.0 |  0.00
Comm    | 0.00013892 | 0.0002008  | 0.00023415 |   0.0 | 13.41
Output  | 0.00016856 | 0.0001703  | 0.0001896  |   0.0 | 11.37
Modify  | 0.00014463 | 0.0001519  | 0.0001639  |   0.0 | 10.15
Other   |            | 5.196e-05  |            |       |  3.47

Nlocal:        771.875 ave         793 max         755 min
Histogram: 3 1 1 0 3 4 2 1 0 1
Nghost:         2294.5 ave        2318 max        2267 min
Histogram: 2 1 1 1 2 0 3 3 1 2
Neighs:        26014.6 ave       27287 max       24927 min
Histogram: 2 0 2 3 1 3 3 1 0 1

Total # of neighbors = 416233
Ave neighs/atom = 33.703077
Ave special neighs/atom = 5.76
Neighbor list builds = 0
Dangerous builds = 0
Total wall time: 0:44:42
