units               real
dimension           3
boundary            p p p
atom_style          full

# 读取包含PDMS分子结构的data文件
read_data           bad_pdms_50_box_nvt.data
Reading data file ...
  orthogonal box = (-2.699997 -2.594002 -2.75) to (181.7 181.956 181.75)
  2 by 4 by 2 MPI processor grid
  reading atoms ...
  12350 atoms
  scanning bonds ...
  1 = max bonds/atom
  scanning angles ...
  1 = max angles/atom
  scanning dihedrals ...
  1 = max dihedrals/atom
  orthogonal box = (-2.699997 -2.594002 -2.75) to (181.7 181.956 181.75)
  2 by 4 by 2 MPI processor grid
  reading bonds ...
  12103 bonds
  reading angles ...
  11856 angles
  reading dihedrals ...
  11609 dihedrals
Finding 1-2 1-3 1-4 neighbors ...
  special bond factors lj:    0        0        0       
  special bond factors coul:  0        0        0       
     2 = max # of 1-2 neighbors
     2 = max # of 1-3 neighbors
     4 = max # of 1-4 neighbors
     6 = max # of special neighbors
  special bonds CPU = 0.002 seconds
  read_data CPU = 0.101 seconds
mass                1 72
# -----------------------------------------------------
# 2. 力场参数设置（Martini 3参数）
# -----------------------------------------------------
# 定义非键相互作用（示例：Lennard-Jones势，截断距离可参考Martini 3常用取值）
pair_style lj/cut   12.0
special_bonds       lj 0.0 0.0 0.5
Finding 1-2 1-3 1-4 neighbors ...
  special bond factors lj:    0        0        0.5     
  special bond factors coul:  0        0        0       
     2 = max # of 1-2 neighbors
     2 = max # of 1-3 neighbors
     4 = max # of 1-4 neighbors
     6 = max # of special neighbors
  special bonds CPU = 0.001 seconds
pair_coeff          1 1 0.7337 5.1
# 定义键、角、二面角势（示例参数，实际参数请参考相关文献）
bond_style          harmonic
bond_coeff          1 13.243 4.48
angle_style         harmonic
angle_coeff         1 5.48 86.0
dihedral_style      harmonic
dihedral_coeff      1 0.3346  1  1
# -----------------------------------------------------
# 3. 邻域列表设置
# -----------------------------------------------------
neigh_modify        one 1000
neighbor            1 bin
neigh_modify        delay 0 every 1 check yes

# -----------------------------------------------------
# 4. 能量最小化与预平衡
# -----------------------------------------------------
minimize            1.0e-4 1.0e-6 10000 100000

CITE-CITE-CITE-CITE-CITE-CITE-CITE-CITE-CITE-CITE-CITE-CITE-CITE

Your simulation uses code contributions which should be cited:

- Type Label Framework: https://doi.org/10.1021/acs.jpcb.3c08419

@Article{Gissinger24,
 author = {Jacob R. Gissinger, Ilia Nikiforov, Yaser Afshar, Brendon Waters, Moon-ki Choi, Daniel S. Karls, Alexander Stukowski, Wonpil Im, Hendrik Heinz, Axel Kohlmeyer, and Ellad B. Tadmor},
 title = {Type Label Framework for Bonded Force Fields in LAMMPS},
 journal = {J. Phys. Chem. B},
 year =    2024,
 volume =  128,
 number =  13,
 pages =   {3282–-3297}
}

CITE-CITE-CITE-CITE-CITE-CITE-CITE-CITE-CITE-CITE-CITE-CITE-CITE

Generated 0 of 0 mixed pair_coeff terms from geometric mixing rule
Neighbor list info ...
  update: every = 1 steps, delay = 0 steps, check = yes
  max neighbors/atom: 1000, page size: 100000
  master list distance cutoff = 13
  ghost atom cutoff = 13
  binsize = 6.5, bins = 29 29 29
  1 neighbor lists, perpetual/occasional/extra = 1 0 0
  (1) pair lj/cut, perpetual
      attributes: half, newton on
      pair build: half/bin/newton
      stencil: half/bin/3d
      bin: standard
Per MPI rank memory allocation (min/avg/max) = 8.28 | 8.366 | 8.79 Mbytes
   Step          Temp          E_pair         E_mol          TotEng         Press     
         0   0              12362163       8080.9318      12370244       547701.99    
       864   0             -33201.439      4728.3822     -28473.057     -88.004302    
Loop time of 0.465542 on 16 procs for 864 steps with 12350 atoms

95.6% CPU use with 16 MPI tasks x no OpenMP threads

Minimization stats:
  Stopping criterion = energy tolerance
  Energy initial, next-to-last, final = 
      12370244.3955073   -28470.390358934  -28473.0572160329
  Force two-norm initial, final = 2189056.9 11.10734
  Force max component initial, final = 115970.56 3.7283548
  Final line search alpha, max atom move = 0.030740086 0.11460995
  Iterations, force evaluations = 864 886

MPI task timing breakdown:
Section |  min time  |  avg time  |  max time  |%varavg| %total
---------------------------------------------------------------
Pair    | 0.028392   | 0.10467    | 0.21648    |  17.6 | 22.48
Bond    | 0.013586   | 0.042241   | 0.072629   |   8.1 |  9.07
Neigh   | 0.11016    | 0.11202    | 0.11364    |   0.3 | 24.06
Comm    | 0.034493   | 0.1596     | 0.27354    |  16.9 | 34.28
Output  | 0          | 0          | 0          |   0.0 |  0.00
Modify  | 0          | 0          | 0          |   0.0 |  0.00
Other   |            | 0.04702    |            |       | 10.10

Nlocal:        771.875 ave        1385 max         252 min
Histogram: 2 2 2 1 2 1 3 1 1 1
Nghost:        1045.06 ave        1694 max         531 min
Histogram: 2 5 1 0 0 1 1 3 2 1
Neighs:        15575.7 ave       32627 max        4696 min
Histogram: 4 2 2 1 0 2 2 2 0 1

Total # of neighbors = 249211
Ave neighs/atom = 20.179028
Ave special neighs/atom = 5.76
Neighbor list builds = 114
Dangerous builds = 0
velocity            all create 300 4928459
region              slab block 75 105 75 105 75 105 units box
group               slabs dynamic all region slab every 100
dynamic group slabs defined
variable            nslab equal count(slabs)
variable            step equal step
variable            pxx  equal pxx
variable            pyy  equal pyy
variable            pzz  equal pzz
variable            etotal equal etotal
compute             pressperatom all stress/atom NULL
compute             Ppairperatom all stress/atom NULL pair
compute             Pbondperatom all stress/atom NULL bond
compute             Pangleperatom all stress/atom NULL angle
compute             Pdihedralperatom all stress/atom NULL dihedral
compute             peperatom all pe/atom
compute             Epairperatom all pe/atom pair
compute             Ebondperatom all pe/atom bond
compute             Eangleperatom all pe/atom angle
compute             Edihedralperatom all pe/atom dihedral
variable            pxxperatom atom c_pressperatom[1]
variable            pyyperatom atom c_pressperatom[2]
variable            pzzperatom atom c_pressperatom[3]
variable            Pxxpairperatom atom c_Ppairperatom[1]
variable            Pyypairperatom atom c_Ppairperatom[2]
variable            Pzzpairperatom atom c_Ppairperatom[3]
variable            Pxxbondperatom atom c_Pbondperatom[1]
variable            Pyybondperatom atom c_Pbondperatom[2]
variable            Pzzbondperatom atom c_Pbondperatom[3]
variable            Pxxangleperatom atom c_Pangleperatom[1]
variable            Pyyangleperatom atom c_Pangleperatom[2]
variable            Pzzangleperatom atom c_Pangleperatom[3]
variable            Pxxdihedralperatom atom c_Pdihedralperatom[1]
variable            Pyydihedralperatom atom c_Pdihedralperatom[2]
variable            Pzzdihedralperatom atom c_Pdihedralperatom[3]
variable            NA equal 6.02214076e23
variable            dens equal "12350 * 72 / v_NA / (vol / 1e24)"  # 计算整体密度，单位g/cm3
variable            slabdens equal "v_nslab * 72 / v_NA / (30 * 30 * 30 / 1e24)"  # 计算slab密度，单位g/cm3
# npt系综下驰豫
dump                min all custom 10000 dump.pdms_min.lammpstrj id type x y z vx vy vz v_pxxperatom v_pyyperatom v_pzzperatom v_Pxxpairperatom v_Pyypairperatom v_Pzzpairperatom v_Pxxbondperatom v_Pyybondperatom v_Pzzbondperatom v_Pxxangleperatom v_Pyyangleperatom v_Pzzangleperatom v_Pxxdihedralperatom v_Pyydihedralperatom v_Pzzdihedralperatom c_peperatom c_Epairperatom c_Ebondperatom c_Eangleperatom c_Edihedralperatom
fix                 minp all print 1 "${step} ${pxx} ${pyy} ${pzz}" file minp100.txt screen no
fix                 1 all npt temp 300 600 10 iso 0 0 500 drag 2
thermo_style        custom step temp density press etotal pxx pyy pzz lx ly lz
thermo              10000
run                 500000
Generated 0 of 0 mixed pair_coeff terms from geometric mixing rule
Per MPI rank memory allocation (min/avg/max) = 10.66 | 10.77 | 11.17 Mbytes
   Step          Temp         Density         Press          TotEng          Pxx            Pyy            Pzz             Lx             Ly             Lz      
       864   300            0.23516744    -7.6056313     -17430.05      -8.9861015     -3.5045957     -10.326197      184.39999      184.55         184.5        
     10000   305.7396       0.35037738    -3.5874685     -13142.758     -7.2991057      9.6924861     -13.155786      161.4512       161.58254      161.53876    
     20000   311.23588      0.39126709     1.4839699     -15660.336      5.2029066     -0.61111063    -0.13988618     155.61885      155.74544      155.70324    
     30000   317.54155      0.39889251    -5.5079028     -16290.211     -11.017159      0.41177809    -5.918328       154.62083      154.74661      154.70469    
     40000   322.9371       0.39338913    -2.515718      -16224.894      10.797809     -16.438455     -1.9065086      155.33853      155.46489      155.42277    
     50000   328.19668      0.39004699    -2.0648467     -15860.894     -2.9533867     -16.408474      13.16732       155.78094      155.90767      155.86542    
     60000   335.12749      0.38517453     0.57717212    -15074.372      9.2571006     -2.3494658     -5.1761185      156.43507      156.56233      156.51991    
     70000   341.31465      0.38554595    -2.095874      -14795.836      2.0180586     -6.690375      -1.6153056      156.38482      156.51203      156.46963    
     80000   347.15153      0.3862757      0.1677027     -14425.4        4.0460654     -13.654944      10.111987      156.28627      156.41341      156.37103    
     90000   352.90917      0.38722757     3.6429448     -13855.775      21.802316     -1.6766807     -9.1968008      156.15811      156.28514      156.2428     
    100000   358.38137      0.3899553     -0.0043322803  -13444.205      31.854332     -23.683035     -8.184294       155.79315      155.91989      155.87764    
    110000   364.13385      0.39605997     1.4322457     -12613.96       8.8761176     -0.9111737     -3.6682066      154.98856      155.11464      155.07262    
    120000   372.96707      0.40663838    -5.0997042     -12252.841      4.7984771      8.0223706     -28.11996       153.63276      153.75774      153.71608    
    130000   378.37426      0.42345082     2.4484646     -11584.061      2.3407163     -4.1114069      9.1160845      151.572        151.6953       151.6542     
    140000   383.08036      0.44623931    -1.2432956     -11301.119     -24.54092       1.0531217      19.757912      148.94663      149.0678       149.02741    
    150000   389.44543      0.47500674    -1.9166412     -10631.528     -32.45262       31.442573     -4.7398771      145.87696      145.99563      145.95607    
    160000   396.09563      0.52762632    -9.4953289     -10708.928     -1.7636059     -28.930299      2.2079186      140.8568       140.97138      140.93319    
    170000   402.19837      0.57972498    -9.3952174     -10181.29      -3.8102344     -8.2184609     -16.156957      136.50418      136.61523      136.57821    
    180000   407.19168      0.62937279     3.2672616     -9937.4707      16.956391     -30.23356       23.078954      132.81608      132.92412      132.88811    
    190000   411.90054      0.68784512     0.088475874   -9795.7701     -56.682745      48.77319       8.1749832      128.94062      129.04551      129.01055    
    200000   418.62762      0.72689315     3.6674109     -9776.0939     -35.46987       21.516618      24.955485      126.58914      126.69212      126.65779    
    210000   425.84832      0.74961791    -3.9941273     -9543.4884      0.098999006    40.060272     -52.141653      125.2968       125.39873      125.36475    
    220000   432.58535      0.76550481    -10.246638     -8845.7599     -23.650763     -13.696543      6.6073915      124.42395      124.52517      124.49143    
    230000   436.40986      0.77942124     1.249373      -8503.0937      25.820857      39.48167      -61.554408      123.67898      123.77959      123.74605    
    240000   442.58957      0.80230936     1.6966494     -8148.5173     -72.266066      53.995328      23.360686      122.49152      122.59116      122.55795    
    250000   450.23824      0.82072112    -5.2448945     -8075.3648      8.0349778      18.256903     -42.026564      121.5686       121.6675       121.63453    
    260000   454.68393      0.83269218     6.5731973     -7503.6738      30.474237      1.983259      -12.737904      120.98322      121.08164      121.04883    
    270000   462.64588      0.83259335    -12.345033     -6733.1678      5.446867      -47.727094      5.2451298      120.98801      121.08643      121.05362    
    280000   465.35198      0.84288355     8.3778555     -6839.9645     -7.5994834      68.483757     -35.750707      120.49363      120.59166      120.55898    
    290000   473.64816      0.84142582    -6.6497962     -5877.3435     -20.960361     -42.815184      43.826156      120.56318      120.66126      120.62856    
    300000   478.47003      0.84606781    -5.492073      -5491.2722      10.877147      13.535425     -40.888791      120.34228      120.44018      120.40755    
    310000   486.70683      0.8488617     -11.772669     -4979.937       67.462485     -57.80402      -44.976472      120.21011      120.3079       120.2753     
    320000   492.86026      0.85077933     8.8370454     -4661.3158      0.56394193     68.533071     -42.585877      120.11972      120.21744      120.18487    
    330000   496.68028      0.84361052    -3.8288217     -4022.1203     -5.5392273      21.879586     -27.826824      120.45901      120.55701      120.52434    
    340000   502.12597      0.84119778     8.3770521     -3157.6914      7.8495103     -14.019818      31.301464      120.57407      120.67216      120.63946    
    350000   510.50006      0.84732428    -1.7231078     -2921.2718     -13.505088      0.17632054     8.1594445      120.28277      120.38062      120.348      
    360000   515.39085      0.84090153    -16.342671     -2259.3657     -47.751157      38.474327     -39.751183      120.58823      120.68633      120.65363    
    370000   522.67883      0.8385578      2.5268321     -1619.2354      4.8972091     -11.462665      14.145952      120.70047      120.79866      120.76593    
    380000   528.91681      0.83898034    -4.2151973     -1199.7375      22.840437     -33.637802     -1.8482269      120.6802       120.77838      120.74565    
    390000   531.73235      0.83392331     7.4692012     -877.1674       37.6349        2.4690447     -17.696341      120.92365      121.02202      120.98923    
    400000   538.60537      0.82815496    -0.95353076    -79.012543      6.6576941     -1.7973322     -7.7209541      121.20376      121.30236      121.26949    
    410000   545.8734       0.82706735    -4.0439866      574.11766      21.105693      12.470683     -45.708335      121.25687      121.35551      121.32263    
    420000   552.66725      0.82339329    -22.082691      1185.1446      29.603346     -36.387275     -59.464143      121.43695      121.53574      121.50281    
    430000   557.94481      0.82194684     4.363321       1825.7012     -18.288186     -8.4404257      39.818575      121.50814      121.60699      121.57404    
    440000   564.47631      0.81601335     0.851313       2418.4621      17.605242     -35.570564      20.519261      121.80194      121.90103      121.868      
    450000   566.95937      0.81156624     10.054186      3122.4764     -28.926914      44.802572      14.286901      122.02401      122.12328      122.09019    
    460000   576.70857      0.81185921    -15.999558      3325.7121     -40.283875     -13.707506      5.9927078      122.00933      122.10859      122.0755     
    470000   580.14997      0.80377115     0.8285937      4276.9996      4.439817      -44.463069      42.509033      122.41721      122.5168       122.4836     
    480000   587.93288      0.80496733    -10.253175      4503.2846     -37.235125      17.317221     -10.84162       122.35655      122.45608      122.4229     
    490000   593.19797      0.79925551    -4.3885623      5190.7121      69.475324     -22.490229     -60.150782      122.64733      122.7471       122.71384    
    500000   601.13323      0.79846366    -5.9673347      5641.4855      5.696282       5.9091755     -29.507462      122.68786      122.78766      122.75439    
    500864   600.59651      0.79545652    -7.9650835      5475.1213     -18.167238     -29.443899      23.715887      122.84226      122.9422       122.90889    
Loop time of 235.745 on 16 procs for 500000 steps with 12350 atoms

Performance: 183.249 ns/day, 0.131 hours/ns, 2120.940 timesteps/s, 26.194 Matom-step/s
96.9% CPU use with 16 MPI tasks x no OpenMP threads

MPI task timing breakdown:
Section |  min time  |  avg time  |  max time  |%varavg| %total
---------------------------------------------------------------
Pair    | 49.114     | 75.856     | 97.634     | 188.9 | 32.18
Bond    | 22.917     | 34.114     | 41.746     | 105.2 | 14.47
Neigh   | 12.544     | 12.58      | 12.614     |   0.6 |  5.34
Comm    | 42.112     | 68.636     | 105.43     | 244.8 | 29.11
Output  | 0.35279    | 0.44046    | 0.52855    |   8.2 |  0.19
Modify  | 37.031     | 39.387     | 43.696     |  41.2 | 16.71
Other   |            | 4.73       |            |       |  2.01

Nlocal:        771.875 ave         790 max         752 min
Histogram: 3 1 0 1 2 2 1 2 2 2
Nghost:        2116.06 ave        2172 max        2076 min
Histogram: 2 0 4 2 2 2 2 1 0 1
Neighs:        21765.3 ave       22792 max       20859 min
Histogram: 2 1 2 2 1 3 1 2 1 1

Total # of neighbors = 348245
Ave neighs/atom = 28.197976
Ave special neighs/atom = 5.76
Neighbor list builds = 11097
Dangerous builds = 0
unfix               1

fix                 2 all npt temp 600 300 10 iso 0 0 500 drag 2
thermo_style        custom step temp density press etotal pxx pyy pzz lx ly lz
thermo              10000
run                 500000
Generated 0 of 0 mixed pair_coeff terms from geometric mixing rule
Per MPI rank memory allocation (min/avg/max) = 18.47 | 18.63 | 18.95 Mbytes
   Step          Temp         Density         Press          TotEng          Pxx            Pyy            Pzz             Lx             Ly             Lz      
    500864   600.59651      0.79545652    -7.9650835      5475.1213     -18.167238     -29.443899      23.715887      122.84226      122.9422       122.90889    
    510000   594.38183      0.80170894    -3.2135668      5231.3895     -57.233434      66.159485     -18.566752      122.52209      122.62176      122.58854    
    520000   587.66636      0.80029599    -22.816796      4761.5881     -46.629917     -13.275768     -8.5447033      122.59415      122.69388      122.66064    
    530000   582.836        0.80673331    -16.986775      4249.9488     -64.407851      17.481945     -4.0344207      122.2672       122.36666      122.33351    
    540000   575.86346      0.81119389    -5.4429397      3714.1204     -39.169511      74.532037     -51.691345      122.04268      122.14196      122.10887    
    550000   571.63128      0.81170543     6.8062947      3262.4559     -15.335293     -8.0909319      43.845109      122.01704      122.1163       122.08321    
    560000   564.22616      0.82216063     1.981021       2033.8557      31.603753     -42.229719      16.56903       121.49761      121.59645      121.5635     
    570000   559.97064      0.81856638     12.744447      2133.1303      22.348094     -43.569421      59.454669      121.67518      121.77416      121.74117    
    580000   549.70811      0.82207807     30.920567      1554.4325      40.04841       50.243304      2.4699868      121.50168      121.60052      121.56757    
    590000   546.20155      0.82731288    -10.667136      874.13159      33.580991     -29.862259     -35.720141      121.24487      121.3435       121.31062    
    600000   541.07563      0.82843875     13.732196      343.17488      19.358803      11.66309       10.174696      121.18992      121.28851      121.25564    
    610000   535.13615      0.82852587    -10.736665      18.23319      -3.6503307      11.731355     -40.291018      121.18567      121.28426      121.25139    
    620000   528.09934      0.83684065     1.9701852     -780.90258      2.860845       32.19284      -29.143129      120.78297      120.88123      120.84848    
    630000   524.5511       0.83621492    -9.5786941     -1315.9916     -10.109187     -71.726543      53.099649      120.81309      120.91137      120.87861    
    640000   516.04053      0.83918375     2.3392176     -1842.6725     -16.625223      8.757222       14.885654      120.67045      120.76862      120.7359     
    650000   509.69262      0.84388124     3.389762      -2535.0562     -12.576359      51.431807     -28.686162      120.44613      120.54411      120.51145    
    660000   504.21003      0.84312391    -21.60327      -2916.1091     -42.085766     -31.605672      8.8816268      120.48218      120.5802       120.54752    
    670000   498.73791      0.85165885     2.4342324     -3666.2879     -27.518587      29.352685      5.4685995      120.07836      120.17604      120.14348    
    680000   492.86958      0.85423828     14.528311     -4210.2386     -16.19181       8.9637334      50.813009      119.95738      120.05496      120.02243    
    690000   486.53788      0.85631177    -17.924558     -4847.0259     -46.567882     -62.459925      55.254132      119.86047      119.95798      119.92548    
    700000   481.68041      0.8578395     -18.753701     -5350.9173     -11.97393      -54.257157      9.9699848      119.78928      119.88673      119.85424    
    710000   474.79469      0.85866351    -11.35726      -5857.2833      20.803755     -55.135709      0.26017528     119.75095      119.84837      119.81589    
    720000   468.28735      0.86298558     3.7450696     -6387.994       85.477997     -80.623665      6.3808773      119.5507       119.64795      119.61553    
    730000   462.28117      0.86712046    -20.167094     -7128.3935     -28.695607     -36.014844      4.209168       119.36037      119.45747      119.4251     
    740000   456.18718      0.8693361     -17.929289     -7737.8352     -51.044821      16.985396     -19.728443      119.25888      119.3559       119.32356    
    750000   449.24835      0.87513196    -1.3890786     -8220.0058      33.657152     -90.626963      52.802575      118.99502      119.09182      119.05955    
    760000   444.8232       0.87874851    -3.4056504     -8861.76        61.746047     -0.95071716    -71.012281      118.83155      118.92822      118.896      
    770000   437.85602      0.87683496     6.789121      -9122.2744     -36.898812      3.4595548      53.806621      118.91793      119.01467      118.98242    
    780000   432.19022      0.88534801     5.2700723     -10210.419      10.554861     -5.17246        10.427816      118.53555      118.63198      118.59984    
    790000   427.29161      0.88809879     7.0670846     -10692.391      0.16769688    -10.417039      31.450596      118.41304      118.50937      118.47726    
    800000   421.37878      0.88837368    -2.5226438     -11189.097     -18.522461      61.165443     -50.210913      118.40083      118.49715      118.46504    
    810000   414.61663      0.88565541    -11.093911     -11313.002     -30.825427     -38.409702      35.953395      118.52184      118.61825      118.58611    
    820000   408.05344      0.89183471    -9.3196309     -12293.616     -36.310425      43.524541     -35.173009      118.24747      118.34366      118.31159    
    830000   401.56971      0.89650633    -1.7444855     -12630.524      63.950155     -39.264026     -29.919585      118.04171      118.13774      118.10573    
    840000   395.51319      0.89739682    -17.483633     -13351.426     -53.665005     -0.41857439     1.6326795      118.00266      118.09865      118.06665    
    850000   391.01792      0.90175957    -10.795881     -14080.7       -5.00992       -26.610193     -0.76753021     117.81205      117.90789      117.87594    
    860000   386.08513      0.9075282      1.5065691     -14702.782     -16.644503      8.5026145      12.661596      117.5619       117.65753      117.62566    
    870000   378.63331      0.91063942     3.9796487     -15376.593      2.2377328     -8.6827076      18.383921      117.42786      117.52339      117.49155    
    880000   372.88065      0.91235657     2.5149248     -15905.266     -12.193317      42.362066     -22.623975      117.35414      117.44961      117.41779    
    890000   367.77273      0.91453277     0.68084356    -16717.124     -26.291648      45.548113     -17.213935      117.26099      117.35638      117.32458    
    900000   360.08261      0.92126024     0.11962612    -17400.444      49.094483     -90.483976      41.748371      116.97486      117.07002      117.0383     
    910000   354.53174      0.92264532    -2.2342664     -17619.836      20.024445     -1.4061645     -25.32108       116.91629      117.0114       116.9797     
    920000   347.64422      0.9249421     -3.3482715     -18292.078      59.028799     -33.897492     -35.176122      116.81944      116.91447      116.88279    
    930000   343.00886      0.92415863    -13.444123     -18905.056     -7.4735131      6.5955285     -39.454385      116.85244      116.9475       116.91581    
    940000   336.35551      0.93019012     9.1395962     -19536.512      30.386754      34.686385     -37.654351      116.59933      116.69418      116.66257    
    950000   330.33168      0.93229092    -5.6173663     -19976.972     -8.4427565     -16.910438      8.5010953      116.51168      116.60647      116.57487    
    960000   324.51895      0.93392802     8.0942029     -20797.124     -17.438214      46.028299     -4.3074761      116.44357      116.53829      116.50672    
    970000   318.8314       0.93792595    -4.935784      -21533.942      8.0077841     -8.8444156     -13.97072       116.27788      116.37247      116.34094    
    980000   311.94613      0.9407095      9.329384      -21837.559      43.808367     -31.476589      15.656374      116.16308      116.25758      116.22608    
    990000   307.23732      0.94276959    -13.967902     -22661.009     -28.325003     -24.090274      10.51157       116.07841      116.17284      116.14136    
   1000000   300.78038      0.94737722    -12.113856     -23360.439      7.3109808     -48.30065       4.6481029      115.88992      115.98419      115.95277    
   1000864   300.38967      0.94943117     5.2797955     -23459.237      26.53037      -42.722713      32.031729      115.80629      115.90049      115.86909    
Loop time of 214.754 on 16 procs for 500000 steps with 12350 atoms

Performance: 201.160 ns/day, 0.119 hours/ns, 2328.242 timesteps/s, 28.754 Matom-step/s
97.4% CPU use with 16 MPI tasks x no OpenMP threads

MPI task timing breakdown:
Section |  min time  |  avg time  |  max time  |%varavg| %total
---------------------------------------------------------------
Pair    | 75.937     | 80.074     | 85.48      |  27.8 | 37.29
Bond    | 32.836     | 34.249     | 36.382     |  15.8 | 15.95
Neigh   | 10.981     | 10.992     | 11         |   0.2 |  5.12
Comm    | 40.019     | 47.682     | 53.29      |  50.7 | 22.20
Output  | 0.3012     | 0.38654    | 0.47056    |   8.4 |  0.18
Modify  | 36.565     | 37.206     | 37.875     |   6.2 | 17.33
Other   |            | 4.166      |            |       |  1.94

Nlocal:        771.875 ave         789 max         755 min
Histogram: 2 0 1 3 2 2 2 2 1 1
Nghost:        2300.94 ave        2321 max        2278 min
Histogram: 1 1 1 1 3 3 1 3 0 2
Neighs:        26056.9 ave       26957 max       25324 min
Histogram: 1 1 2 3 2 3 3 0 0 1

Total # of neighbors = 416910
Ave neighs/atom = 33.757895
Ave special neighs/atom = 5.76
Neighbor list builds = 10908
Dangerous builds = 0
unfix               2

fix                 3 all npt temp 300 300 10 iso 0 0 10 drag 2
thermo_style        custom step temp density press etotal pxx pyy pzz lx ly lz
thermo              10000
run                 5000000
Generated 0 of 0 mixed pair_coeff terms from geometric mixing rule
Per MPI rank memory allocation (min/avg/max) = 18.48 | 18.63 | 18.95 Mbytes
   Step          Temp         Density         Press          TotEng          Pxx            Pyy            Pzz             Lx             Ly             Lz      
   1000864   300.38967      0.94943117     5.2797955     -23459.237      26.53037      -42.722713      32.031729      115.80629      115.90049      115.86909    
   1010000   300.4367       0.94919361    -0.028952392   -23566.502     -5.0196423     -10.581645      15.51443       115.81595      115.91016      115.87876    
   1020000   300.30958      0.95004676    -0.022073913   -23472.872     -3.6504027      27.134504     -23.550323      115.78127      115.87546      115.84406    
   1030000   300.5995       0.94978098     0.060031491   -23463.766     -10.119804      38.161849     -27.86195       115.79207      115.88626      115.85486    
   1040000   299.8671       0.94581107     0.094973341   -23265.406      18.795336     -32.834069      14.323653      115.95385      116.04818      116.01673    
   1050000   300.80288      0.95043756    -0.027835552   -23659.386      54.038969     -38.216388     -15.906089      115.7654       115.85957      115.82818    
   1060000   299.73122      0.94719904     0.22411565    -23506.981      1.8100976     -24.003678      22.865927      115.89718      115.99147      115.96004    
   1070000   299.21702      0.94866285     0.10306388    -23549.403      25.641746     -10.043131     -15.289424      115.83754      115.93178      115.90036    
   1080000   300.06507      0.94871509    -0.075215254   -23667.757     -39.189076      41.538696     -2.5752656      115.83542      115.92965      115.89824    
   1090000   299.46178      0.94816622     0.017350621   -23577.049     -1.0075919     -10.865485      11.925129      115.85776      115.95201      115.9206     
   1100000   298.9401       0.94924795     0.039121793   -23582.968      12.447151     -23.317476      10.98769       115.81374      115.90795      115.87655    
   1110000   300.41856      0.948852      -0.065584052   -23628.8        14.422553      22.821145     -37.440451      115.82984      115.92407      115.89266    
   1120000   299.00725      0.94618316    -0.14812215    -23244.583      36.695754     -26.503001     -10.63712       115.93865      116.03296      116.00152    
   1130000   301.02466      0.94917195     0.020209623   -23487.352      57.155803     -49.946085     -7.1490894      115.81683      115.91104      115.87964    
   1140000   299.54717      0.94766169    -0.054671523   -23402.372     -65.757626      5.2288991      60.364712      115.87832      115.97259      115.94116    
   1150000   299.85306      0.95053162    -0.052319444   -23694.492      13.118246      26.010135     -39.285339      115.76158      115.85575      115.82436    
   1160000   300.45284      0.94862781     0.098646441   -23503.3       -19.730461     -7.4726151      27.499015      115.83897      115.9332       115.90179    
   1170000   301.16059      0.94857016     0.066933361   -23314.432     -0.46106937    -24.247762      24.909631      115.84131      115.93555      115.90414    
   1180000   300.25772      0.94958245    -0.027924246   -23599.446     -5.7241258     -0.58782677     6.2281798      115.80014      115.89434      115.86294    
   1190000   300.6914       0.9475504     -0.05393113    -23513.078      1.6531266     -3.5786584      1.7637384      115.88286      115.97713      115.9457     
   1200000   300.40698      0.9512335     -0.10488688    -23511.044     -19.909099      12.774539      6.8198995      115.7331       115.82725      115.79587    
   1210000   299.35915      0.95056687     0.09697869    -23700.701     -24.183427     -14.396846      38.871208      115.76015      115.85432      115.82293    
   1220000   300.40447      0.94803721     0.05898248    -23435.151     -40.253506      55.782115     -15.351661      115.86302      115.95727      115.92585    
   1230000   299.61481      0.94817814    -0.026976117   -23604.97      -20.14139       31.254922     -11.194461      115.85728      115.95153      115.92011    
   1240000   300.94154      0.9504946      0.0077453916  -23603.043      25.121202      8.7411214     -33.839087      115.76308      115.85725      115.82586    
   1250000   299.5344       0.94667734     0.045158771   -23503.813      30.064741     -64.367464      34.4382        115.91847      116.01277      115.98134    
   1260000   299.79663      0.94653299    -0.092688609   -23559.054      13.689922      6.58777       -20.555758      115.92436      116.01867      115.98723    
   1270000   299.16855      0.94805404     0.075743648   -23599.797     -17.757622      19.307004     -1.3221517      115.86233      115.95659      115.92517    
   1280000   300.08277      0.94958333    -0.040012676   -23645.264     -7.6565087      42.652749     -35.116278      115.8001       115.8943       115.8629     
   1290000   299.94689      0.94818799    -0.1553292     -23584.141      31.588552      27.412421     -59.46696       115.85688      115.95113      115.91971    
   1300000   299.01736      0.94754398     0.10028643    -23572.286      15.769543     -53.809015      38.340331      115.88312      115.97739      115.94597    
   1310000   299.83681      0.94982185    -0.18094837    -23772.974      39.687252      36.433327     -76.663423      115.79041      115.8846       115.8532     
   1320000   300.28219      0.94939014     0.037569237   -23709.461      19.351867     -38.638399      19.399239      115.80795      115.90216      115.87076    
   1330000   299.52186      0.95125602    -0.04559568    -23638.115     -36.174114      20.865681      15.171646      115.73219      115.82633      115.79495    
   1340000   298.76913      0.94913326     0.023351523   -23622.953     -10.560333     -17.329066      27.959454      115.8184       115.91262      115.88121    
   1350000   300.02795      0.94772331    -0.12548278    -23716.698     -29.51507      -13.199428      42.33805       115.87581      115.97007      115.93865    
   1360000   299.36692      0.95109945    -0.10231248    -23688.203     -48.693467      9.8367288      38.549801      115.73854      115.83269      115.80131    
   1370000   300.01673      0.94887137     0.031437227   -23529.172      8.8139842     -56.272131      47.552459      115.82906      115.92328      115.89187    
   1380000   300.81487      0.94948841    -0.0019545694  -23781.085      10.500907      24.415884     -34.922655      115.80396      115.89817      115.86676    
   1390000   300.47787      0.94835574    -0.077301367   -23569.593     -15.097766     -51.634565      66.500427      115.85004      115.94429      115.91287    
   1400000   299.88376      0.94944697     0.086982223   -23716.214     -9.9953003      21.740319     -11.484072      115.80564      115.89985      115.86845    
   1410000   300.28034      0.94932982     0.053916155   -23473.268     -33.692914     -8.1635816      42.018244      115.81041      115.90462      115.87322    
   1420000   299.51698      0.94957216    -0.13890097    -23666.12      -51.394454      16.097347      34.880405      115.80055      115.89476      115.86336    
   1430000   299.91732      0.94757962    -0.024528305   -23442.378      35.399774     -38.755689      3.2823301      115.88167      115.97593      115.94451    
   1440000   300.96824      0.95070832    -0.0060671046  -23646.352     -16.607993     -4.9479254      21.537717      115.75441      115.84857      115.81718    
   1450000   300.18068      0.94851652    -0.20699677    -23520.386      26.699482      26.236571     -53.557043      115.8435       115.93774      115.90632    
   1460000   299.30603      0.94686761     0.018455861   -23558.028     -13.2019       -16.828188      30.085456      115.9107       116.005        115.97357    
   1470000   300.65354      0.94713427    -0.024301934   -23405.648     -15.751705     -17.23464       32.913439      115.89983      115.99411      115.96268    
   1480000   300.47177      0.95026205    -0.13536664    -23852.553     -22.911183     -0.31196671     22.81705       115.77252      115.8667       115.83531    
   1490000   299.00685      0.95028343    -0.12154326    -23834.747     -14.351765      52.794403     -38.807267      115.77166      115.86584      115.83444    
   1500000   299.9108       0.94861195    -0.15269329    -23531.116     -11.549311      18.732394     -7.6411631      115.83961      115.93385      115.90244    
   1510000   299.43193      0.94603533    -0.035885856   -23353.39      -52.789526      28.430303      24.251565      115.94469      116.03901      116.00757    
   1520000   299.85107      0.94898452     0.17974614    -23547.958      6.8129975     -4.7725483     -1.5012107      115.82445      115.91868      115.88727    
   1530000   300.52504      0.94575651     0.038154882   -23439.285     -14.504165     -29.126555      43.745185      115.95608      116.05041      116.01896    
   1540000   299.99288      0.95005717    -0.012774594   -23733.41       17.145327     -29.342057      12.158406      115.78085      115.87503      115.84364    
   1550000   299.59694      0.94937806     0.1220236     -23779.078     -35.429255     -0.37548402     36.170809      115.80845      115.90266      115.87125    
   1560000   300.38228      0.94771566    -0.095207552   -23671.39      -16.482331      29.973296     -13.776588      115.87612      115.97038      115.93896    
   1570000   299.77132      0.94855293    -0.036427015   -23671.985      22.473772     -43.001793      20.41874       115.84202      115.93625      115.90484    
   1580000   299.81015      0.94629741     0.017835431   -23655.94      -24.820063     -8.1343669      33.007936      115.93398      116.02829      115.99685    
   1590000   300.13408      0.94507999    -0.017938083   -23465.697     -42.305516      58.648731     -16.397029      115.98374      116.07809      116.04664    
   1600000   300.17959      0.9494204     -0.023211295   -23535.93      -48.271935      39.329242      8.873059       115.80672      115.90093      115.86953    
   1610000   300.52774      0.95037229    -0.02298207    -23744.739     -46.82453       4.5062669      42.249316      115.76805      115.86222      115.83083    
   1620000   300.04154      0.94804074     0.025926728   -23627.988     -36.081517     -19.417491      55.576788      115.86287      115.95713      115.92571    
   1630000   300.95522      0.94765927     0.049006028   -23553.379     -26.466323      34.547065     -7.9337239      115.87842      115.97269      115.94126    
   1640000   300.27925      0.94911014    -0.010816543   -23451.672     -40.234622      37.597566      2.6046059      115.81934      115.91356      115.88215    
   1650000   300.65085      0.94973499    -0.097911461   -23713.931      3.3144915      20.561919     -24.170145      115.79394      115.88813      115.85674    
   1660000   299.18781      0.94929482     0.047671572   -23576.841      30.564122      33.485892     -63.906999      115.81183      115.90604      115.87464    
   1670000   300.68537      0.94732791     0.10351165    -23492.916      20.252997     -14.995027     -4.9474347      115.89193      115.98621      115.95478    
   1680000   300.92586      0.94932121     0.091925725   -23611.904      37.001448     -40.951366      4.2256956      115.81076      115.90497      115.87357    
   1690000   301.17832      0.94840012     0.008588602   -23593.724     -16.196326      11.099042      5.1230493      115.84824      115.94248      115.91107    
   1700000   299.29821      0.9502289     -0.11583608    -23487.518      32.22375      -17.96379      -14.607468      115.77387      115.86805      115.83666    
   1710000   300.67483      0.95043308    -0.098559963   -23572.351      7.8697071      2.4259715     -10.591358      115.76558      115.85975      115.82836    
   1720000   299.13372      0.95189985    -0.048388479   -23835.066     -33.386818     -39.254414      72.496067      115.70609      115.80021      115.76884    
   1730000   300.73818      0.94741291    -0.10817386    -23619.729      27.083211      5.3644728     -32.772205      115.88846      115.98274      115.95131    
   1740000   299.96012      0.9487054     -0.090520724   -23717.775      9.7490767     -54.192547      44.171908      115.83581      115.93004      115.89863    
   1750000   299.072        0.95066426    -0.09421932    -23676.374     -12.438847      43.648948     -31.492759      115.75619      115.85036      115.81897    
   1760000   299.55451      0.94880243     0.10275555    -23515.915     -5.8454003     -28.229398      34.383065      115.83186      115.92609      115.89468    
   1770000   300.17957      0.94769577    -0.1755322     -23635.104      17.878571      19.67977      -38.084938      115.87693      115.9712       115.93977    
   1780000   299.51726      0.94854079    -0.045374736   -23545.657      29.736957     -19.171384     -10.701698      115.84251      115.93675      115.90534    
   1790000   299.46163      0.94875378     0.018859078   -23567.999     -13.470727      36.472703     -22.945399      115.83384      115.92807      115.89666    
   1800000   300.5303       0.94749466    -0.14406611    -23626.361      3.5893389      13.614057     -17.635594      115.88513      115.9794       115.94798    
   1810000   300.86956      0.94967198    -0.051494751   -23716.922      26.652506     -1.4984435     -25.308546      115.7965       115.8907       115.8593     
   1820000   300.25392      0.95084169     0.039971371   -23644.085     -23.312738      46.069645     -22.636993      115.74899      115.84316      115.81177    
   1830000   299.34883      0.94814683     0.011822131   -23420.748      4.0987424     -9.9817309      5.9184549      115.85855      115.9528       115.92139    
   1840000   300.36365      0.94676212    -0.018003574   -23284.499     -16.270967      20.717585     -4.5006282      115.91501      116.00931      115.97787    
   1850000   300.32063      0.94794019    -0.05272938    -23531.641     -9.0157584      71.929417     -63.071847      115.86697      115.96123      115.92981    
   1860000   299.82544      0.94564525    -0.07391128    -23492.517     -10.442813      33.166585     -22.945506      115.96063      116.05496      116.02351    
   1870000   300.23008      0.95047386    -0.16050255    -23596.199      21.895937     -27.712403      5.3349581      115.76392      115.8581       115.82671    
   1880000   300.014        0.95028406    -0.018842842   -23719.418      28.522801     -29.89843       1.3191013      115.77163      115.86581      115.83442    
   1890000   300.40265      0.9477858      0.030979968   -23643.173     -29.137614      32.845862     -3.6153074      115.87326      115.96752      115.9361     
   1900000   299.91106      0.94911527     0.13980793    -23587.469      40.769082     -28.191746     -12.157912      115.81913      115.91335      115.88195    
   1910000   300.05529      0.94937825     0.052075581   -23635.319     -36.584824      14.460518      22.280533      115.80844      115.90265      115.87124    
   1920000   300.14862      0.9459698      0.11604736    -23632.843      30.160693     -13.116025     -16.696526      115.94736      116.04169      116.01024    
   1930000   300.18573      0.95116172    -0.06618213    -23739.775      20.954164     -6.8267043     -14.326006      115.73601      115.83016      115.79878    
   1940000   300.20894      0.94988988    -0.15606903    -23710.304      45.505867     -45.347191     -0.62688332     115.78764      115.88184      115.85044    
   1950000   300.33147      0.94899733     0.0060076811  -23758.994     -36.458855      2.0963005      34.380578      115.82393      115.91815      115.88675    
   1960000   300.09022      0.94779407    -0.036676933   -23466.584      5.5080924     -6.8969966      1.2788733      115.87292      115.96719      115.93577    
   1970000   299.40566      0.94872274    -0.13984056    -23594.666     -15.424095      22.904661     -7.9000874      115.8351       115.92934      115.89793    
   1980000   299.64169      0.95040338    -0.0017822473  -23783.316     -69.620481      87.160355     -17.545221      115.76678      115.86096      115.82957    
   1990000   299.97123      0.94743356     0.02809555    -23460.395     -13.500646      27.392639     -13.807707      115.88762      115.98189      115.95047    
   2000000   299.87148      0.9486374     -0.23656781    -23729.737     -15.712254      61.580008     -46.577457      115.83858      115.93281      115.9014     
   2010000   299.94471      0.94845885     0.071890218   -23578.13       6.1057782     -29.618683      23.728575      115.84585      115.94009      115.90867    
   2020000   299.89104      0.9510622      0.076167703   -23700.62       14.292382     -20.694415      6.6305367      115.74005      115.8342       115.80282    
   2030000   299.96102      0.94830138    -0.054994613   -23566.801      36.019466      25.679265     -61.863714      115.85226      115.9465       115.91509    
   2040000   300.26807      0.94661262    -0.0038173167  -23491.206      6.8205807     -9.0460938      2.2140612      115.92111      116.01541      115.98398    
   2050000   300.04854      0.94500116     0.052950844   -23430.6        38.844306     -48.405683      9.7202295      115.98696      116.08132      116.04987    
   2060000   300.40058      0.94977106    -0.010521685   -23556.969      3.2054831      9.5201353     -12.757183      115.79247      115.88667      115.85527    
   2070000   300.19602      0.94645421    -0.10686154    -23596.987     -29.340704      8.7678957      20.252224      115.92758      116.02188      115.99045    
   2080000   300.0897       0.95043131    -0.014687643   -23557.255     -54.749668      38.25374       16.451865      115.76565      115.85983      115.82843    
   2090000   299.84086      0.94878198    -0.013450303   -23400.541     -54.091623      35.253279      18.797994      115.83269      115.92692      115.89551    
   2100000   300.98075      0.95088863    -0.075880236   -23600.079      24.728899      34.056892     -59.013432      115.74709      115.84125      115.80986    
   2110000   299.51022      0.94974585    -0.029468743   -23605.045     -32.119813      84.703864     -52.672458      115.79349      115.88769      115.85629    
   2120000   300.98358      0.9472971     -0.082931047   -23426.39       2.1101559      13.452516     -15.811465      115.89318      115.98746      115.95604    
   2130000   300.12975      0.94720758    -0.031735278   -23553.033     -24.952173      31.525611     -6.668644       115.89683      115.99112      115.95969    
   2140000   300.52794      0.94981903     0.025349757   -23756.933     -0.28443442    -42.541616      42.9021        115.79052      115.88472      115.85332    
   2150000   298.93782      0.94949748     0.073799956   -23596.423      43.880018      3.1966849     -46.855303      115.80359      115.8978       115.86639    
   2160000   299.9984       0.94870377     0.058070775   -23369.603      2.3547928     -4.5236271      2.3430467      115.83588      115.93011      115.8987     
   2170000   300.41434      0.94831235    -0.011355096   -23504.965     -33.513708     -1.1055741      34.585217      115.85181      115.94606      115.91464    
   2180000   300.25928      0.95114608    -0.014445673   -23674.738      11.92717      -6.6051177     -5.3653889      115.73665      115.8308       115.79941    
   2190000   300.33212      0.94886437    -0.10986217    -23565.335      30.041577     -2.5899222     -27.781241      115.82934      115.92357      115.89216    
   2200000   300.46007      0.94902825    -0.20348778    -23441.339      5.3519507      9.019716      -14.98213       115.82267      115.91689      115.88549    
   2210000   299.15974      0.94685703     0.01125355    -23495.922     -33.061521     -1.5963312      34.691613      115.91114      116.00543      115.974      
   2220000   299.60958      0.94898355    -0.10229329    -23441.369     -30.315902      61.833617     -31.824594      115.82449      115.91871      115.88731    
   2230000   299.84763      0.94848481    -0.0087597019  -23527.059      6.9859745      10.747863     -17.760116      115.84479      115.93903      115.90762    
   2240000   299.80956      0.94859753     0.085158072   -23404.062     -10.910444      25.674223     -14.508305      115.8402       115.93444      115.90302    
   2250000   299.871        0.94687131     0.012010943   -23535.601     -50.592695      75.997597     -25.368869      115.91055      116.00485      115.97341    
   2260000   300.44021      0.94897123     0.0053666993  -23775.692      0.47160241     9.8826072     -10.338109      115.82499      115.91922      115.88781    
   2270000   299.83609      0.9493631     -0.041724316   -23457.109     -15.392463      27.800684     -12.533394      115.80905      115.90326      115.87186    
   2280000   299.17354      0.95286855    -0.01963259    -23757.741      30.998994     -3.3911055     -27.666786      115.66687      115.76096      115.7296     
   2290000   300.83848      0.94929655    -0.11629216    -23552.676     -17.006071      3.1937057      13.463489      115.81176      115.90597      115.87457    
   2300000   299.53928      0.9498777     -0.11254513    -23579.631     -19.253138      25.360276     -6.4447733      115.78814      115.88233      115.85093    
   2310000   300.57344      0.94916204     0.084174359   -23595.527      34.996214      22.768771     -57.512462      115.81723      115.91145      115.88004    
   2320000   300.74874      0.94890473     0.030412046   -23480.174     -73.703093      82.316888     -8.5225586      115.8277       115.92192      115.89052    
   2330000   301.10805      0.94788789     0.012528091   -23609.89      -12.088356      27.242152     -15.116211      115.8691       115.96336      115.93194    
   2340000   300.47378      0.94624697    -0.042084075   -23521.811     -15.263471      39.132139     -23.99492       115.93604      116.03035      115.99892    
   2350000   300.41396      0.94783254    -0.073368075   -23486.123      34.179782      11.877179     -46.277065      115.87136      115.96562      115.9342     
   2360000   300.52666      0.94663841     0.12756158    -23475.161      6.6031534      32.839159     -39.059628      115.92006      116.01436      115.98293    
   2370000   299.56602      0.94797593     0.056896354   -23438.019      29.160193     -36.191967      7.2024631      115.86551      115.95977      115.92835    
   2380000   301.3525       0.95026242     0.040100454   -23743.654     -50.531404     -1.0931406      51.744846      115.77251      115.86669      115.8353     
   2390000   301.03181      0.94950595     0.073103835   -23686.428      34.167127     -20.15174      -13.796076      115.80325      115.89745      115.86605    
   2400000   300.24546      0.94799063    -0.014985242   -23567.852     -28.885039     -11.679923      40.520006      115.86492      115.95917      115.92775    
   2410000   299.8588       0.94881948    -0.046017983   -23635.661      21.183195     -2.2207978     -19.100451      115.83117      115.9254       115.89399    
   2420000   299.66605      0.9470963     -0.05050562    -23567.441      43.04569      -56.826926      13.629719      115.90137      115.99566      115.96423    
   2430000   299.28651      0.94744995     0.023607895   -23496.479     -36.512984     -33.930146      70.513954      115.88695      115.98123      115.9498     
   2440000   299.40034      0.94946657    -0.13841293    -23446.524     -8.6857622     -3.067037       11.33756       115.80485      115.89905      115.86765    
   2450000   300.25029      0.94886911    -0.11753442    -23661.265      8.1886644      20.671386     -29.212654      115.82915      115.92337      115.89197    
   2460000   298.93077      0.94708129    -0.21432973    -23594.148     -38.314003     -24.224886      61.8959        115.90199      115.99627      115.96484    
   2470000   299.80043      0.94779857    -0.078177556   -23603.022     -15.296539     -15.202209      30.264215      115.87274      115.967        115.93558    
   2480000   300.23167      0.94851547    -0.051313792   -23608.565      26.108499     -24.333519     -1.9289218      115.84354      115.93778      115.90637    
   2490000   298.6898       0.94927063    -0.00061099868 -23545.849     -8.1104321      0.14830088     7.9602982      115.81281      115.90703      115.87562    
   2500000   299.7484       0.94766796    -0.1943597     -23472.417      3.0035462     -8.5526497      4.9660245      115.87806      115.97233      115.94091    
   2510000   300.02692      0.94605581    -0.22622199    -23429.896     -42.5025        1.3653688      40.458465      115.94385      116.03817      116.00673    
   2520000   299.92854      0.94989085    -0.023731401   -23688.295      46.059371      3.8058479     -49.936414      115.7876       115.8818       115.8504     
   2530000   299.56142      0.95050384    -0.12123619    -23707.839      28.850904     -42.736978      13.522366      115.76271      115.85688      115.82549    
   2540000   299.96024      0.95217176     0.016650143   -23816.563      19.508984     -7.9201301     -11.538903      115.69507      115.78919      115.75782    
   2550000   299.21666      0.95035864    -0.081748111   -23793.796     -5.4721911     -5.343004       10.569951      115.7686       115.86278      115.83139    
   2560000   299.9148       0.94967422    -0.066797137   -23626.298      40.423348      8.0745502     -48.698289      115.79641      115.89061      115.85921    
   2570000   300.42565      0.94827184    -0.021082656   -23628.673     -16.048141     -5.8433121      21.828205      115.85346      115.94771      115.91629    
   2580000   299.77127      0.9502387      0.063389237   -23744.489      9.9290536      17.767377     -27.506263      115.77347      115.86765      115.83626    
   2590000   299.76799      0.94908387     0.051708978   -23630.064      2.6824848     -36.151717      33.624359      115.82041      115.91463      115.88322    
   2600000   299.54817      0.94990259    -0.08314956    -23658.252      24.644705     -50.342907      25.448753      115.78713      115.88132      115.84992    
   2610000   300.31343      0.94837716    -0.0092343453  -23709.916      2.2646238      44.712127     -47.004454      115.84917      115.94342      115.912      
   2620000   299.31624      0.94844102    -0.13060922    -23604.707      21.487853     -36.86634       14.98666       115.84657      115.94081      115.9094     
   2630000   299.96909      0.95085289     0.043507736   -23600.24       8.9780111      25.328464     -34.175952      115.74854      115.8427       115.81131    
   2640000   300.26602      0.94875164    -0.13575145    -23730.785      0.67883348    -1.7468903      0.66080243     115.83393      115.92816      115.89675    
   2650000   300.57959      0.94590873    -0.061010151   -23531.641      52.925246     -23.333344     -29.774933      115.94986      116.04418      116.01274    
   2660000   299.10311      0.94938636     0.0014854329  -23659.631      34.954067     -62.970381      28.020771      115.80811      115.90232      115.87091    
   2670000   300.55735      0.95025746    -0.021344978   -23495.599      6.0188526     -27.350451      21.267563      115.77271      115.86689      115.8355     
   2680000   299.97548      0.95006578    -0.04237971    -23627.354     -5.4005442      43.259864     -37.986459      115.7805       115.87468      115.84329    
   2690000   300.19058      0.94515406    -0.1134228     -23432.746     -11.505917      34.336176     -23.170527      115.98071      116.07506      116.04361    
   2700000   301.52986      0.94588718    -0.1541406     -23628.152     -4.9567303     -16.025446      20.519755      115.95074      116.04506      116.01362    
   2710000   300.77383      0.94776327    -0.0046829712  -23590.763      18.179896      3.2297444     -21.423689      115.87418      115.96844      115.93702    
   2720000   300.49723      0.94960108    -0.05483644    -23666.696      3.1225325     -19.51028       16.223238      115.79938      115.89358      115.86218    
   2730000   299.97053      0.9498465     -0.058118975   -23712.524      28.856644     -14.922689     -14.108312      115.7894       115.8836       115.8522     
   2740000   299.86459      0.94724194    -0.093042134   -23565.756      31.550609     -12.013575     -19.816161      115.89543      115.98971      115.95829    
   2750000   299.91059      0.945793      -0.17918042    -23622.823      56.596613     -24.178012     -32.956142      115.95459      116.04892      116.01747    
   2760000   299.86443      0.94735258     0.030425936   -23473.799      64.710469     -24.639585     -39.979606      115.89092      115.9852       115.95377    
   2770000   300.00089      0.94848685    -0.15182061    -23573.331      13.15787       4.4016049     -18.014937      115.84471      115.93895      115.90753    
   2780000   299.3999       0.94458865    -0.087509957   -23564.449      28.8598       -63.10367       33.98134       116.00385      116.09822      116.06676    
   2790000   299.45695      0.94785824     0.078790113   -23690.208      5.1605855     -4.3457923     -0.5784228      115.87031      115.96457      115.93315    
   2800000   299.21742      0.9488037     -0.18873045    -23634.528      38.170377      3.5676518     -42.30422       115.83181      115.92604      115.89463    
   2810000   300.32437      0.94771359    -0.10653179    -23503.728     -23.167127      4.0701824      18.777349      115.8762       115.97047      115.93905    
   2820000   299.38758      0.94867782    -0.04488698    -23528.083     -43.18655       65.64077      -22.58888       115.83693      115.93117      115.89975    
   2830000   300.14778      0.944908      -0.18241585    -23482.004      64.690293     -27.71069      -37.526851      115.99078      116.08513      116.05368    
   2840000   298.90611      0.94549552    -0.022981263   -23307.591     -0.58935224    -6.5046001      7.0250085      115.96675      116.06109      116.02964    
   2850000   299.99882      0.947465      -0.05893977    -23662.08      -7.6396356      19.308455     -11.845639      115.88634      115.98061      115.94919    
   2860000   299.05498      0.94908496    -0.16650421    -23659.317     -27.604539     -11.536308      38.641335      115.82037      115.91459      115.88318    
   2870000   299.73717      0.94655733    -0.015023976   -23634.231      12.692269      23.670389     -36.40773       115.92337      116.01767      115.98624    
   2880000   300.27228      0.94862356    -0.16314514    -23609.012     -13.5779        20.736739     -7.6482749      115.83914      115.93338      115.90196    
   2890000   300.11047      0.94613713    -0.069650646   -23507.754      43.338351     -56.922934      13.375631      115.94053      116.03484      116.0034     
   2900000   300.39734      0.94869885     0.10669065    -23675.464      61.533094      4.3791188     -65.592141      115.83608      115.93031      115.8989     
   2910000   300.93101      0.94984458     0.082270946   -23520.908     -10.641308     -3.8663724      14.754493      115.78948      115.88368      115.85228    
   2920000   300.02374      0.94881371     0.081809736   -23545.99       32.971881      17.320185     -50.046637      115.8314       115.92563      115.89422    
   2930000   299.13039      0.94895231     0.13337807    -23627.623      66.580646     -31.142514     -35.037998      115.82576      115.91999      115.88858    
   2940000   298.47101      0.94968694    -0.11916762    -23788.763      27.167864     -27.137218     -0.38814922     115.79589      115.89009      115.85869    
   2950000   300.07482      0.94710719    -0.025151943   -23457.211      25.669169     -30.386074      4.6414489      115.90093      115.99521      115.96379    
   2960000   300.36842      0.94613746    -0.01425394    -23501.017      31.270346      7.406622      -38.719729      115.94051      116.03483      116.00339    
   2970000   300.12134      0.95127114     0.067531776   -23722.899     -6.9622843      17.624837     -10.459958      115.73157      115.82572      115.79434    
   2980000   299.95545      0.94808761     0.056769555   -23455.163      67.515706     -83.630608      16.285211      115.86096      115.95522      115.9238     
   2990000   299.92268      0.94870366    -0.13860473    -23475.826     -15.28764       22.297299     -7.4254728      115.83588      115.93011      115.8987     
   3000000   300.89268      0.94971493    -0.041747031   -23525.94       35.79418      -26.622151     -9.2972694      115.79475      115.88895      115.85755    
   3010000   300.9336       0.94818673     0.052873901   -23598.358      11.961657     -31.662521      19.859486      115.85693      115.95118      115.91976    
   3020000   299.74935      0.94923165    -0.003284503   -23569.283     -25.45768      -10.318941      35.766768      115.8144       115.90861      115.87721    
   3030000   299.36699      0.94963373     0.0052399678  -23520.823     -47.34758       22.420524      24.942776      115.79805      115.89225      115.86085    
   3040000   300.14185      0.95017644     0.0013243305  -23687.613      3.3103797      2.0247771     -5.3311838      115.776        115.87018      115.83879    
   3050000   300.32743      0.95290346    -0.015580301   -23693.574      18.09667      -27.083066      8.9396551      115.66545      115.75955      115.72818    
   3060000   300.11946      0.95082752    -0.13751484    -23685.784      41.796755     -13.046179     -29.16312       115.74957      115.84373      115.81234    
   3070000   300.48443      0.95058845    -0.016358561   -23658.51      -8.2173509     -13.349445      21.51772       115.75927      115.85344      115.82205    
   3080000   299.78877      0.95027464    -0.055273777   -23809.726      25.749646      1.8247333     -27.740201      115.77201      115.86619      115.8348     
   3090000   300.61094      0.94673383    -0.086743079   -23607.725      18.658533     -48.475763      29.557001      115.91616      116.01046      115.97903    
   3100000   299.72489      0.94830591     0.041737328   -23635.157     -61.392519      54.381492      7.1362396      115.85207      115.94632      115.9149     
   3110000   300.27984      0.94977624    -0.016412849   -23822.929     -45.768882      34.558157      11.161486      115.79226      115.88646      115.85506    
   3120000   300.14392      0.94734941    -0.047940174   -23551.477     -18.595204     -19.293355      37.744739      115.89105      115.98533      115.9539     
   3130000   299.69852      0.9507497     -0.024685344   -23581.592      21.994177     -6.7148559     -15.353377      115.75273      115.84689      115.8155     
   3140000   300.03305      0.94715368    -0.069871576   -23564.985      3.6588264      6.3477177     -10.216159      115.89903      115.99332      115.96189    
   3150000   299.94645      0.94694499    -0.10848922    -23432.87       19.938102     -27.221374      6.9578036      115.90755      116.00184      115.97041    
   3160000   299.51915      0.94926144    -0.18247941    -23520.913      2.0076991      17.596506     -20.151644      115.81319      115.9074       115.876      
   3170000   299.43904      0.94960397    -0.075774041   -23718.289      9.4768721     -6.195855      -3.5083392      115.79926      115.89346      115.86206    
   3180000   300.06934      0.94933766     0.03644162    -23595.686     -32.683165      24.512622      8.2798678      115.81009      115.9043       115.8729     
   3190000   300.73778      0.94575661     0.043625827   -23513.895      24.958434     -70.14226       45.314704      115.95607      116.0504       116.01896    
   3200000   300.18206      0.94839032     0.020151831   -23568.124     -40.038687      32.184556      7.914586       115.84864      115.94288      115.91146    
   3210000   298.95094      0.94861099    -0.016706243   -23620.985     -56.240788      0.47789601     55.712773      115.83965      115.93389      115.90248    
   3220000   299.66573      0.94812214     0.0056530607  -23584.549      23.110156     -34.41651       11.323313      115.85956      115.95381      115.92239    
   3230000   299.81182      0.94807603     0.038910907   -23538.829     -20.552293     -26.064876      46.733902      115.86144      115.95569      115.92427    
   3240000   299.95149      0.9475529     -0.021847127   -23579.812     -31.90505       32.28626      -0.44675131     115.88275      115.97702      115.9456     
   3250000   300.16853      0.94797707    -0.033349197   -23486.548     -46.724169      32.960411      13.66371       115.86547      115.95972      115.92831    
   3260000   299.92298      0.94990562     0.14039523    -23696.415      32.350924      21.619803     -53.549542      115.787        115.8812       115.8498     
   3270000   299.50251      0.95030082    -0.25905009    -23553.645      47.741013     -9.4682066     -39.049957      115.77095      115.86513      115.83374    
   3280000   300.87583      0.94909195     0.043105081   -23675.741      4.4642139      33.779725     -38.114624      115.82008      115.9143       115.88289    
   3290000   300.07632      0.94830653    -0.10462867    -23473.863     -5.7641268     -45.224448      50.674689      115.85205      115.94629      115.91488    
   3300000   300.58956      0.94809219    -0.0074747887  -23533.369     -33.493215      34.254339     -0.78354913     115.86078      115.95503      115.92361    
   3310000   300.25914      0.94861582    -0.0087883704  -23469.554     -3.9691243      2.5344485      1.4083107      115.83946      115.93369      115.90228    
   3320000   300.00061      0.94784923     0.043727107   -23422.047      29.695094      20.756971     -50.320883      115.87068      115.96494      115.93352    
   3330000   300.65211      0.95076051    -0.082494891   -23707.683      7.3593986      42.77106      -50.377943      115.75229      115.84645      115.81506    
   3340000   299.69475      0.94754427    -0.17452573    -23567.564     -2.8147301      11.276752     -8.9855989      115.88311      115.97738      115.94595    
   3350000   300.80398      0.95060684    -0.14975823    -23742.539      21.83333       19.422476     -41.705081      115.75853      115.85269      115.82131    
   3360000   299.80192      0.94701257    -0.061226383   -23554.718      8.3577004     -27.836687      19.295308      115.90479      115.99908      115.96765    
   3370000   300.56167      0.94766309     0.040014933   -23559.582     -4.3404094      12.173483     -7.7130292      115.87826      115.97253      115.94111    
   3380000   299.52792      0.95032432    -0.043865364   -23651.215     -40.486994      19.172233      21.183165      115.77         115.86417      115.83278    
   3390000   299.73513      0.94888857    -0.039634519   -23612.384      10.905224     -2.3224122     -8.7017157      115.82836      115.92258      115.89117    
   3400000   299.99376      0.95091978    -0.062665965   -23680.706     -21.523709      9.0093896      12.326322      115.74583      115.83998      115.8086     
   3410000   300.17141      0.9476359     -0.13243343    -23416.212     -29.431211     -5.8656652      34.899576      115.87937      115.97364      115.94222    
   3420000   299.15726      0.95016421    -0.047350182   -23664.228     -41.321404      31.677942      9.5014112      115.7765       115.87068      115.83929    
   3430000   299.8123       0.94881033    -0.16912269    -23525.536      37.005086      20.404604     -57.917058      115.83154      115.92577      115.89436    
   3440000   300.25737      0.94885607    -0.10088543    -23692.958      31.416061     -4.1735041     -27.545213      115.82968      115.92391      115.8925     
   3450000   299.69746      0.94886312    -0.23056387    -23707.008     -19.708676     -41.432119      60.449104      115.82939      115.92362      115.89221    
   3460000   300.16663      0.94790786    -0.10064791    -23502.091      13.562661     -23.755001      9.8903959      115.86829      115.96255      115.93113    
   3470000   300.08348      0.94794187    -0.13759853    -23713.409     -17.121441      20.87009      -4.1614454      115.8669       115.96116      115.92974    
   3480000   300.45701      0.94612899    -0.021564583   -23481.199     -0.32942478     17.877138     -17.612407      115.94086      116.03518      116.00374    
   3490000   300.65564      0.94876004     0.080345039   -23637.372     -16.127213      12.425454      3.9427937      115.83359      115.92782      115.89641    
   3500000   300.26178      0.94736925     0.026652831   -23562.333      23.422881     -39.709788      16.366865      115.89024      115.98452      115.95309    
   3510000   299.06944      0.94880836    -0.074499195   -23571.436      8.9690969     -28.617179      19.424585      115.83162      115.92585      115.89444    
   3520000   299.43212      0.94929275    -0.10561392    -23568.697     -27.33196       40.04057      -13.025452      115.81192      115.90613      115.87472    
   3530000   299.93374      0.94931723     0.017129095   -23555.739     -11.679802     -20.351578      32.082767      115.81092      115.90513      115.87373    
   3540000   301.51838      0.94855808     0.051769834   -23665.029     -11.427708      21.400218     -9.8172003      115.84181      115.93604      115.90463    
   3550000   300.26204      0.94761368    -0.085493458   -23457.183      11.002279      14.416889     -25.675649      115.88028      115.97455      115.94312    
   3560000   299.87964      0.94811123    -0.047896816   -23480.024     -14.396292     -16.249719      30.50232       115.86         115.95425      115.92284    
   3570000   300.57004      0.95005983     0.064203485   -23620.158     -2.0327077     -5.1126672      7.3379853      115.78074      115.87492      115.84353    
   3580000   299.04448      0.95105035     0.11426364    -23627.197      11.876851     -51.937068      40.403008      115.74053      115.83468      115.8033     
   3590000   299.98552      0.9500996      0.016495944   -23625.204      12.58314      -28.833107      16.299455      115.77912      115.87331      115.84191    
   3600000   299.64807      0.94920336    -0.021814035   -23605.477     -25.736988     -38.141704      63.81325       115.81555      115.90977      115.87836    
   3610000   301.15818      0.94870439    -0.18007047    -23467.452      19.330994     -35.840066      15.968861      115.83585      115.93008      115.89867    
   3620000   300.3768       0.94949142    -0.14059473    -23570.514     -6.5639128     -38.23397       44.376099      115.80384      115.89804      115.86664    
   3630000   300.28089      0.95255408    -0.039713492   -23836.23      -62.425762     -4.3378265      66.644448      115.67959      115.7737       115.74233    
   3640000   299.61543      0.94833679    -0.10459148    -23511.929      42.045912     -60.197889      17.838202      115.85082      115.94506      115.91365    
   3650000   300.0531       0.9483699     -0.036767907   -23660.799     -50.077529     -45.136279      95.103505      115.84947      115.94371      115.9123     
   3660000   300.37583      0.94918785     0.07415428    -23664.14      -10.481488     -26.23342       36.937371      115.81618      115.9104       115.87899    
   3670000   300.21843      0.94552775     0.02329324    -23472.033     -41.785383      10.964181      30.891082      115.96543      116.05977      116.02832    
   3680000   299.28327      0.94984962    -0.0040837354  -23831.693      36.43032      -2.9064982     -33.536073      115.78928      115.88347      115.85207    
   3690000   299.49005      0.94966533    -0.095171831   -23678.858     -64.677763      50.483472      13.908775      115.79677      115.89097      115.85957    
   3700000   298.4859       0.94926276     0.13049022    -23643.788      88.66427      -22.551683     -65.721117      115.81313      115.90735      115.87594    
   3710000   299.52664      0.94901682     0.072552498   -23635.68      -62.415086      20.932122      41.700621      115.82314      115.91736      115.88595    
   3720000   300.62505      0.94893526    -0.056158854   -23589.315     -7.1188986     -0.14319546     7.0936175      115.82646      115.92068      115.88927    
   3730000   299.65711      0.94878722     0.04668896    -23717.199     -46.264171      47.218545     -0.81430732     115.83248      115.92671      115.8953     
   3740000   301.1074       0.94961194    -0.10792818    -23552.549     -53.677058     -2.0309133      55.384186      115.79894      115.89314      115.86174    
   3750000   299.80752      0.94748965    -0.053160571   -23629.855     -13.71394      -16.252257      29.806715      115.88533      115.97961      115.94818    
   3760000   300.51481      0.9472328     -0.064450253   -23620.113      22.842078     -11.282139     -11.75329       115.89581      115.99009      115.95866    
   3770000   300.93032      0.9493196      0.030416764   -23626.878      24.339513     -16.583674     -7.6645885      115.81082      115.90503      115.87363    
   3780000   299.89688      0.94721247     0.068537888   -23622.11      -6.8854815      1.3802157      5.7108794      115.89664      115.99092      115.95949    
   3790000   300.72879      0.94859733    -0.019139016   -23675.353      18.161398      16.555272     -34.774087      115.84021      115.93444      115.90303    
   3800000   299.46525      0.948176      -0.055989483   -23699.466     -21.192256     -0.38177431     21.406062      115.85736      115.95161      115.9202     
   3810000   299.21022      0.94636107     0.026659838   -23609.375     -51.974916      32.264369      19.790527      115.93138      116.02569      115.99425    
   3820000   300.00022      0.94861168     0.011971909   -23495.528      7.692342       53.088198     -60.744624      115.83962      115.93386      115.90245    
   3830000   300.46681      0.95087924     0.0017855234  -23643.697     -33.792423      30.393073      3.4047061      115.74747      115.84163      115.81024    
   3840000   300.11788      0.95083366    -0.026199489   -23737.489      45.665978     -19.748916     -25.99566       115.74932      115.84348      115.81209    
   3850000   300.0475       0.94704688    -0.06163713    -23523.419     -28.056682     -14.689395      42.561166      115.90339      115.99768      115.96625    
   3860000   300.07153      0.94723809     0.027251465   -23581.501     -6.0329597      30.489547     -24.374833      115.89559      115.98987      115.95844    
   3870000   300.49954      0.94981251    -0.21179091    -23710.619     -33.479092      39.080017     -6.236298       115.79079      115.88498      115.85358    
   3880000   300.50254      0.94786076    -0.083428259   -23571.651      12.779682      17.724751     -30.754717      115.87021      115.96447      115.93305    
   3890000   299.39564      0.94702341     0.18738       -23569.474      51.75084       3.7772258     -54.965926      115.90435      115.99864      115.96721    
   3900000   299.47576      0.94947114    -0.16208146    -23762.409      26.765259      23.190167     -50.441671      115.80466      115.89887      115.86747    
   3910000   301.14226      0.95113071     0.031385025   -23708.239     -86.725122      36.419104      50.400173      115.73727      115.83142      115.80004    
   3920000   299.3616       0.948899      -0.12635563    -23609.157      8.2452904     -3.9597781     -4.6645792      115.82793      115.92216      115.89075    
   3930000   300.50159      0.94689502     0.01775224    -23518.89       28.077462     -38.293762      10.269557      115.90959      116.00388      115.97245    
   3940000   299.66132      0.95125813    -0.1780817     -23716.051     -18.328426     -78.216389      96.01057       115.7321       115.82625      115.79487    
   3950000   301.07858      0.94807163    -0.11887826    -23703.311      75.575639     -60.39276      -15.539513      115.86162      115.95587      115.92445    
   3960000   299.13621      0.94988247     0.12704599    -23817.33      -31.991541     -11.660565      44.033244      115.78794      115.88214      115.85074    
   3970000   299.7083       0.94779724    -0.18651467    -23640.442      20.019033     -13.481843     -7.0967343      115.8728       115.96706      115.93564    
   3980000   299.50454      0.94857087    -0.078591616   -23700.839     -40.639561      1.5937062      38.810079      115.84129      115.93552      115.90411    
   3990000   300.77978      0.94823114    -0.095226585   -23531.228      4.841242       8.0574824     -13.184404      115.85512      115.94937      115.91795    
   4000000   300.38437      0.94898483    -0.12173344    -23548.193     -33.796047      42.27757      -8.846723       115.82444      115.91866      115.88725    
   4010000   300.24057      0.94893673    -0.1759361     -23630.27       19.277638     -0.95606435    -18.849382      115.8264       115.92062      115.88921    
   4020000   300.05851      0.9474843     -0.17494433    -23532.342      3.9239885     -15.84524       11.396419      115.88555      115.97982      115.9484     
   4030000   300.78944      0.94759753    -0.070653468   -23465.108     -10.021351      3.781599       6.0277913      115.88094      115.9752       115.94378    
   4040000   300.50316      0.94961793    -0.02405663    -23572.672     -20.448067     -5.5305478      25.906444      115.79869      115.8929       115.8615     
   4050000   299.56879      0.95109967     0.067627063   -23673.824      16.49562      -1.1189492     -15.173789      115.73853      115.83268      115.8013     
   4060000   300.03191      0.94808124    -0.11696893    -23570.506     -16.969427      4.1312266      12.487293      115.86122      115.95548      115.92406    
   4070000   299.14296      0.94857497    -0.043362005   -23647.006      3.5442061      9.3128416     -12.987134      115.84112      115.93536      115.90394    
   4080000   300.2304       0.94712665    -0.044700917   -23760.18      -17.87296      -21.439758      39.178616      115.90014      115.99442      115.96299    
   4090000   299.14615      0.94702002    -0.12241368    -23626.683      16.489705     -5.5674328     -11.289513      115.90449      115.99877      115.96734    
   4100000   299.93983      0.95012835    -0.012434025   -23799.941     -37.647337      12.195428      25.414606      115.77795      115.87214      115.84074    
   4110000   299.51768      0.94708084    -0.11229863    -23641.415     -14.574173     -13.713688      27.950965      115.902        115.99629      115.96486    
   4120000   300.55625      0.94927273    -0.014561357   -23658.3        8.9264486     -52.779555      43.809422      115.81273      115.90694      115.87554    
   4130000   300.14698      0.94985125    -0.064335506   -23532.957      14.06187       5.1136248     -19.368501      115.78921      115.88341      115.85201    
   4140000   300.25097      0.95036458    -0.094938648   -23792.357     -42.725987      51.787247     -9.3460759      115.76836      115.86254      115.83115    
   4150000   300.03148      0.94896194    -0.073158839   -23634.167      0.088361987    1.3855438     -1.6933823      115.82537      115.91959      115.88819    
   4160000   300.64153      0.94892116    -0.014158636   -23701.185     -27.357258      19.577535      7.7372468      115.82703      115.92125      115.88985    
   4170000   299.61022      0.94932699    -0.031258831   -23713.475     -4.7653332     -19.795163      24.46672       115.81052      115.90473      115.87333    
   4180000   299.56149      0.94892188    -0.03881192    -23572.362     -9.1404673     -2.5912853      11.615317      115.827        115.92123      115.88982    
   4190000   299.7305       0.95014393     0.05175125    -23769.817      22.976202     -15.415379     -7.405569       115.77732      115.87151      115.84011    
   4200000   299.87874      0.95021244    -0.0094689982  -23839.997     -17.661245      24.78807      -7.1552313      115.77454      115.86872      115.83733    
   4210000   299.05275      0.95153216    -0.09218081    -23669.882      37.980242     -57.348595      19.09181       115.72099      115.81513      115.78375    
   4220000   300.66025      0.94712635     0.038476015   -23607.346     -51.692824     -1.4681223      53.276374      115.90015      115.99443      115.963      
   4230000   299.95221      0.94398474    -0.038451512   -23416.723     -16.532747     -25.049182      41.466574      116.02858      116.12297      116.0915     
   4240000   299.06318      0.94837344     0.1730935     -23541.646      15.352549     -27.134942      12.301673      115.84932      115.94357      115.91215    
   4250000   299.11184      0.95075881    -0.11435147    -23622.158     -10.184577     -8.426533       18.268056      115.75236      115.84652      115.81513    
   4260000   300.4503       0.94772197    -0.1257707     -23667.555     -53.327852      28.956486      23.994054      115.87586      115.97013      115.93871    
   4270000   299.20197      0.9498468      0.0026545452  -23710.284      19.915805      16.312491     -36.220333      115.78939      115.88359      115.85219    
   4280000   300.05398      0.94880269    -0.11775838    -23444.006     -35.397362      22.254783      12.789304      115.83185      115.92608      115.89467    
   4290000   298.96221      0.94607509    -0.065865792   -23340.032      13.50142      -46.120371      32.421355      115.94306      116.03738      116.00594    
   4300000   300.71145      0.94894522    -0.089967022   -23724.407      9.0588721     -42.78936       33.460587      115.82605      115.92028      115.88887    
   4310000   300.19583      0.94768421    -0.0134751     -23521.752      12.439614     -6.003287      -6.4767521      115.8774       115.97167      115.94025    
   4320000   300.15492      0.95010445     0.14812805    -23653.587     -1.1173067     -30.706337      32.268028      115.77893      115.87311      115.84172    
   4330000   299.96221      0.94738253    -0.096777875   -23467.846      27.397603     -23.757888     -3.9300483      115.8897       115.98398      115.95255    
   4340000   300.3766       0.94820188    -0.1179864     -23672.118     -34.311202      47.280455     -13.323212      115.85631      115.95056      115.91914    
   4350000   300.09862      0.94775754    -0.068017518   -23574.746     -12.811101      18.950463     -6.343415       115.87441      115.96868      115.93726    
   4360000   300.29733      0.94644849     0.029952524   -23509.653     -31.185228     -15.655245      46.930331      115.92781      116.02212      115.99068    
   4370000   299.73129      0.95061783     0.1304847     -23665.441     -71.589337      39.921675      32.059116      115.75808      115.85225      115.82086    
   4380000   300.22329      0.95200194    -0.050433979   -23811.562      15.333256     -17.148654      1.6640958      115.70195      115.79608      115.7647     
   4390000   300.29305      0.94592827     0.089274928   -23434.978      14.795643     -11.839226     -2.6885914      115.94906      116.04338      116.01194    
   4400000   300.47714      0.94863125    -0.1690059     -23514.845     -36.057701      7.8704291      27.680254      115.83883      115.93306      115.90165    
   4410000   300.12589      0.94653017    -0.10552545    -23593.148      12.789021     -5.3225398     -7.7830578      115.92448      116.01878      115.98735    
   4420000   300.07724      0.94530089    -0.072884585   -23441.171      4.0997511     -16.655453      12.337048      115.9747       116.06905      116.0376     
   4430000   300.74195      0.9505891     -0.069509653   -23728.384      26.010832     -34.560443      8.341082       115.75925      115.85342      115.82203    
   4440000   300.11004      0.94836377    -0.049741486   -23654.705      23.222241      8.1314416     -31.502907      115.84972      115.94396      115.91255    
   4450000   299.6843       0.94571184     0.093071827   -23398.3        50.928791     -19.088516     -31.56106       115.9579       116.05223      116.02079    
   4460000   299.54663      0.94644849    -0.024042757   -23429.899     -12.535521      52.44932      -39.985926      115.92781      116.02212      115.99068    
   4470000   301.7033       0.94669596    -0.065743921   -23531.847     -48.459979      36.250808      12.011939      115.91771      116.01201      115.98057    
   4480000   299.48358      0.94726654    -0.00456026    -23640.096     -54.538873     -18.673173      73.198366      115.89443      115.98871      115.95728    
   4490000   298.92002      0.94824236     0.17291908    -23529.542     -13.51064      -5.9470337      19.976431      115.85466      115.94891      115.91749    
   4500000   300.53443      0.94876335    -0.12538337    -23678.854     -16.3505        49.810739     -33.836389      115.83345      115.92768      115.89627    
   4510000   300.15856      0.94732271     0.055609793   -23555.838     -48.745338     -34.575357      83.487524      115.89214      115.98642      115.95499    
   4520000   299.31898      0.95129254    -0.11578108    -23602.219      67.422359     -34.70752      -33.062182      115.73071      115.82485      115.79347    
   4530000   300.736        0.94796767    -0.06116269    -23618.137      66.248945     -23.72846      -42.703973      115.86585      115.96011      115.92869    
   4540000   300.78051      0.94638354    -0.14295557    -23512.975     -47.733856      15.041095      32.263894      115.93046      116.02477      115.99334    
   4550000   300.32292      0.94650784     0.090929163   -23541.184      60.939049      6.3687968     -67.035058      115.92539      116.01969      115.98826    
   4560000   299.87054      0.94803398    -0.007110934   -23552.118      19.062333      20.247272     -39.330938      115.86315      115.9574       115.92599    
   4570000   299.55582      0.94875876     0.027934744   -23522.901     -9.3195214     -2.7741017      12.177427      115.83364      115.92787      115.89646    
   4580000   299.64947      0.94731407     0.042461298   -23713.701     -43.057839      25.274444      17.910779      115.89249      115.98677      115.95534    
   4590000   299.60588      0.94814669    -0.022056284   -23538.851      9.4243718     -44.623502      35.132962      115.85856      115.95281      115.92139    
   4600000   299.86919      0.94623576    -0.072607488   -23455.348     -23.858483     -35.630135      59.270795      115.9365       116.03081      115.99937    
   4610000   300.37185      0.94784248     0.18357128    -23388.065      9.4511634     -18.809449      9.9089997      115.87095      115.96521      115.93379    
   4620000   300.74378      0.94974426    -0.01974294    -23692.659     -25.400105      19.864787      5.4760889      115.79356      115.88776      115.85636    
   4630000   299.23526      0.94916346    -0.012355729   -23551.581      34.479229     -5.5051395     -29.011157      115.81717      115.91139      115.87998    
   4640000   298.88194      0.94817236     0.017817489   -23700.773      19.329638     -10.841622     -8.4345638      115.85751      115.95176      115.92035    
   4650000   301.00008      0.94916887    -0.11968487    -23572.323      2.9943255      0.6971685     -4.0505486      115.81695      115.91117      115.87976    
   4660000   299.48434      0.94879425    -0.020816417   -23631.978     -2.6293382     -14.367852      16.934741      115.83219      115.92642      115.89501    
   4670000   299.39171      0.94620855    -0.16594171    -23475.883     -68.576615      7.3434925      60.735298      115.93761      116.03192      116.00049    
   4680000   299.26799      0.94487622     0.049116451   -23329.933     -22.56823      -6.7899829      29.505562      115.99208      116.08644      116.05498    
   4690000   299.46771      0.94944686     0.03993802    -23625.058     -7.7693812      31.118828     -23.229633      115.80565      115.89986      115.86845    
   4700000   300.61758      0.94803882     0.012697001   -23700.989      30.843819     -28.974802     -1.8309262      115.86295      115.95721      115.92579    
   4710000   300.57273      0.94788107    -0.006674704   -23603.836     -2.3730935      23.398291     -21.045222      115.86938      115.96364      115.93222    
   4720000   299.43701      0.94750749    -0.12606739    -23559.77      -24.393873      71.577683     -47.562012      115.88461      115.97888      115.94745    
   4730000   299.04439      0.94972421     0.025653772   -23673.536      65.327585     -30.509451     -34.741173      115.79437      115.88857      115.85717    
   4740000   300.89154      0.94724743    -0.078322911   -23495.092     -18.834406      47.494822     -28.895385      115.89521      115.98949      115.95806    
   4750000   300.53371      0.95215342    -0.10709236    -23608.223     -42.561951      6.7855369      35.455137      115.69582      115.78993      115.75856    
   4760000   300.54383      0.9490408     -0.06393424    -23626.164     -13.935826      21.086998     -7.3429743      115.82216      115.91638      115.88498    
   4770000   300.22234      0.94999872    -0.10305501    -23643.785     -15.480512      19.078447     -3.9070991      115.78322      115.87741      115.84601    
   4780000   299.9447       0.94965806    -0.1236571     -23702.283      11.310957     -24.084641      12.402713      115.79706      115.89126      115.85986    
   4790000   299.15948      0.94910217    -0.0076685973  -23475.902     -2.3461318      6.1878878     -3.8647617      115.81967      115.91389      115.88248    
   4800000   299.62737      0.94478464     0.0039558366  -23490.777      27.949659     -11.522504     -16.415288      115.99582      116.09019      116.05873    
   4810000   299.55039      0.95000464    -0.075309061   -23592.684      8.2896725      27.083436     -35.599036      115.78298      115.87717      115.84577    
   4820000   300.34715      0.94951177     0.080698092   -23678.87       59.796688     -34.358785     -25.195809      115.80301      115.89722      115.86581    
   4830000   299.4415       0.94891052    -0.15253298    -23735.74      -16.09515       54.671227     -39.033676      115.82746      115.92169      115.89028    
   4840000   300.16046      0.9495337     -0.031557968   -23541.664     -55.096733      50.700473      4.3015859      115.80212      115.89632      115.86492    
   4850000   298.58201      0.94892662    -0.0071799058  -23496.399     -8.7956174     -1.176145       9.9502226      115.82681      115.92103      115.88962    
   4860000   299.71112      0.94809773    -0.072210051   -23647.653     -11.550694     -34.442862      45.776926      115.86055      115.9548       115.92339    
   4870000   300.15482      0.94739818    -0.078937733   -23544.926     -1.3909161     -30.303113      31.457216      115.88906      115.98334      115.95191    
   4880000   299.35432      0.94800946    -0.14890479    -23700.871     -31.961622      60.166523     -28.651616      115.86415      115.9584       115.92699    
   4890000   300.79234      0.95070118     0.034172968   -23739.538     -54.415801      44.253859      10.264461      115.7547       115.84886      115.81747    
   4900000   299.84821      0.94844047     0.15877439    -23783.632     -22.65774       15.894358      7.2397055      115.84659      115.94084      115.90942    
   4910000   300.58218      0.94718816    -0.031889555   -23681.729     -11.164564     -10.88922       21.958115      115.89763      115.99191      115.96048    
   4920000   300.25572      0.94760587     0.093871802   -23426.72       1.0754171     -15.933175      15.139374      115.8806       115.97486      115.94344    
   4930000   299.13684      0.94841008    -0.055296045   -23580.426      33.746275      1.8454263     -35.75759       115.84783      115.94207      115.91066    
   4940000   300.34996      0.95013519    -0.10400226    -23619.869      14.296597     -7.7665837     -6.8420205      115.77768      115.87186      115.84047    
   4950000   300.43115      0.94492067     0.034207363   -23557.397      20.650304     -11.194485     -9.3531971      115.99026      116.08462      116.05316    
   4960000   299.61093      0.950786      -0.016568285   -23650.542     -52.00646       47.35133       4.6054256      115.75125      115.84542      115.81403    
   4970000   300.27884      0.95018842     0.12430177    -23752.252      12.641778     -13.03789       0.76901763     115.77551      115.8697       115.8383     
   4980000   299.95548      0.94760223     0.00028563672 -23610.238      0.96768474     14.869709     -15.836537      115.88074      115.97501      115.94359    
   4990000   299.25992      0.94696015    -0.045888796   -23487.036     -41.403933     -16.663314      57.92958       115.90693      116.00122      115.96979    
   5000000   300.32259      0.94992845    -0.060565688   -23781.893      24.814176      22.895758     -47.89163       115.78608      115.88027      115.84887    
   5010000   300.31169      0.94966455     0.060659431   -23726.581      12.099975     -30.234042      18.316046      115.7968       115.891        115.8596     
   5020000   299.48611      0.94838843     0.10437308    -23620.345     -25.982005     -0.5226485      26.817772      115.84871      115.94296      115.91154    
   5030000   299.91673      0.94880921    -0.14548348    -23718.676      26.779629     -60.383103      33.167024      115.83159      115.92581      115.8944     
   5040000   300.22049      0.94910969     0.047508112   -23695.313      34.211468     -2.9777489     -31.091195      115.81936      115.91358      115.88217    
   5050000   299.64375      0.94885135    -0.028351018   -23641.472      38.976314      1.17856       -40.239927      115.82987      115.9241       115.89269    
   5060000   300.4363       0.94682199    -0.0041210917  -23440.895      13.732441      18.187411     -31.932215      115.91257      116.00686      115.97543    
   5070000   301.36152      0.9495314     -0.14172427    -23595.626     -11.822309      5.1067742      6.290362       115.80221      115.89642      115.86501    
   5080000   300.61739      0.94809498    -0.098720567   -23603.43       28.889445     -13.415025     -15.770582      115.86066      115.95492      115.9235     
   5090000   299.70908      0.95013189     0.028873065   -23694.175     -0.17495058     1.8785525     -1.6169827      115.77781      115.872        115.8406     
   5100000   300.37836      0.9477029      0.02755635    -23653.026     -27.06109       40.114825     -12.971065      115.87664      115.97091      115.93948    
   5110000   300.15562      0.94858918     0.04505796    -23595.089     -16.72044      -3.3928266      20.248441      115.84054      115.93478      115.90336    
   5120000   298.85721      0.94946124     0.1563583     -23743.236     -52.501961     -17.938117      70.909153      115.80506      115.89927      115.86787    
   5130000   299.22514      0.95162006     0.090804832   -23794.755      68.236553     -55.935494     -12.028645      115.71743      115.81156      115.78018    
   5140000   300.20129      0.94906008    -0.10927832    -23608.043     -28.796521      26.881011      1.5876753      115.82138      115.9156       115.88419    
   5150000   300.37819      0.94636928    -0.13690817    -23480.431     -13.843757     -6.3726142      19.805646      115.93105      116.02536      115.99392    
   5160000   299.62948      0.95085183     0.014236983   -23810.621      2.9599497      12.714752     -15.63199       115.74858      115.84274      115.81136    
   5170000   299.81007      0.94624166    -0.081524917   -23506.195      40.909147     -14.845753     -26.307969      115.93626      116.03057      115.99913    
   5180000   299.84508      0.94798683    -0.13324909    -23611.685     -49.844481      45.633899      3.8108354      115.86507      115.95933      115.92791    
   5190000   299.1264       0.94926642     0.066503371   -23681.117      32.911768     -14.16848      -18.543778      115.81299      115.9072       115.87579    
   5200000   300.17575      0.9509623      0.0098004883  -23588.697     -17.247737      13.799412      3.4777258      115.7441       115.83826      115.80687    
   5210000   300.8986       0.9471082      0.01899371    -23606.851     -25.436192      5.214696       20.278477      115.90089      115.99517      115.96375    
   5220000   300.58618      0.95001726    -0.033647873   -23750.479     -12.773504      9.8233338      2.849227       115.78247      115.87666      115.84526    
   5230000   299.91452      0.94736256     0.00094628024 -23656.624      0.38085663     42.005093     -42.383111      115.89051      115.98479      115.95337    
   5240000   300.36163      0.94936821     0.049093501   -23609.999      28.797964      0.1933593     -28.844043      115.80885      115.90306      115.87165    
   5250000   300.04238      0.94792968    -0.040280173   -23462.725     -22.255829      37.837072     -15.702084      115.8674       115.96166      115.93024    
   5260000   300.51268      0.94891475     0.017425757   -23799.529      52.040566      12.412819     -64.401108      115.82729      115.92152      115.89011    
   5270000   300.48821      0.948274      -0.14066592    -23683.398     -43.519908      95.313842     -52.215931      115.85337      115.94762      115.9162     
   5280000   299.19722      0.94939756    -0.030981516   -23640.265     -15.821693      17.296795     -1.5680467      115.80765      115.90186      115.87046    
   5290000   300.09954      0.94891063    -0.13418569    -23737.591     -40.538228      2.9346226      37.201049      115.82746      115.92168      115.89028    
   5300000   300.03485      0.95204526    -0.18977549    -23717.221     -2.3847143     -11.258988      13.074375      115.7002       115.79432      115.76294    
   5310000   300.40216      0.94971986     0.013809561   -23732.16       3.246756       10.010968     -13.216295      115.79455      115.88875      115.85735    
   5320000   300.032        0.94947972    -0.014862538   -23565.697      18.940034      4.2722864     -23.256908      115.80431      115.89852      115.86712    
   5330000   300.56121      0.94894337    -0.12295847    -23662.073      30.523598     -73.096639      42.204165      115.82613      115.92035      115.88894    
   5340000   300.34292      0.95101856     0.078034592   -23549.291     -8.3445774      63.830319     -55.251638      115.74182      115.83597      115.80459    
   5350000   299.24198      0.94884632    -0.0027748207  -23625.617     -6.2613149     -4.5965463      10.849537      115.83008      115.9243       115.89289    
   5360000   300.13693      0.94977643    -0.18401874    -23864.57       18.064389     -6.809737      -11.806708      115.79225      115.88645      115.85505    
   5370000   300.23401      0.94682154     0.00642753    -23469.924     -27.740683      19.851278      7.9086875      115.91258      116.00688      115.97545    
   5380000   299.14126      0.94571562     0.03897432    -23550.74      -28.811041     -56.511939      85.439903      115.95775      116.05208      116.02064    
   5390000   300.16442      0.94662103    -0.013241701   -23640.8        43.456621     -88.456867      44.960522      115.92077      116.01507      115.98363    
   5400000   299.11861      0.94703163    -0.016974566   -23422.032      44.727886      3.3073815     -48.086191      115.90401      115.9983       115.96687    
   5410000   299.45866      0.94988051    -0.11183921    -23701.521     -0.18531219     20.660688     -20.810893      115.78802      115.88222      115.85082    
   5420000   300.13826      0.94915519    -0.037726935   -23641.316      6.6120426     -18.474292      11.749069      115.81751      115.91173      115.88032    
   5430000   299.53235      0.95193203     0.0021496408  -23797.03      -37.944938      30.301867      7.6495204      115.70478      115.79891      115.76753    
   5440000   300.64784      0.94786174     0.019095115   -23541.83      -3.0656973     -15.4296        18.552583      115.87017      115.96443      115.93301    
   5450000   299.62751      0.94860172    -0.13874144    -23542.197     -5.6783629      12.010311     -6.748172       115.84003      115.93427      115.90285    
   5460000   299.83409      0.94644826    -0.021171844   -23347.571      4.7630849      7.1684552     -11.995056      115.92782      116.02213      115.99069    
   5470000   300.57992      0.94789837    -0.10359897    -23537.854     -25.174887     -18.971393      43.835483      115.86867      115.96293      115.93151    
   5480000   300.42467      0.94917799    -0.17305646    -23610.609      19.723426     -35.809131      15.566536      115.81658      115.9108       115.87939    
   5490000   299.09507      0.95032415    -0.068907251   -23689.954      52.864484     -6.3774894     -46.693717      115.77         115.86418      115.83279    
   5500000   299.8865       0.94587232    -0.059132327   -23464.475      26.801025     -14.374986     -12.603436      115.95135      116.04567      116.01423    
   5510000   299.74544      0.95002164     0.097945741   -23634.424      1.7546653      25.448512     -26.90934       115.78229      115.87648      115.84508    
   5520000   299.73082      0.94932977     0.043146375   -23508.508     -48.537622      45.308903      3.3581583      115.81041      115.90462      115.87322    
   5530000   299.89378      0.94771831    -0.016042308   -23589.91       14.097257     -13.830673     -0.31471147     115.87601      115.97028      115.93886    
   5540000   299.90105      0.94662147     0.075916916   -23408.785      40.892966     -34.936587     -5.7286274      115.92075      116.01505      115.98362    
   5550000   299.47452      0.95114336    -0.22308975    -23710.265     -31.209486      9.3012944      21.238922      115.73676      115.83091      115.79952    
   5560000   300.11065      0.94894635    -0.079832827   -23608.008      56.529797     -42.290774     -14.478522      115.826        115.92023      115.88882    
   5570000   300.7655       0.94592032    -0.09810979    -23694.702      3.2924056      1.6967782     -5.2835133      115.94938      116.04371      116.01227    
   5580000   298.95963      0.94695813    -0.027766619   -23744.582     -28.655853      58.194065     -29.621512      115.90701      116.0013       115.96987    
   5590000   300.76456      0.94979414    -0.11667084    -23727.867      53.930864     -29.407261     -24.873615      115.79153      115.88573      115.85433    
   5600000   301.02266      0.94677107    -0.10505296    -23614.971      10.153568      5.3091574     -15.777884      115.91464      116.00894      115.97751    
   5610000   300.65366      0.94872311    -0.084535937   -23611.841     -18.135026     -28.656489      46.537907      115.83509      115.92932      115.89791    
   5620000   300.52236      0.94829194    -0.049267397   -23721.049     -7.2173236     -2.7399823      9.8095037      115.85264      115.94689      115.91547    
   5630000   301.12623      0.94916277    -0.045290619   -23557.307      33.533187      22.988991     -56.65805       115.8172       115.91142      115.88001    
   5640000   299.79679      0.94903136     0.12173124    -23618.139      0.83590288    -10.207658      9.7369489      115.82255      115.91677      115.88536    
   5650000   299.99568      0.94835891    -0.0041427766  -23530.21       48.595923     -36.113303     -12.495048      115.84992      115.94416      115.91274    
   5660000   299.75779      0.94888636    -0.14173369    -23644.709      12.405237     -7.9740955     -4.8563421      115.82845      115.92267      115.89126    
   5670000   299.9212       0.94707544    -0.1058825     -23614.412     -28.819438      15.390061      13.11173       115.90222      115.99651      115.96508    
   5680000   300.23434      0.94755597     0.042579339   -23461.58      -16.55971      -8.0485886      24.736036      115.88263      115.9769       115.94548    
   5690000   298.59568      0.94891008     0.036301107   -23629.714     -13.926923      29.341391     -15.305565      115.82748      115.92171      115.8903     
   5700000   300.49571      0.95019226     0.059558379   -23725.663     -32.961465     -8.8342661      41.974407      115.77536      115.86954      115.83815    
   5710000   300.55345      0.9472977     -0.017925997   -23612.89      -23.890453     -20.838532      44.675207      115.89316      115.98744      115.95601    
   5720000   299.12229      0.94834451     0.021897708   -23646.97       18.50209      -21.323511      2.8871146      115.8505       115.94475      115.91333    
   5730000   299.8498       0.94583676    -0.054356146   -23536.531      30.253756      10.476564     -40.893389      115.9528       116.04713      116.01568    
   5740000   300.49322      0.94804529     0.01398962    -23551.067     -28.759651      11.571479      17.230141      115.86269      115.95694      115.92552    
   5750000   301.25907      0.9485878     -0.14426855    -23554.343     -16.745837     -8.7997305      25.112762      115.8406       115.93483      115.90342    
   5760000   300.01443      0.94532977     0.0025691543  -23388.234     -22.011496      55.232967     -33.213764      115.97352      116.06787      116.03642    
   5770000   299.88039      0.94828612    -0.032715202   -23585.743     -27.354115      25.895478      1.3604909      115.85288      115.94713      115.91571    
   5780000   300.38541      0.9480351      0.020322655   -23547.813     -24.664004      59.572543     -34.847572      115.8631       115.95736      115.92594    
   5790000   300.06166      0.94771125     0.021379712   -23613.691      43.307269      0.12760128    -43.370731      115.8763       115.97056      115.93914    
   5800000   301.28162      0.95044849    -0.045012979   -23820.494      9.5946436      25.916767     -35.646449      115.76495      115.85913      115.82774    
   5810000   300.20126      0.94909114     0.021534329   -23762.29      -36.449965     -2.6256671      39.140235      115.82011      115.91433      115.88293    
   5820000   299.9671       0.94971567    -0.0088579916  -23811.166     -31.15957       18.846519      12.286477      115.79472      115.88892      115.85752    
   5830000   299.59218      0.94626789    -0.18115784    -23510.685     -34.522131      17.312604      16.666054      115.93519      116.0295       115.99806    
   5840000   300.88378      0.94931451    -0.1060456     -23593.534     -8.5682211     -27.67961       35.929695      115.81103      115.90524      115.87384    
   5850000   301.10944      0.95138557    -0.029940252   -23757.08       11.122368     -64.894007      53.681818      115.72693      115.82108      115.7897     
   5860000   299.59906      0.94688411     0.01878055    -23520.838     -31.73258       50.621643     -18.832721      115.91003      116.00432      115.97289    
   5870000   300.60639      0.94844358     0.0048060883  -23654.15       30.024442     -6.9705472     -23.039477      115.84647      115.94071      115.90929    
   5880000   299.62125      0.94912556    -0.0011277849  -23543.551     -69.201151      22.504603      46.693164      115.81871      115.91293      115.88153    
   5890000   300.63414      0.94661737     0.13595398    -23512.036     -16.972606     -5.960481       23.340949      115.92092      116.01522      115.98378    
   5900000   299.8836       0.95065116     0.024105942   -23584.404      17.024444     -34.844287      17.892162      115.75673      115.85089      115.8195     
   5910000   300.66358      0.94974493     0.12546148    -23670.65      -20.315723      27.53223      -6.8401227      115.79353      115.88773      115.85633    
   5920000   299.65269      0.94869772    -0.096165009   -23514.928     -40.43193       80.306502     -40.163067      115.83612      115.93036      115.89894    
   5930000   300.82623      0.95013213    -0.0017653529  -23667.477      14.378787      10.549435     -24.933518      115.7778       115.87199      115.84059    
   5940000   300.01056      0.94793721     0.081199848   -23486.159     -54.334743      13.890254      40.688089      115.86709      115.96135      115.92993    
   5950000   299.61971      0.9501741     -0.045599162   -23673.899     -64.635149      30.332944      34.165408      115.7761       115.87028      115.83889    
   5960000   299.8852       0.94951318    -0.032504495   -23615.879     -43.228517     -4.1190565      47.25006       115.80295      115.89716      115.86576    
   5970000   299.10765      0.94884874     0.027285244   -23644.106      0.80564616    -47.362935      46.639144      115.82998      115.9242       115.89279    
   5980000   299.76788      0.94786568    -0.15744327    -23494.602     -39.162243      6.3740271      32.315886      115.87001      115.96427      115.93285    
   5990000   300.01561      0.95032749    -0.018591426   -23688.854      20.610766      48.531597     -69.198137      115.76987      115.86405      115.83265    
   6000000   299.75112      0.94992821     0.021476285   -23708.335      1.7663981      31.092442     -32.794411      115.78608      115.88028      115.84888    
   6000864   299.47764      0.94825435    -0.053635842   -23522.713     -27.539606     -16.861106      44.239804      115.85417      115.94842      115.917      
Loop time of 2228.57 on 16 procs for 5000000 steps with 12350 atoms

Performance: 193.846 ns/day, 0.124 hours/ns, 2243.589 timesteps/s, 27.708 Matom-step/s
97.6% CPU use with 16 MPI tasks x no OpenMP threads

MPI task timing breakdown:
Section |  min time  |  avg time  |  max time  |%varavg| %total
---------------------------------------------------------------
Pair    | 829.28     | 883.04     | 911.54     |  65.4 | 39.62
Bond    | 333.22     | 344.32     | 352.26     |  23.2 | 15.45
Neigh   | 95.749     | 95.839     | 95.913     |   0.5 |  4.30
Comm    | 454.64     | 486.71     | 553.74     | 106.2 | 21.84
Output  | 3.0321     | 3.9045     | 4.7666     |  27.2 |  0.18
Modify  | 368.76     | 373.32     | 376.02     |  10.7 | 16.75
Other   |            | 41.44      |            |       |  1.86

Nlocal:        771.875 ave         788 max         759 min
Histogram: 4 0 1 1 3 2 2 1 1 1
Nghost:        2304.06 ave        2323 max        2283 min
Histogram: 1 2 3 0 1 2 1 2 0 4
Neighs:        26023.6 ave       26708 max       25160 min
Histogram: 2 1 1 1 3 0 0 4 2 2

Total # of neighbors = 416378
Ave neighs/atom = 33.714818
Ave special neighs/atom = 5.76
Neighbor list builds = 89009
Dangerous builds = 0
unfix               3
undump              min
unfix               minp

write_data          pdms_50_nvt_relaxation.data
System init for write_data ...
Generated 0 of 0 mixed pair_coeff terms from geometric mixing rule
# -----------------------------------------------------
# 5. npt下拉伸
# -----------------------------------------------------
# 计算应力
reset_timestep      0
timestep            1
compute             slabpressperatom slabs stress/atom NULL
compute             2 slabs reduce sum c_slabpressperatom[1] c_slabpressperatom[2]
variable            CorVol equal 30*30*30
variable            slabsigmaxx equal c_2[1]/(v_CorVol*10)
compute             3 all reduce sum c_pressperatom[1] c_pressperatom[2]
variable            sigmaxx equal c_3[1]/(vol*10)
# 计算应变值
variable            tmp equal "lx"
variable            L0 equal ${tmp}
variable            L0 equal 115.854173441448
variable            strain equal "(lx - v_L0)/v_L0"
#dump输出
dump                1 all custom 100000 dump.pdms.lammpstrj id type x y z vx vy vz v_pxxperatom v_pyyperatom v_pzzperatom v_Pxxpairperatom v_Pyypairperatom v_Pzzpairperatom v_Pxxbondperatom v_Pyybondperatom v_Pzzbondperatom v_Pxxangleperatom v_Pyyangleperatom v_Pzzangleperatom v_Pxxdihedralperatom v_Pyydihedralperatom v_Pzzdihedralperatom c_peperatom c_Epairperatom c_Ebondperatom c_Eangleperatom c_Edihedralperatom
# 设置npt系综
fix                 1 all npt temp 300 300 50 y 0 0 2000 z 0 0 2000 drag 2
# deform拉伸，x方向
fix                 2 all deform 1 x erate 1e-7 units box remap x
# 热力学输出
# fix                 ave_sxx all ave/time 100 100 10000 v_strain v_sigmaxx v_px file stress_profile.dat ave one
# fix                 ave_sxx2 all ave/time 1000 200 200000 v_strain v_sigmaxx v_px file stress_profile2.dat ave one
# fix                 ave_sxx3 all ave/time 200 1000 200000 v_strain v_sigmaxx v_px file stress_profile3.dat ave one
# fix                 ave_sxx4 all ave/time 1000 1000 1000000 v_strain v_sigmaxx v_px file stress_profile4.dat ave one
fix                 origin all print 100 "${strain} ${sigmaxx} ${etotal}" file origin100.txt screen no
# thermo_style        custom step temp v_strain v_sigmaxx density press pxx pyy pzz lx ly lz etotal
thermo_style        custom step temp density etotal ebond eangle edihed epair v_strain v_sigmaxx press pxx pyy pzz lx ly lz
thermo              10000

# 启动模拟，n步
run                 3#000000
Generated 0 of 0 mixed pair_coeff terms from geometric mixing rule
Per MPI rank memory allocation (min/avg/max) = 15.08 | 15.23 | 15.55 Mbytes
   Step          Temp         Density         TotEng         E_bond        E_angle        E_dihed         E_pair        v_strain      v_sigmaxx        Press           Pxx            Pyy            Pzz             Lx             Ly             Lz      
         0   299.47764      0.94825435    -23522.713      3749.0529      5018.1867      2196.616      -45510.347      2.575893e-15   2.7539606     -0.053635842   -27.539606     -16.861106      44.239804      115.85417      115.94842      115.917      
         3   299.41613      0.94825397    -23522.766      3753.4483      5017.0604      2196.5999     -45511.389      3e-07          2.5158905      1.0055443     -25.158905     -17.365057      45.540595      115.85421      115.94841      115.91702    
Loop time of 0.00198135 on 16 procs for 3 steps with 12350 atoms

Performance: 130.820 ns/day, 0.183 hours/ns, 1514.116 timesteps/s, 18.699 Matom-step/s
99.2% CPU use with 16 MPI tasks x no OpenMP threads

MPI task timing breakdown:
Section |  min time  |  avg time  |  max time  |%varavg| %total
---------------------------------------------------------------
Pair    | 0.00068646 | 0.00075207 | 0.0010187  |   0.0 | 37.96
Bond    | 0.00019804 | 0.00021947 | 0.00033813 |   0.0 | 11.08
Neigh   | 0          | 0          | 0          |   0.0 |  0.00
Comm    | 0.00018127 | 0.0005367  | 0.00063808 |   0.0 | 27.09
Output  | 0.00021488 | 0.00021907 | 0.00023939 |   0.0 | 11.06
Modify  | 0.00016112 | 0.00019567 | 0.00027152 |   0.0 |  9.88
Other   |            | 5.838e-05  |            |       |  2.95

Nlocal:        771.875 ave         785 max         759 min
Histogram: 4 0 0 1 2 3 2 0 2 2
Nghost:        2303.31 ave        2321 max        2284 min
Histogram: 1 3 2 0 1 1 3 1 1 3
Neighs:        26024.2 ave       26723 max       25168 min
Histogram: 2 1 1 1 3 0 1 3 2 2

Total # of neighbors = 416387
Ave neighs/atom = 33.715547
Ave special neighs/atom = 5.76
Neighbor list builds = 0
Dangerous builds = 0
Total wall time: 0:44:39
