LAMMPS (29 Aug 2024)
# LAMMPS输入文件示例：使用Martini 3粗粒化力场计算PDMS的均方回转半径
# -----------------------------------------------------
# 1. 初始化设置
# -----------------------------------------------------
units               real
dimension           3
boundary            p p p
atom_style          full

# 读取包含PDMS分子结构的data文件
read_data           bad_pdms_50_box_rp.data
Reading data file ...
  orthogonal box = (-1.817489 -3.327506 -3.203493) to (301.6725 300.0825 300.2565)
  4 by 2 by 2 MPI processor grid
  reading atoms ...
  12350 atoms
  scanning bonds ...
  1 = max bonds/atom
  scanning angles ...
  1 = max angles/atom
  scanning dihedrals ...
  1 = max dihedrals/atom
  orthogonal box = (-1.817489 -3.327506 -3.203493) to (301.6725 300.0825 300.2565)
  4 by 2 by 2 MPI processor grid
  reading bonds ...
  12103 bonds
  reading angles ...
  11856 angles
  reading dihedrals ...
  11609 dihedrals
Finding 1-2 1-3 1-4 neighbors ...
  special bond factors lj:    0        0        0       
  special bond factors coul:  0        0        0       
     2 = max # of 1-2 neighbors
     2 = max # of 1-3 neighbors
     4 = max # of 1-4 neighbors
     6 = max # of special neighbors
  special bonds CPU = 0.002 seconds
  read_data CPU = 0.090 seconds
mass                1 72
# -----------------------------------------------------
# 2. 力场参数设置（Martini 3参数）
# -----------------------------------------------------
# 定义非键相互作用（示例：Lennard-Jones势，截断距离可参考Martini 3常用取值）
pair_style lj/cut   12.0
special_bonds       lj 0.0 0.0 0.5
Finding 1-2 1-3 1-4 neighbors ...
  special bond factors lj:    0        0        0.5     
  special bond factors coul:  0        0        0       
     2 = max # of 1-2 neighbors
     2 = max # of 1-3 neighbors
     4 = max # of 1-4 neighbors
     6 = max # of special neighbors
  special bonds CPU = 0.001 seconds
pair_coeff          1 1 0.7337 5.1
# 定义键、角、二面角势（示例参数，实际参数请参考相关文献）
bond_style          harmonic
bond_coeff          1 13.243 4.48
angle_style         harmonic
angle_coeff         1 5.48 86.0
dihedral_style      harmonic
dihedral_coeff      1 0.3346  1  1
# dihedral_style      class2
# dihedral_coeff      1 0.3346 1.14 0 0 0 0
# dihedral_coeff	    1 mbt   0 0 0 0
# dihedral_coeff	    1 ebt   0 0 0 0 0 0 0 0
# dihedral_coeff	    1 at    0 0 0 0 0 0 0 0
# dihedral_coeff	    1 aat   0 0 0
# dihedral_coeff	    1 bb13  0 0 0

# dihedral_style      charmm
# dihedral_coeff      1 0.3346 1 1 1
# -----------------------------------------------------
# 3. 邻域列表设置
# -----------------------------------------------------
neigh_modify    one 1000
neighbor        1 bin
neigh_modify    delay 0 every 1 check yes

# -----------------------------------------------------
# 4. 能量最小化与预平衡
# -----------------------------------------------------
velocity        all create 300 4928459
minimize        1.0e-4 1.0e-6 1000 10000

CITE-CITE-CITE-CITE-CITE-CITE-CITE-CITE-CITE-CITE-CITE-CITE-CITE

Your simulation uses code contributions which should be cited:

- Type Label Framework: https://doi.org/10.1021/acs.jpcb.3c08419

@Article{Gissinger24,
 author = {Jacob R. Gissinger, Ilia Nikiforov, Yaser Afshar, Brendon Waters, Moon-ki Choi, Daniel S. Karls, Alexander Stukowski, Wonpil Im, Hendrik Heinz, Axel Kohlmeyer, and Ellad B. Tadmor},
 title = {Type Label Framework for Bonded Force Fields in LAMMPS},
 journal = {J. Phys. Chem. B},
 year =    2024,
 volume =  128,
 number =  13,
 pages =   {3282–-3297}
}

CITE-CITE-CITE-CITE-CITE-CITE-CITE-CITE-CITE-CITE-CITE-CITE-CITE

Generated 0 of 0 mixed pair_coeff terms from geometric mixing rule
Neighbor list info ...
  update: every = 1 steps, delay = 0 steps, check = yes
  max neighbors/atom: 1000, page size: 100000
  master list distance cutoff = 13
  ghost atom cutoff = 13
  binsize = 6.5, bins = 47 47 47
  1 neighbor lists, perpetual/occasional/extra = 1 0 0
  (1) pair lj/cut, perpetual
      attributes: half, newton on
      pair build: half/bin/newton
      stencil: half/bin/3d
      bin: standard
Per MPI rank memory allocation (min/avg/max) = 8.286 | 8.335 | 8.785 Mbytes
   Step          Temp          E_pair         E_mol          TotEng         Press     
         0   300            3.8854118e+10  48083.486      3.8854177e+10  3.8139039e+08
       796   300           -20890.535      3962.6084     -5884.9196      13.193876    
Loop time of 0.303266 on 16 procs for 796 steps with 12350 atoms

96.5% CPU use with 16 MPI tasks x no OpenMP threads

Minimization stats:
  Stopping criterion = energy tolerance
  Energy initial, next-to-last, final = 
      38854166208.2616  -16926.2346610622  -16927.9265800892
  Force two-norm initial, final = 3.8345023e+10 10.562271
  Force max component initial, final = 1.7221727e+09 5.0483238
  Final line search alpha, max atom move = 0.029534359 0.14909901
  Iterations, force evaluations = 796 834

MPI task timing breakdown:
Section |  min time  |  avg time  |  max time  |%varavg| %total
---------------------------------------------------------------
Pair    | 0.022888   | 0.055973   | 0.11112    |   9.0 | 18.46
Bond    | 0.023519   | 0.048159   | 0.080707   |   6.6 | 15.88
Neigh   | 0.062582   | 0.064148   | 0.064895   |   0.3 | 21.15
Comm    | 0.020346   | 0.096098   | 0.14296    |  11.1 | 31.69
Output  | 0          | 0          | 0          |   0.0 |  0.00
Modify  | 0          | 0          | 0          |   0.0 |  0.00
Other   |            | 0.03889    |            |       | 12.82

Nlocal:        771.875 ave        1146 max         430 min
Histogram: 2 1 3 1 3 0 1 2 2 1
Nghost:        481.125 ave         910 max         224 min
Histogram: 2 5 0 4 0 0 2 2 0 1
Neighs:        8222.69 ave       12912 max        3835 min
Histogram: 1 1 3 3 1 2 1 0 2 2

Total # of neighbors = 131563
Ave neighs/atom = 10.652874
Ave special neighs/atom = 5.76
Neighbor list builds = 106
Dangerous builds = 0
fix             1 all npt temp 300.0 300.0 100.0 iso 1.0 1.0 1000
timestep        1
thermo_style    custom step temp press density vol
thermo          10000
run             500000
Generated 0 of 0 mixed pair_coeff terms from geometric mixing rule
Per MPI rank memory allocation (min/avg/max) = 7.161 | 7.211 | 7.66 Mbytes
   Step          Temp          Press         Density         Volume    
       796   300            13.193876      0.052841216    27943172     
     10000   302.98735     -0.97591786     0.073971465    19961092     
     20000   298.88314     -0.60391142     0.089430293    16510638     
     30000   301.1898       0.038212625    0.10623108     13899428     
     40000   297.60536      0.17043731     0.12316834     11988075     
     50000   299.87133      0.50017783     0.14220075     10383568     
     60000   299.96149     -1.0886084      0.16733488     8823929.5    
     70000   302.61808     -3.0380394      0.19168763     7702902.8    
     80000   296.48201      1.5382405      0.22013395     6707512.3    
     90000   298.87061      1.9775632      0.25538855     5781587.4    
    100000   302.85688      0.24761411     0.29043553     5083920.7    
    110000   300.20795     -9.8336692      0.32773062     4505380.6    
    120000   298.65299     -4.0476919      0.37544874     3932763.8    
    130000   297.90749      0.86892152     0.41798546     3532542.1    
    140000   298.4137      -1.9804418      0.46020699     3208450.2    
    150000   299.40457     -16.755107      0.50055966     2949800.7    
    160000   297.46215     -14.336286      0.55418784     2664351.5    
    170000   301.90112     -12.618398      0.60482625     2441281.6    
    180000   301.31204      27.08612       0.67791888     2178064.7    
    190000   300.29843      1.369777       0.74233007     1989076.4    
    200000   299.9277       18.397152      0.79148356     1865548.8    
    210000   301.38095     -13.895113      0.82887597     1781389.8    
    220000   303.97025     -17.434067      0.85875597     1719407.2    
    230000   302.10428      11.282005      0.88234212     1673445.2    
    240000   297.66113     -16.237835      0.89898844     1642458.5    
    250000   296.27117      26.692781      0.91259947     1617961.9    
    260000   300.23004      33.738777      0.92219426     1601128.2    
    270000   298.06012     -48.68517       0.92399797     1598002.7    
    280000   299.97157      100.527        0.93680682     1576153.4    
    290000   296.87025     -74.200858      0.93816909     1573864.7    
    300000   303.56493      28.113179      0.94384844     1564394.4    
    310000   298.07929      49.398173      0.95035544     1553683.1    
    320000   300.17524      52.504316      0.95262108     1549988      
    330000   300.60942      30.354328      0.94968213     1554784.7    
    340000   299.86378     -70.067347      0.94721344     1558836.8    
    350000   303.06713      92.797712      0.94674576     1559606.9    
    360000   300.21858     -15.197811      0.94925937     1555477.1    
    370000   299.67121     -0.040064876    0.94984206     1554522.9    
    380000   299.05751      43.808375      0.94832131     1557015.7    
    390000   299.47495     -9.4501765      0.95073651     1553060.4    
    400000   297.27675      22.491454      0.948988       1555921.9    
    410000   297.99916      0.69744859     0.9459211      1560966.6    
    420000   300.5668      -5.9573785      0.94700196     1559185      
    430000   302.42857      10.36649       0.94869841     1556396.8    
    440000   299.39794      5.5011944      0.95015715     1554007.4    
    450000   298.37083      87.615192      0.94970514     1554747      
    460000   304.69342      20.137468      0.9521408      1550769.8    
    470000   296.22213      5.6524045      0.9491605      1555639.1    
    480000   301.57812     -3.2832892      0.94613179     1560619      
    490000   299.74898     -24.338628      0.9512466      1552227.6    
    500000   297.8498       3.4203316      0.94856876     1556609.6    
    500796   297.03286      37.334371      0.94950513     1555074.5    
Loop time of 243.18 on 16 procs for 500000 steps with 12350 atoms

Performance: 177.646 ns/day, 0.135 hours/ns, 2056.090 timesteps/s, 25.393 Matom-step/s
97.8% CPU use with 16 MPI tasks x no OpenMP threads

MPI task timing breakdown:
Section |  min time  |  avg time  |  max time  |%varavg| %total
---------------------------------------------------------------
Pair    | 70.989     | 85.637     | 102.51     | 100.1 | 35.22
Bond    | 32.492     | 39.052     | 45.83      |  65.0 | 16.06
Neigh   | 11.435     | 11.449     | 11.459     |   0.2 |  4.71
Comm    | 51.45      | 77.53      | 99.552     | 160.2 | 31.88
Output  | 0.0014416  | 0.0015568  | 0.0027731  |   0.8 |  0.00
Modify  | 21.695     | 24.696     | 27.908     |  47.1 | 10.16
Other   |            | 4.815      |            |       |  1.98

Nlocal:        771.875 ave         781 max         760 min
Histogram: 3 0 1 1 3 0 1 1 2 4
Nghost:        2300.25 ave        2322 max        2267 min
Histogram: 1 0 2 2 0 0 3 4 3 1
Neighs:        26042.1 ave       26822 max       25380 min
Histogram: 1 2 3 1 1 2 4 0 0 2

Total # of neighbors = 416673
Ave neighs/atom = 33.738704
Ave special neighs/atom = 5.76
Neighbor list builds = 9352
Dangerous builds = 0
unfix           1

# variable        lambda equal ramp(0.8,1.0)
# fix             2 all adapt 1 pair lj/cut/soft lambda * * v_lambda

# fix             3 all npt temp 300.0 300.0 100.0 iso 1.0 1.0 1000
# timestep        1
# thermo_style    custom step temp press density vol
# thermo          10000
# run             50000
# unfix           3

# -----------------------------------------------------
# 5. 计算均方回转半径
# -----------------------------------------------------
# 使用compute gyration命令计算整个体系的回转半径
fix             equil all npt temp 300.0 300.0 100.0 iso 1.0 1.0 1000
group           pdms1 id <= 50
50 atoms in group pdms1
group           pdms2 id 51:100
50 atoms in group pdms2
group           pdms3 id 101:150
50 atoms in group pdms3
group           pdms4 id 151:200
50 atoms in group pdms4
group           pdms5 id 201:250
50 atoms in group pdms5
group           pdms6 id 251:300
50 atoms in group pdms6
group           pdms7 id 301:350
50 atoms in group pdms7
group           pdms8 id 351:400
50 atoms in group pdms8
group           pdms9 id 401:450
50 atoms in group pdms9
group           pdms10 id 451:500
50 atoms in group pdms10
# variable        d_end equal "sqrt((x[1]-x[10])^2 + (y[1]-y[10])^2 + (z[1]-z[10])^2)"
compute         rg1 pdms1 gyration
compute         rg2 pdms2 gyration
compute         rg3 pdms3 gyration
compute         rg4 pdms4 gyration
compute         rg5 pdms5 gyration
compute         rg6 pdms6 gyration
compute         rg7 pdms7 gyration
compute         rg8 pdms8 gyration
compute         rg9 pdms9 gyration
compute         rg10 pdms10 gyration
# fix             avg pdms ave/time 1000 800 1000000 c_rg v_d_end file avg.txt
# 输出热力学信息及回转半径数据，每隔1000步输出一次

compute 1 all msd com yes
variable msdx equal c_1[1]
variable msdy equal c_1[2]
variable msdz equal c_1[3]
variable msd equal  c_1[4]
variable istep equal step
fix 2 all print 1 "${istep} ${msdx} ${msdy} ${msdz} ${msd}" screen no file msd.dat
# 输出热力学信息及回转半径数据，每隔1000步输出一次
thermo_style    custom step temp pe ke etotal c_rg1 c_rg2 c_rg3 c_rg4 c_rg5 c_rg6 c_rg7 c_rg8 c_rg9 c_rg10 press density vol
thermo          10000
# 输出轨迹文件，便于后续可视化与分析
dump            traj all custom 1000 dump.pdms.lammpstrj id type x y z
# 运行模拟，记录回转半径数据（后续可统计分析均值与波动）
run             1000000
Generated 0 of 0 mixed pair_coeff terms from geometric mixing rule
Per MPI rank memory allocation (min/avg/max) = 7.622 | 7.747 | 8.094 Mbytes
   Step          Temp          PotEng         KinEng         TotEng         c_rg1          c_rg2          c_rg3          c_rg4          c_rg5          c_rg6          c_rg7          c_rg8          c_rg9          c_rg10         Press         Density         Volume    
    500796   297.03286     -34507.236      10933.787     -23573.449      10.676701      11.302497      12.920303      11.551819      10.316687      11.473269      11.198465      13.287309      11.358141      12.741091      37.334371      0.94950513     1555074.5    
    510000   296.26662     -34651.38       10905.581     -23745.799      10.61135       11.296838      12.486263      12.205506      9.8997495      11.137424      11.112646      12.824298      10.320976      12.146359     -26.736905      0.95034804     1553695.2    
    520000   299.13184     -34547.781      11011.05      -23536.731      10.940183      11.527077      12.68962       12.13795       9.798095       11.746612      10.998246      12.895654      10.72246       12.702694      25.051494      0.94678519     1559541.9    
    530000   298.87376     -34419.713      11001.55      -23418.163      11.44974       11.01645       13.259319      11.62408       9.8029302      11.285522      11.315254      12.143941      11.018429      12.638943      16.140024      0.94790488     1557699.8    
    540000   298.11036     -34739.225      10973.449     -23765.776      11.212082      11.756318      12.865226      11.670966      10.357901      11.007858      11.489298      11.570011      10.970865      12.82582      -20.677246      0.94942026     1555213.5    
    550000   300.28482     -34580.193      11053.491     -23526.702      11.012685      11.184901      12.967181      11.590297      10.429262      11.213707      11.582731      11.814653      11.740633      12.808249      19.449038      0.94815291     1557292.3    
    560000   301.7803      -34703.661      11108.54      -23595.121      10.862531      11.77082       12.805056      11.736038      10.589022      11.429636      11.570082      12.286798      11.788719      12.269454      3.7970555      0.9492434      1555503.3    
    570000   304.64807     -34636.543      11214.103     -23422.441      11.293451      11.783339      12.824175      11.251736      10.412362      11.389483      11.88523       12.079604      11.498776      13.007826      13.422842      0.94739291     1558541.6    
    580000   300.9194      -34604.723      11076.85      -23527.873      11.126671      11.494633      13.150632      11.108985      10.949468      11.66516       12.289509      11.714357      11.377955      13.220489      14.099576      0.94830442     1557043.5    
    590000   298.66719     -34662.521      10993.946     -23668.575      10.971324      11.196528      12.854475      11.558378      10.440224      11.740475      12.580828      11.859075      11.20059       13.083976     -9.2548944      0.94800145     1557541.1    
    600000   302.40861     -34406.387      11131.668     -23274.719      10.918754      11.162116      13.121827      11.245986      10.524146      11.60656       12.646994      11.954185      11.48251       12.80568      -65.711061      0.94650956     1559996.1    
    610000   298.9353      -34468.412      11003.815     -23464.597      11.076612      11.517756      13.398426      11.333789      10.348391      11.663399      12.2924        12.613256      11.172061      12.997983     -12.064646      0.94818676     1557236.7    
    620000   303.67389     -34576.882      11178.243     -23398.639      11.327557      11.126555      13.460226      11.701302      10.206304      11.8095        11.949088      12.124381      11.428167      12.967475      25.452883      0.949536       1555023.9    
    630000   302.67064     -34617.593      11141.313     -23476.28       11.498958      10.966675      13.289918      11.875151      10.463738      12.028944      12.068253      12.98883       12.08964       13.196798      22.050729      0.9496507      1554836.1    
    640000   297.01556     -34593.302      10933.15      -23660.152      11.110716      10.939919      13.050391      12.345674      10.356886      11.994399      11.778515      12.699628      11.633753      13.302284     -8.7079413      0.94903167     1555850.3    
    650000   296.9507      -34648.128      10930.762     -23717.366      11.218434      11.466568      13.213766      12.031677      10.323765      11.551898      11.916174      13.076428      11.802875      13.281093     -62.48623       0.94907756     1555775.1    
    660000   299.39402     -34463.657      11020.701     -23442.956      11.108971      10.990496      13.331263      12.387566      10.778945      11.635466      12.113109      13.022901      11.555947      13.079329      8.4110715      0.94748838     1558384.5    
    670000   299.3231      -34627.866      11018.09      -23609.776      10.755542      10.883053      12.782103      12.436048      10.640099      11.55016       12.607465      13.148664      11.209555      13.576085      11.186253      0.95003039     1554214.7    
    680000   296.14873     -34653.796      10901.242     -23752.554      10.761161      10.965382      12.511006      12.428584      10.760151      11.766111      12.899546      12.804646      11.604906      13.011597     -19.38519       0.94910196     1555735.1    
    690000   301.59024     -34441.609      11101.544     -23340.065      10.566866      10.776769      12.437563      12.615281      10.562402      11.801571      12.825292      12.870279      11.620659      13.013931     -36.917375      0.94695065     1559269.4    
    700000   304.84112     -34472.276      11221.209     -23251.067      10.960419      10.584118      12.114033      12.710458      10.565188      11.624853      13.049039      13.378487      11.706981      12.760324      51.35987       0.9495203      1555049.6    
    710000   298.18403     -34407.066      10976.161     -23430.904      11.033963      10.774658      12.322456      12.85253       10.904099      11.495111      12.983432      12.55331       11.962773      12.87194       71.847624      0.94776704     1557926.3    
    720000   300.21485     -34622.746      11050.916     -23571.83       11.449958      10.449294      12.38953       12.643704      10.630463      11.232577      13.857991      12.951551      11.078703      12.847884     -31.810821      0.94954541     1555008.5    
    730000   300.60871     -34508.963      11065.414     -23443.549      11.735553      10.738923      11.811278      12.403664      11.103359      12.051242      13.4532        12.540572      11.21478       12.50093      -84.957994      0.94594079     1560934.1    
    740000   302.04021     -34398.969      11118.107     -23280.862      11.261543      10.973313      12.663854      13.356672      10.519241      12.056632      13.40509       12.3782        11.412482      12.574366     -30.470874      0.94676993     1559567.1    
    750000   302.04101     -34736.629      11118.136     -23618.493      11.190955      10.78007       12.78009       12.42633       11.168743      12.589879      13.436823      12.201518      11.384522      12.65529       69.567067      0.95227416     1550552.6    
    760000   297.57936     -34551.674      10953.903     -23597.771      10.842006      10.928876      11.988281      12.229761      10.718919      12.316913      12.764346      12.027824      10.979292      12.855241      33.232995      0.95017431     1553979.3    
    770000   299.60999     -34328.086      11028.651     -23299.435      10.839831      11.381042      11.709937      12.726409      10.414177      12.607615      12.883104      12.083822      11.092048      12.697833      56.735782      0.94924195     1555505.6    
    780000   301.8456      -34650.912      11110.943     -23539.968      11.446529      10.893736      11.712611      12.819249      10.527166      12.621676      12.980299      12.206895      11.178112      12.799523      17.620911      0.94863971     1556493.1    
    790000   294.6775      -34506.73       10847.086     -23659.644      11.739874      10.743299      11.645641      12.79214       10.026803      12.638974      13.339966      12.211263      10.920585      12.93493       12.913364      0.95097445     1552671.8    
    800000   297.76898     -34560.988      10960.883     -23600.104      11.818692      11.176257      11.895428      12.652134      10.134012      12.380999      13.628018      13.158635      11.265495      12.333651      4.1318107      0.95128173     1552170.3    
    810000   303.13566     -34571.286      11158.431     -23412.855      12.167265      10.951221      12.325894      12.705987      10.029948      12.726825      13.243873      13.298684      11.305657      13.338476      18.75734       0.94770776     1558023.8    
    820000   301.08395     -34407.463      11082.907     -23324.556      11.4531        11.242858      12.022547      11.921184      10.082064      12.77848       12.920374      13.435216      11.657451      13.046185     -4.6478105      0.94715676     1558930.1    
    830000   303.42086     -34518.196      11168.929     -23349.267      11.679096      11.599513      11.745431      12.724043      10.174037      12.326866      13.134745      13.637419      11.829481      13.202019     -0.72389229     0.94611162     1560652.2    
    840000   297.53838     -34698.116      10952.395     -23745.721      11.499314      11.244944      11.955273      12.826332      10.333295      12.960984      13.245544      13.311008      11.650387      13.467725      58.361832      0.95327992     1548916.7    
    850000   298.13325     -34524.616      10974.292     -23550.324      11.680461      11.071397      11.740108      13.463756      9.9728855      12.878691      12.597172      13.46578       11.499697      13.395264     -39.747595      0.94798495     1557568.2    
    860000   297.61269     -34582.767      10955.13      -23627.637      11.941614      10.819586      12.057846      13.883312      10.226183      13.332871      12.193358      13.486999      11.296673      12.697435      33.703701      0.94805923     1557446.2    
    870000   304.7602      -34337.926      11218.23      -23119.696      11.722172      10.567578      11.773649      13.467935      10.534266      13.020204      12.767636      13.365731      11.979666      13.125033      70.636078      0.94946014     1555148.2    
    880000   301.54126     -34554.225      11099.741     -23454.484      11.302698      11.036894      11.191583      12.87559       10.493543      13.064445      12.605974      13.201519      12.371213      13.064767     -14.680749      0.94800117     1557541.5    
    890000   303.21846     -34400.949      11161.478     -23239.471      11.051573      11.088326      11.347407      12.889562      10.651242      12.837857      12.110005      13.127711      12.37555       13.69973       50.598271      0.94735786     1558599.2    
    900000   299.42934     -34663.994      11022.001     -23641.993      10.827432      11.080149      11.320414      13.258692      11.209302      12.477267      12.46343       12.999679      12.401993      13.280339      46.633052      0.95120487     1552295.7    
    910000   301.55538     -34331.859      11100.261     -23231.598      11.17873       10.670628      11.275854      13.349009      11.698368      12.841471      12.272226      12.612561      12.543822      13.8274        4.1158679      0.94701705     1559160.1    
    920000   302.32711     -34388.712      11128.668     -23260.044      10.846903      10.770958      11.792905      13.466894      11.598334      12.847166      12.611809      12.551489      12.708929      14.357013      12.54525       0.94743825     1558467      
    930000   298.90186     -34651.323      11002.584     -23648.738      10.903493      10.832106      11.66906       13.159899      11.543754      12.790244      12.023587      12.96528       13.576457      14.0818        12.330154      0.94794424     1557635.1    
    940000   299.58437     -34559.395      11027.708     -23531.688      10.789693      10.634641      11.813569      13.481821      11.157345      12.361457      12.571904      13.223718      13.211121      13.626032     -13.726872      0.94802503     1557502.3    
    950000   301.81531     -34539.126      11109.829     -23429.297      11.235749      10.288209      11.255729      13.600516      11.78545       12.372934      12.995008      12.656638      12.852847      13.650027     -51.01839       0.94838192     1556916.2    
    960000   298.94382     -34637.609      11004.129     -23633.48       10.660244      10.629072      11.513529      13.791506      11.533792      12.551118      13.056522      12.850286      13.26755       13.654196     -36.604626      0.94843127     1556835.2    
    970000   299.97052     -34629.743      11041.922     -23587.822      11.098649      10.572157      11.555635      13.511366      11.121699      12.606472      12.637358      12.985254      12.998372      13.352004      12.803736      0.95010044     1554100.1    
    980000   300.19295     -34562.957      11050.109     -23512.847      11.039645      11.010255      11.449571      13.468499      10.398376      12.37382       12.957416      12.960175      13.481477      13.453558      3.3062854      0.94878662     1556252.1    
    990000   296.56676     -34304.336      10916.63      -23387.706      11.182272      11.091871      11.343136      13.099784      11.051967      11.955072      12.55699       13.111171      13.532594      13.310277      9.5996962      0.9456945      1561340.6    
   1000000   303.04154     -34408.682      11154.966     -23253.716      10.828932      10.865         11.43804       13.231554      10.83355       11.715196      12.945297      12.56956       13.948559      13.016193      15.082527      0.94724878     1558778.7    
   1010000   295.85411     -34492.789      10890.397     -23602.393      10.833905      10.974199      11.239278      13.270808      10.985616      11.93154       12.356177      11.933041      13.458005      12.699552      29.383065      0.95135179     1552056      
   1020000   304.82597     -34593.877      11220.651     -23373.226      10.881484      11.146263      11.493458      12.882665      11.072513      12.380465      12.534886      12.629017      13.937428      13.325644      5.2425827      0.95277769     1549733.2    
   1030000   303.14008     -34694.305      11158.594     -23535.712      10.852405      11.068089      11.954494      13.023005      10.961601      12.372998      13.03234       12.970766      14.731214      12.798737     -43.367076      0.94754445     1558292.3    
   1040000   299.99427     -34294.914      11042.796     -23252.118      11.292919      10.597022      11.577592      12.830531      11.562939      12.421287      13.010734      12.742969      14.614291      13.029019      20.805631      0.948773       1556274.5    
   1050000   300.20158     -34551.719      11050.427     -23501.292      10.856692      10.98159       11.273103      12.932422      11.387925      12.623164      13.273513      12.722742      14.202994      13.672116      34.4577        0.95063388     1553228.1    
   1060000   297.9898      -34516.65       10969.011     -23547.639      10.701669      11.32875       11.392869      12.410927      11.579276      12.72439       13.080933      12.559029      14.245935      13.278034      50.624244      0.94973649     1554695.7    
   1070000   300.4004      -34481.34       11057.746     -23423.594      10.716143      11.520646      11.447089      12.433774      11.784526      12.835888      13.162631      12.878697      14.568387      13.426559      8.0805712      0.94788171     1557737.8    
   1080000   299.56197     -34368.303      11026.883     -23341.42       11.184032      11.367884      11.6558        12.453407      11.829235      12.461567      13.541048      12.636494      14.147675      13.556865     -56.821208      0.94661557     1559821.4    
   1090000   299.30701     -34484.955      11017.498     -23467.457      11.145939      11.129849      11.138073      13.010969      11.912478      13.061364      13.557174      12.485012      14.465718      13.765949     -16.467711      0.94925225     1555488.8    
   1100000   296.46507     -34568.406      10912.886     -23655.52       10.732276      10.73791       10.646196      12.984187      11.632856      13.08309       12.901337      13.242135      14.561313      13.262969      24.49491       0.94974793     1554676.9    
   1110000   298.50365     -34587.284      10987.926     -23599.358      11.044168      11.328265      11.3512        12.972842      11.508814      12.915118      12.478452      13.830351      14.357372      13.604708      12.512039      0.9489685      1555953.9    
   1120000   298.00964     -34556.186      10969.742     -23586.444      11.143895      11.149608      10.99438       12.35743       11.953228      12.710177      12.304787      13.861419      14.360809      13.139555      48.738672      0.95104059     1552563.8    
   1130000   301.77202     -34394.178      11108.235     -23285.943      11.054635      11.380754      11.016621      12.29102       11.920438      13.036038      12.582711      13.743326      13.874033      13.479008     -24.093787      0.94647972     1560045.3    
   1140000   298.47001     -34496.544      10986.688     -23509.856      11.347882      11.323254      10.682205      12.370682      11.913053      13.121017      12.838842      13.723433      13.749815      13.489407     -55.921959      0.94698351     1559215.3    
   1150000   299.98214     -34616.346      11042.35      -23573.996      11.248243      11.584962      10.590343      13.041023      11.848593      12.642018      12.235269      13.771326      14.383088      12.337875      10.07426       0.95030526     1553765.2    
   1160000   299.97455     -34479.847      11042.07      -23437.777      11.235895      11.332936      10.813263      13.043671      12.133764      12.260502      12.781162      13.844152      14.52615       12.944519     -37.716528      0.94800424     1557536.5    
   1170000   303.79105     -34591.152      11182.556     -23408.596      11.260092      11.230668      11.159058      12.889084      11.751893      12.776442      12.570591      14.669624      14.632635      13.312364      27.208695      0.94914585     1555663.1    
   1180000   299.82017     -34385.851      11036.387     -23349.464      11.057292      11.180029      11.195361      12.476356      11.936317      12.727201      12.819176      14.396279      14.411842      13.689711     -38.300483      0.94953559     1555024.6    
   1190000   304.37681     -34558.053      11204.117     -23353.936      11.118461      11.424944      11.084258      12.839333      12.139671      12.897725      12.207031      14.799408      14.190487      13.404562     -16.767133      0.94794109     1557640.3    
   1200000   301.98681     -34514.412      11116.142     -23398.27       11.152725      10.719664      11.655123      12.549566      11.610383      12.408113      12.983433      14.822286      13.945797      13.873962     -17.884368      0.94820355     1557209.1    
   1210000   296.1673      -34479.003      10901.925     -23577.078      11.311093      11.271699      11.575         12.877905      12.261609      12.152221      12.982258      14.508575      13.614942      14.076013      10.038877      0.94943877     1555183.2    
   1220000   298.0363      -34567.722      10970.723     -23596.999      10.795604      11.822171      11.791644      12.913274      11.538998      12.379743      12.797517      14.584457      14.110604      13.758676     -5.0302443      0.94806545     1557435.9    
   1230000   296.38943     -34568.838      10910.102     -23658.736      10.618141      12.007372      12.01058       13.452865      11.960327      11.947082      12.631908      14.029037      14.093805      13.995122     -5.530827       0.95086641     1552848.2    
   1240000   300.09346     -34462.758      11046.447     -23416.311      10.570732      11.432963      12.058833      13.263001      12.371728      11.835212      12.921961      14.393699      13.295311      13.824101     -54.764764      0.94994885     1554348.1    
   1250000   299.68854     -34504.782      11031.542     -23473.239      10.421944      11.651717      11.845095      13.028499      12.018879      12.529515      12.914038      13.898417      13.216632      13.696323     -21.376441      0.94795548     1557616.6    
   1260000   301.00666     -34713.052      11080.062     -23632.99       10.44831       11.825708      12.260543      13.085829      11.911719      12.902533      12.405052      13.972575      13.848547      13.821587     -86.008971      0.94680125     1559515.5    
   1270000   300.32203     -34661.132      11054.861     -23606.272      10.327819      12.160319      11.799936      13.511005      11.70067       12.737227      12.419752      14.488512      13.901012      13.624098     -41.861052      0.94934606     1555335.1    
   1280000   303.40845     -34738.487      11168.472     -23570.015      10.451099      11.714413      12.102651      13.262326      11.602263      12.715354      12.089098      14.617331      14.236426      12.958232      68.525421      0.94933061     1555360.4    
   1290000   295.30028     -34617.541      10870.01      -23747.53       10.382197      11.87968       11.985677      13.246747      11.499724      12.935433      11.885742      13.574821      13.851516      13.250336      38.973614      0.95093949     1552728.9    
   1300000   298.51034     -34523.59       10988.173     -23535.417      9.9067272      11.35025       11.925722      13.312561      11.492189      12.444914      12.075222      13.603261      14.604276      13.268009     -20.893559      0.94779768     1557876      
   1310000   301.33589     -34645.086      11092.181     -23552.905      9.9647456      11.316305      11.851598      12.941258      11.199189      12.725771      12.432325      13.627441      13.832499      12.968009     -19.671105      0.95016567     1553993.4    
   1320000   302.29141     -34499.564      11127.354     -23372.21       10.10161       11.943363      11.564372      13.311149      11.762756      13.101489      12.65396       13.663604      13.657438      13.794777     -22.781069      0.94804792     1557464.7    
   1330000   295.34587     -34709.583      10871.688     -23837.895      10.068067      12.166918      11.424889      13.505733      11.792608      12.551586      12.439329      13.816463      13.915121      13.815097      32.276366      0.95215205     1550751.5    
   1340000   302.20081     -34524.949      11124.019     -23400.93       10.069742      11.790594      11.706218      13.410111      12.553921      12.813315      12.180817      14.046586      14.615331      13.991126     -20.261518      0.94732252     1558657.4    
   1350000   295.84955     -34596.79       10890.229     -23706.561      10.25234       12.0585        11.466181      13.320742      12.123729      14.005228      12.428665      14.248296      14.302796      14.33166      -13.46441       0.94903287     1555848.3    
   1360000   301.10714     -34427.026      11083.761     -23343.266      10.193601      11.426402      11.823061      14.142992      11.578659      13.395934      11.874742      14.231513      14.483545      14.286293      68.694482      0.95022849     1553890.7    
   1370000   296.6879      -34571.023      10921.088     -23649.935      10.5473        12.001768      11.860629      13.828766      11.717832      13.663537      12.222614      14.092522      14.326987      14.591019      15.278214      0.95037014     1553659.1    
   1380000   299.40735     -34615.901      11021.191     -23594.709      10.931364      12.060009      11.342429      13.840253      12.033971      13.609761      12.292632      13.71537       14.038445      14.533212      20.134834      0.9512362      1552244.5    
   1390000   300.03843     -34474.271      11044.421     -23429.849      11.180752      11.425179      11.430777      13.815833      11.837935      13.428325      12.809753      13.42964       14.488691      14.437262      65.99433       0.94993314     1554373.8    
   1400000   301.27637     -34419.923      11089.99      -23329.933      11.366361      11.224002      11.483079      14.245043      12.042377      13.43659       12.342064      13.443252      14.141716      14.034079     -39.925683      0.94521365     1562134.9    
   1410000   299.40739     -34421.132      11021.193     -23399.939      10.965317      11.123331      11.541305      13.456591      12.358915      13.87566       12.65029       13.307805      14.683785      13.787717     -13.317871      0.94693911     1559288.4    
   1420000   300.62649     -34584.668      11066.068     -23518.6        10.564888      11.427559      11.885376      13.182197      11.92538       13.879925      12.674048      12.935443      14.084824      14.051511     -34.26687       0.94493801     1562590.6    
   1430000   304.21343     -34516.458      11198.103     -23318.355      10.894393      11.620818      12.023724      12.94607       11.864693      14.079978      13.02537       13.309119      14.353662      14.399704     -20.520441      0.94744402     1558457.5    
   1440000   299.86535     -34560.184      11038.05      -23522.134      10.709377      11.866775      12.04021       13.151275      12.300482      14.011121      12.992191      12.767538      14.082282      14.660459      39.392979      0.94910613     1555728.2    
   1450000   303.66443     -34568.152      11177.895     -23390.257      10.750859      11.743042      12.187312      13.379499      12.153354      14.062476      12.63124       12.573581      13.522194      14.75882       48.878942      0.94904797     1555823.6    
   1460000   298.48587     -34581.981      10987.272     -23594.709      10.882527      11.936516      12.541215      13.940894      12.060488      14.145552      12.940874      12.67985       13.591213      14.471049     -3.9403104      0.94738974     1558546.8    
   1470000   298.032       -34601.353      10970.565     -23630.788      10.737256      11.585012      11.994408      13.755356      12.199331      13.986487      13.299775      13.172946      14.049931      13.911511      16.859021      0.9503531      1553686.9    
   1480000   297.55855     -34315.579      10953.137     -23362.442      10.670894      11.987261      12.382833      13.651696      12.53531       14.297283      13.331889      13.168983      13.725532      14.14282      -2.4969372      0.94570729     1561319.5    
   1490000   300.65635     -34489.284      11067.167     -23422.117      10.425249      12.402935      12.615051      13.320842      12.316575      14.052935      13.733871      12.896191      13.350825      13.74143      -33.889685      0.94461751     1563120.7    
   1500000   299.15084     -34654.4        11011.749     -23642.65       10.710723      11.942965      12.416808      13.521259      12.63485       13.487569      13.46621       13.08522       13.462855      14.504134     -16.574067      0.94977486     1554632.9    
   1500796   300.23395     -34444          11051.619     -23392.382      10.748319      11.934863      12.420712      13.371016      12.639837      13.619112      13.641833      12.832205      13.560978      14.567992     -1.2568629      0.94868725     1556415.1    
Loop time of 533.847 on 16 procs for 1000000 steps with 12350 atoms

Performance: 161.844 ns/day, 0.148 hours/ns, 1873.195 timesteps/s, 23.134 Matom-step/s
98.0% CPU use with 16 MPI tasks x no OpenMP threads

MPI task timing breakdown:
Section |  min time  |  avg time  |  max time  |%varavg| %total
---------------------------------------------------------------
Pair    | 188.28     | 204.74     | 227.33     |  60.3 | 38.35
Bond    | 76.75      | 80.791     | 87.802     |  26.3 | 15.13
Neigh   | 22.53      | 22.568     | 22.592     |   0.3 |  4.23
Comm    | 97.881     | 127.44     | 148.11     |  96.7 | 23.87
Output  | 0.9217     | 1.1915     | 1.4356     |  14.7 |  0.22
Modify  | 88.003     | 88.682     | 89.808     |   4.0 | 16.61
Other   |            | 8.432      |            |       |  1.58

Nlocal:        771.875 ave         785 max         755 min
Histogram: 1 1 2 1 1 2 0 4 3 1
Nghost:         2299.5 ave        2324 max        2278 min
Histogram: 2 1 1 2 4 2 1 0 1 2
Neighs:        26053.3 ave       26787 max       25053 min
Histogram: 1 2 0 1 2 1 4 1 0 4

Total # of neighbors = 416853
Ave neighs/atom = 33.753279
Ave special neighs/atom = 5.76
Neighbor list builds = 18132
Dangerous builds = 0
unfix           equil
# -----------------------------------------------------
# 6. 数据输出
# -----------------------------------------------------


# # 写出最终体系数据文件
# write_data      pdms_out.data
Total wall time: 0:12:57
