LAMMPS (29 Aug 2024)
# LAMMPS输入文件示例：使用Martini 3粗粒化力场计算PDMS的均方回转半径
# -----------------------------------------------------
# 1. 初始化设置
# -----------------------------------------------------
units               real
dimension           3
boundary            p p p
atom_style          full

# 读取包含PDMS分子结构的data文件
read_data           bad_pdms_100_box.data
Reading data file ...
  orthogonal box = (-1.9905 -2.134501 -2.405997) to (241.4995 241.3355 241.104)
  2 by 2 by 4 MPI processor grid
  reading atoms ...
  98100 atoms
  scanning bonds ...
  1 = max bonds/atom
  scanning angles ...
  1 = max angles/atom
  scanning dihedrals ...
  1 = max dihedrals/atom
  orthogonal box = (-1.9905 -2.134501 -2.405997) to (241.4995 241.3355 241.104)
  2 by 2 by 4 MPI processor grid
  reading bonds ...
  97119 bonds
  reading angles ...
  96138 angles
  reading dihedrals ...
  95157 dihedrals
Finding 1-2 1-3 1-4 neighbors ...
  special bond factors lj:    0        0        0       
  special bond factors coul:  0        0        0       
     2 = max # of 1-2 neighbors
     2 = max # of 1-3 neighbors
     4 = max # of 1-4 neighbors
     6 = max # of special neighbors
  special bonds CPU = 0.006 seconds
  read_data CPU = 0.666 seconds

# -----------------------------------------------------
# 2. 力场参数设置（Martini 3参数）
# -----------------------------------------------------
# 定义非键相互作用（示例：Lennard-Jones势，截断距离可参考Martini 3常用取值）
pair_style lj/cut   12.0
pair_coeff          1 1 0.7337 5.1
special_bonds       lj 0.0 0.0 0.5
Finding 1-2 1-3 1-4 neighbors ...
  special bond factors lj:    0        0        0.5     
  special bond factors coul:  0        0        0       
     2 = max # of 1-2 neighbors
     2 = max # of 1-3 neighbors
     4 = max # of 1-4 neighbors
     6 = max # of special neighbors
  special bonds CPU = 0.004 seconds
# 定义键、角、二面角势（示例参数，实际参数请参考相关文献）
bond_style          harmonic
bond_coeff          1 13.243 4.48
angle_style         harmonic
angle_coeff         1 5.48 86.0
dihedral_style      harmonic
dihedral_coeff      1 0.3346  1  1
# -----------------------------------------------------
# 3. 邻域列表设置
# -----------------------------------------------------
neigh_modify    one 1000
neighbor        1 bin
neigh_modify    delay 0 every 1 check yes

# -----------------------------------------------------
# 4. 能量最小化与预平衡
# -----------------------------------------------------
minimize        1.0e-4 1.0e-6 1000 10000

CITE-CITE-CITE-CITE-CITE-CITE-CITE-CITE-CITE-CITE-CITE-CITE-CITE

Your simulation uses code contributions which should be cited:

- Type Label Framework: https://doi.org/10.1021/acs.jpcb.3c08419

@Article{Gissinger24,
 author = {Jacob R. Gissinger, Ilia Nikiforov, Yaser Afshar, Brendon Waters, Moon-ki Choi, Daniel S. Karls, Alexander Stukowski, Wonpil Im, Hendrik Heinz, Axel Kohlmeyer, and Ellad B. Tadmor},
 title = {Type Label Framework for Bonded Force Fields in LAMMPS},
 journal = {J. Phys. Chem. B},
 year =    2024,
 volume =  128,
 number =  13,
 pages =   {3282–-3297}
}

CITE-CITE-CITE-CITE-CITE-CITE-CITE-CITE-CITE-CITE-CITE-CITE-CITE

Generated 0 of 0 mixed pair_coeff terms from geometric mixing rule
Neighbor list info ...
  update: every = 1 steps, delay = 0 steps, check = yes
  max neighbors/atom: 1000, page size: 100000
  master list distance cutoff = 13
  ghost atom cutoff = 13
  binsize = 6.5, bins = 38 38 38
  1 neighbor lists, perpetual/occasional/extra = 1 0 0
  (1) pair lj/cut, perpetual
      attributes: half, newton on
      pair build: half/bin/newton
      stencil: half/bin/3d
      bin: standard
Per MPI rank memory allocation (min/avg/max) = 10.14 | 10.19 | 10.56 Mbytes
   Step          Temp          E_pair         E_mol          TotEng         Press     
         0   0              9.8057299e+09  278921.67      9.8060088e+09  1.8652243e+08
      1000   0             -396437.55      172593.66     -223843.89      481.38985    
Loop time of 6.83416 on 16 procs for 1000 steps with 98100 atoms

98.6% CPU use with 16 MPI tasks x no OpenMP threads

Minimization stats:
  Stopping criterion = max iterations
  Energy initial, next-to-last, final = 
      9806008793.66089  -223748.441074558  -223843.890171984
  Force two-norm initial, final = 2.3504058e+09 122.16233
  Force max component initial, final = 1.649037e+08 23.808162
  Final line search alpha, max atom move = 0.0048955005 0.11655287
  Iterations, force evaluations = 1000 1000

MPI task timing breakdown:
Section |  min time  |  avg time  |  max time  |%varavg| %total
---------------------------------------------------------------
Pair    | 2.3015     | 2.9887     | 4.1862     |  29.4 | 43.73
Bond    | 0.5409     | 0.64525    | 0.87823    |  11.1 |  9.44
Neigh   | 1.3762     | 1.3806     | 1.3835     |   0.2 | 20.20
Comm    | 0.21345    | 1.4956     | 2.2732     |  43.7 | 21.88
Output  | 0.00010537 | 0.00011134 | 0.00018883 |   0.0 |  0.00
Modify  | 0          | 0          | 0          |   0.0 |  0.00
Other   |            | 0.3239     |            |       |  4.74

Nlocal:        6131.25 ave        7010 max        5353 min
Histogram: 1 2 2 2 1 5 0 0 1 2
Nghost:        5354.25 ave        6402 max        4472 min
Histogram: 4 4 0 0 0 0 1 3 3 1
Neighs:         213944 ave      249449 max      169267 min
Histogram: 1 0 1 2 2 5 1 1 0 3

Total # of neighbors = 3423112
Ave neighs/atom = 34.894108
Ave special neighs/atom = 5.88
Neighbor list builds = 125
Dangerous builds = 0
fix             1 all npt temp 900.0 900.0 100.0 iso 1.0 1.0 1000
timestep        1
thermo_style    custom step temp press density vol
thermo          10000
run             500000
Generated 0 of 0 mixed pair_coeff terms from geometric mixing rule
Per MPI rank memory allocation (min/avg/max) = 9.018 | 9.066 | 9.435 Mbytes
   Step          Temp          Press         Density         Volume    
      1000   0              481.38985      0.8124697      14435884     
     10000   899.45651      2.4186283      0.593021       19777914     
     20000   901.67626     -0.11852431     0.60203936     19481647     
     30000   899.87873      15.525385      0.60323153     19443146     
     40000   897.71537     -1.2089777      0.61275828     19140857     
     50000   900.01445      15.266654      0.62405367     18794407     
     60000   900.23637     -8.1917041      0.62377341     18802851     
     70000   899.5339      -15.413989      0.62748334     18691681     
     80000   901.11328      6.5107426      0.63449883     18485012     
     90000   899.21392      36.788905      0.63563231     18452049     
    100000   897.64088     -4.3395844      0.63540564     18458631     
    110000   896.10862      15.813076      0.63915549     18350337     
    120000   898.58689     -22.800627      0.63554982     18454444     
    130000   900.55394     -3.9839337      0.63788403     18386913     
    140000   906.12306      7.7480977      0.63862563     18365562     
    150000   896.29569      12.666568      0.63744507     18399575     
    160000   899.70657      7.7864236      0.63783323     18388378     
    170000   902.40721      12.559648      0.63853031     18368304     
    180000   899.84985      5.0534829      0.63742339     18400201     
    190000   902.28377      10.60308       0.63867481     18364148     
    200000   900.79606      2.4938183      0.63589609     18444395     
    210000   901.32532     -0.94270272     0.6351357      18466476     
    220000   902.46069      4.5516389      0.63475362     18477592     
    230000   898.96787     -4.4174884      0.63380488     18505251     
    240000   900.82269      15.657806      0.63870466     18363289     
    250000   898.16507     -16.092148      0.63507841     18468142     
    260000   900.3254       9.199646       0.63355748     18512477     
    270000   903.40504      18.411146      0.6364586      18428093     
    280000   897.23575     -12.95336       0.63585553     18445571     
    290000   896.38648      13.470748      0.63130813     18578437     
    300000   899.33839      10.281121      0.63348169     18514692     
    310000   902.83372     -21.411874      0.6380869      18381068     
    320000   900.18657      3.2431423      0.63192831     18560204     
    330000   899.65269     -9.4300586      0.63708602     18409945     
    340000   902.69341     -4.3867013      0.63727533     18404476     
    350000   901.28011      26.942608      0.63989458     18329142     
    360000   901.23847      8.8244331      0.63478119     18476790     
    370000   898.48481      26.650181      0.63642243     18429141     
    380000   902.75346      7.5190191      0.63062261     18598633     
    390000   900.65282     -32.560225      0.63278375     18535113     
    400000   898.85661      7.5267342      0.63299201     18529015     
    410000   903.1171      -13.251258      0.6336515      18509730     
    420000   901.05541     -6.9583661      0.63100186     18587455     
    430000   898.96995     -0.77734885     0.63496668     18471392     
    440000   900.41831      2.1086078      0.63279423     18534806     
    450000   900.06265      6.1743585      0.63089825     18590507     
    460000   902.36295      20.4728        0.63211198     18554811     
    470000   900.03364     -28.825839      0.62770605     18685049     
    480000   893.96181     -1.6666482      0.63091699     18589955     
    490000   905.87202      6.9822086      0.6315501      18571319     
    500000   900.19825     -26.291192      0.63044523     18603866     
    501000   901.37294      30.688708      0.63412736     18495841     
Loop time of 1557.05 on 16 procs for 500000 steps with 98100 atoms

Performance: 27.745 ns/day, 0.865 hours/ns, 321.120 timesteps/s, 31.502 Matom-step/s
98.9% CPU use with 16 MPI tasks x no OpenMP threads

MPI task timing breakdown:
Section |  min time  |  avg time  |  max time  |%varavg| %total
---------------------------------------------------------------
Pair    | 642.66     | 681.2      | 724.18     |  76.4 | 43.75
Bond    | 342.16     | 355.01     | 378        |  50.6 | 22.80
Neigh   | 132.4      | 132.45     | 132.53     |   0.3 |  8.51
Comm    | 193.42     | 255.93     | 298.54     | 178.3 | 16.44
Output  | 0.0031687  | 0.0033177  | 0.0047442  |   0.6 |  0.00
Modify  | 107.74     | 112.55     | 122.2      |  48.4 |  7.23
Other   |            | 19.91      |            |       |  1.28

Nlocal:        6131.25 ave        6246 max        5969 min
Histogram: 2 1 0 0 2 2 2 3 1 3
Nghost:        6075.88 ave        6142 max        5994 min
Histogram: 3 0 1 1 1 3 1 1 1 4
Neighs:         137347 ave      142623 max      131130 min
Histogram: 3 0 0 2 0 4 3 1 0 3

Total # of neighbors = 2197554
Ave neighs/atom = 22.401162
Ave special neighs/atom = 5.88
Neighbor list builds = 16853
Dangerous builds = 0
unfix           1

# variable        lambda equal ramp(0.8,1.0)
# fix             2 all adapt 1 pair lj/cut/soft lambda * * v_lambda

# fix             3 all npt temp 900.0 900.0 100.0 iso 1.0 1.0 1000
# timestep        1
# thermo_style    custom step temp press density vol
# thermo          10000
# run             50000
# unfix           3

# -----------------------------------------------------
# 5. 计算均方回转半径
# -----------------------------------------------------
# 使用compute gyration命令计算整个体系的回转半径
fix             equil all npt temp 900.0 900.0 100.0 iso 1.0 1.0 1000
compute 1 all msd com yes
variable msdx equal c_1[1]
variable msdy equal c_1[2]
variable msdz equal c_1[3]
variable msd equal  c_1[4]
variable istep equal step
fix 2 all print 1 "${istep} ${msdx} ${msdy} ${msdz} ${msd}" screen no file msd.dat
group           pdms1 id <= 100
100 atoms in group pdms1
group           pdms2 id 101:200
100 atoms in group pdms2
group           pdms3 id 201:300
100 atoms in group pdms3
group           pdms4 id 301:400
100 atoms in group pdms4
group           pdms5 id 401:500
100 atoms in group pdms5
group           pdms6 id 501:600
100 atoms in group pdms6
group           pdms7 id 601:700
100 atoms in group pdms7
group           pdms8 id 701:800
100 atoms in group pdms8
group           pdms9 id 801:900
100 atoms in group pdms9
group           pdms10 id 901:1000
100 atoms in group pdms10
# variable        d_end equal "sqrt((x[1]-x[10])^2 + (y[1]-y[10])^2 + (z[1]-z[10])^2)"
compute         rg1 pdms1 gyration
compute         rg2 pdms2 gyration
compute         rg3 pdms3 gyration
compute         rg4 pdms4 gyration
compute         rg5 pdms5 gyration
compute         rg6 pdms6 gyration
compute         rg7 pdms7 gyration
compute         rg8 pdms8 gyration
compute         rg9 pdms9 gyration
compute         rg10 pdms10 gyration
# fix             avg pdms ave/time 1000 800 1000000 c_rg v_d_end file avg.txt
# 输出热力学信息及回转半径数据，每隔1000步输出一次
thermo_style    custom step temp pe ke etotal c_rg1 c_rg2 c_rg3 c_rg4 c_rg5 c_rg6 c_rg7 c_rg8 c_rg9 c_rg10 press density vol
# fix             avg pdms ave/time 1000 800 1000000 c_rg v_d_end file avg.txt
# 输出热力学信息及回转半径数据，每隔1000步输出一次
thermo          10000
# 输出轨迹文件，便于后续可视化与分析
dump            traj all custom 1000 dump.pdms.lammpstrj id type x y z
# 运行模拟，记录回转半径数据（后续可统计分析均值与波动）
run             1000000
Generated 0 of 0 mixed pair_coeff terms from geometric mixing rule
Per MPI rank memory allocation (min/avg/max) = 9.406 | 9.467 | 9.821 Mbytes
   Step          Temp          PotEng         KinEng         TotEng         c_rg1          c_rg2          c_rg3          c_rg4          c_rg5          c_rg6          c_rg7          c_rg8          c_rg9          c_rg10         Press         Density         Volume    
    501000   901.37294     -1367.5805      263574.5       262206.92      22.78789       29.257121      24.673069      23.647448      18.474714      30.844116      23.92037       23.841431      21.82298       21.865385      30.688708      0.63412736     18495841     
    510000   897.40763     -2040.9605      262414.99      260374.03      22.562895      26.994827      23.736254      24.994726      20.106666      29.615008      24.481027      23.252483      21.627816      19.515011      0.57842385     0.63194422     18559737     
    520000   904.47864     -2513.0452      264482.66      261969.61      20.727651      27.440027      23.193365      24.429182      19.338909      30.22922       23.627294      23.623182      24.181633      19.99104      -5.9504636      0.63530449     18461570     
    530000   899.60909     -1890.7968      263058.73      261167.93      19.470559      27.618043      22.552221      24.775077      18.213071      29.354632      23.222621      23.715248      24.773533      20.197806      32.740937      0.63454381     18483702     
    540000   898.44575     -1988.9896      262718.55      260729.56      19.646399      27.36419       21.485981      25.671068      18.795337      28.611333      23.313231      25.26073       23.991902      20.765055      4.4130111      0.63535697     18460046     
    550000   903.45099      193.52444      264182.16      264375.68      19.713341      29.750095      20.373094      26.987049      19.779524      27.925728      22.286232      25.833667      24.718129      21.729382      12.301763      0.62897179     18647448     
    560000   897.10731     -887.74465      262327.17      261439.43      18.918038      29.589587      21.795401      26.082172      18.683031      27.150224      22.701011      25.73313       24.733619      23.416766     -22.302807      0.62964959     18627374     
    570000   897.39946     -1726.4509      262412.6       260686.15      20.51435       30.312083      22.575523      26.575654      17.349957      28.144026      24.527043      27.136856      26.246051      20.037292     -16.985164      0.63238599     18546772     
    580000   900.3472      -1148.97        263274.56      262125.59      20.951822      30.395789      24.592376      26.95146       17.523123      28.374661      23.183228      27.995339      27.587571      21.596047      0.46367206     0.63061193     18598948     
    590000   902.64518     -2017.8789      263946.53      261928.65      17.615819      30.181025      25.187173      28.370636      18.459823      30.941451      24.41898       22.954834      26.333477      22.22481      -6.6463526      0.6330524      18527248     
    600000   900.67687     -1929.4424      263370.96      261441.52      17.648697      31.155787      23.71078       28.569105      19.068196      31.85387       24.56101       24.014924      26.901803      21.910837      0.28675515     0.63265073     18539011     
    610000   898.37137     -938.60134      262696.8       261758.2       17.390696      31.16855       24.41971       30.241079      19.965219      30.718425      28.177431      24.897666      25.986741      23.033639      8.371844       0.6296544      18627232     
    620000   900.52164     -3876.163       263325.57      259449.41      17.395286      30.528312      24.197288      32.308488      20.889821      29.397164      27.939585      25.259673      24.998806      23.938962      11.580572      0.63561613     18452519     
    630000   902.75331     -2202.3457      263978.14      261775.8       16.661332      31.391978      23.218387      31.971888      19.213467      28.500848      26.385314      24.11137       27.291442      22.477102     -6.149487       0.6371293      18408694     
    640000   899.89914     -409.42632      263143.54      262734.12      17.938321      31.835381      22.147925      31.253168      18.266752      30.039001      27.430498      24.53175       27.729042      22.88388      -14.373032      0.62951527     18631349     
    650000   899.90295     -2088.9492      263144.66      261055.71      18.533709      32.676627      23.846372      32.742933      19.701493      29.582141      27.282948      25.108549      26.643184      20.997846     -5.7260918      0.63545872     18457089     
    660000   898.37948     -1559.457       262699.17      261139.72      18.715808      32.162237      23.898086      32.921931      19.189884      31.174638      27.101646      24.386521      25.124385      20.330534      0.26318669     0.63178065     18564542     
    670000   902.55642     -2216.8907      263920.57      261703.68      18.865735      33.340432      22.487264      33.632323      19.251642      31.068613      26.991517      25.567633      26.768457      23.667591      26.549254      0.63325993     18521176     
    680000   901.73367     -1695.8644      263679.99      261984.12      20.343066      30.943935      22.501916      33.720472      19.795135      30.748905      25.758587      26.328134      26.660228      25.932123      7.9163158      0.63422387     18493026     
    690000   897.86119     -1844.7448      262547.62      260702.87      19.533938      33.72193       23.710342      31.977794      19.022853      30.687072      23.059226      24.22328       27.801072      24.592378     -9.1227522      0.63496634     18471402     
    700000   902.01044     -895.88086      263760.92      262865.04      19.062129      33.543039      23.182977      30.496683      20.447009      31.207888      21.740171      25.060642      26.589929      24.189273      4.6902292      0.63127329     18579463     
    710000   900.4935      -776.02776      263317.34      262541.31      21.17935       35.13441       23.454815      29.972731      20.659771      30.461576      24.338443      26.049532      25.653882      26.150276     -3.6497163      0.62920982     18640393     
    720000   902.11599     -1896.2239      263791.78      261895.56      20.497056      35.727282      21.801166      30.076663      19.747206      28.004631      24.40632       26.52885       24.879306      26.356591      3.6350291      0.63353725     18513069     
    730000   902.51553     -3000.8025      263908.61      260907.81      21.310521      35.239879      21.16461       30.629528      19.77844       28.535944      25.975552      26.824004      23.422407      25.027463      13.293506      0.63507877     18468132     
    740000   896.64661     -929.46382      262192.46      261262.99      20.418488      33.1584        20.359601      29.381385      20.385679      28.660841      24.569962      28.409095      25.432768      23.879447     -13.741555      0.6314195      18575160     
    750000   900.71296     -718.2598       263381.52      262663.26      19.084698      33.484032      21.05413       30.212369      19.036369      29.487283      23.604891      28.433144      24.669425      23.255346      5.0845655      0.63164336     18568577     
    760000   899.77822     -654.03448      263108.19      262454.15      17.452054      31.357141      23.098466      29.491573      19.173377      30.720266      24.494571      28.432341      25.458976      22.818535     -10.113072      0.62848627     18661853     
    770000   898.34402     -1418.6882      262688.8       261270.11      18.325048      30.011669      23.343418      27.465222      19.389701      28.287677      26.248618      29.44992       26.990079      23.843461      10.580793      0.63209753     18555235     
    780000   899.11886     -1986.334       262915.38      260929.04      18.036966      29.809942      23.763254      28.773261      18.143227      28.91679       25.670495      31.13215       25.626377      25.372496      29.476874      0.63363389     18510245     
    790000   900.80746     -1750.4656      263409.15      261658.68      18.157777      28.038445      22.297668      29.017055      19.135952      30.039186      25.379118      31.135714      25.350514      26.838407     -6.6444221      0.6328587      18532918     
    800000   900.30737     -2899.7015      263262.91      260363.21      20.324208      29.546449      22.848628      28.466718      19.939401      28.978087      26.359334      33.407941      23.076959      27.377597     -20.560479      0.63457506     18482791     
    810000   897.89956     -196.8489       262558.84      262361.99      19.737465      29.858501      24.18868       26.840091      17.451589      29.898988      25.284138      33.887148      23.673878      24.322191      1.3363556      0.62890289     18649490     
    820000   900.99772     -1680.5522      263464.78      261784.23      20.524176      31.457162      24.602853      24.432962      17.591805      29.700198      26.197635      32.655404      23.529128      23.982417     -4.5246023      0.63215382     18553583     
    830000   895.57909     -2540.6497      261880.3       259339.65      21.414056      30.856875      26.620357      23.546084      18.238498      29.958171      22.406916      32.103836      25.678605      23.025203     -0.38002228     0.63217825     18552866     
    840000   899.66843     -1225.0728      263076.08      261851.01      21.565917      32.899317      26.479827      24.364061      20.251205      30.412792      23.568339      30.240652      24.96052       24.227418      2.3994152      0.63188163     18561575     
    850000   898.91976     -2387.2958      262857.16      260469.86      22.521488      33.718604      26.164579      22.392916      17.897783      30.52463       24.400437      31.644499      24.979726      24.50507       5.0501426      0.63377108     18506238     
    860000   898.80391     -733.45698      262823.28      262089.83      23.465895      36.157115      24.527138      24.500338      20.929301      31.164886      25.680414      32.162633      24.533025      25.801522     -19.168354      0.63304039     18527599     
    870000   899.04633     -245.9762       262894.17      262648.19      22.36382       35.229305      23.641879      24.775048      17.58165       31.414769      25.095835      31.734258      24.576523      25.314189     -18.858946      0.62793134     18678346     
    880000   899.08938     -1305.7321      262906.76      261601.03      22.940538      35.490879      22.765645      26.545119      17.082333      31.812606      25.746218      31.306694      26.291435      25.16922      -6.1407731      0.63112555     18583812     
    890000   898.84818     -1252.1404      262836.23      261584.09      23.374876      34.08889       23.282612      25.827699      17.21925       30.849828      24.076984      32.299492      25.929801      25.688089     -15.64749       0.63149253     18573012     
    900000   901.21077     -1384.4633      263527.08      262142.62      23.392388      35.357643      23.126195      24.448937      19.106722      30.991552      22.153956      31.544157      25.08272       26.585384      12.711206      0.63344894     18515650     
    910000   900.13936     -1182.2746      263213.79      262031.51      23.201111      36.0607        21.475523      24.859616      17.753493      31.621559      23.786061      32.229933      26.026942      27.45127       28.750742      0.63115041     18583080     
    920000   900.69354     -2147.5406      263375.84      261228.3       21.296819      37.190582      20.857962      23.401216      18.767414      33.014967      23.843804      32.367998      27.541828      26.534822      2.6702363      0.63067276     18597154     
    930000   899.84158      343.83701      263126.71      263470.55      20.705541      36.161328      20.44791       24.027159      17.307083      31.245769      25.45278       32.630159      27.763918      26.276777      0.15932845     0.62974887     18624438     
    940000   900.23121     -826.68315      263240.64      262413.96      21.457661      37.177529      19.82495       24.092297      18.221823      32.405868      27.620062      32.536555      27.727249      25.313491     -28.192019      0.63005434     18615408     
    950000   900.6509       158.89673      263363.37      263522.26      21.428256      35.861896      20.327581      27.244224      19.503081      32.617442      28.313063      33.893071      28.666414      25.345319      9.3523156      0.63070256     18596276     
    960000   894.36259     -444.46591      261524.58      261080.11      19.827065      33.859936      18.619958      25.339198      20.071555      33.441803      28.330437      33.08742       26.683418      26.268228      12.481989      0.63037548     18605924     
    970000   898.01679      10.397211      262593.12      262603.51      18.854867      33.261718      17.718215      24.460858      19.300193      31.700539      27.720412      31.943745      26.864591      27.909547      16.210192      0.62794181     18678034     
    980000   898.19239     -755.87186      262644.47      261888.59      19.417923      32.806195      18.179125      25.55761       19.906676      32.741899      27.889867      34.058739      26.250737      27.631608      1.4238048      0.62872653     18654722     
    990000   897.81883     -999.72496      262535.23      261535.5       19.874166      34.457705      19.357321      25.625423      19.331008      30.750129      28.789995      35.630689      25.369837      29.294407      3.913911       0.63126321     18579759     
   1000000   900.64311      450.2069       263361.09      263811.3       19.675214      33.136838      18.811796      26.871937      19.850429      31.68091       27.550092      37.496377      26.08782       28.813283     -31.364324      0.62633376     18725988     
   1010000   896.90149      419.61527      262266.99      262686.6       20.980231      33.645647      19.197918      23.925085      20.891279      31.213446      25.847381      35.638627      26.770601      26.698789      5.9712427      0.62868917     18655830     
   1020000   896.47301     -152.19965      262141.69      261989.49      19.722851      33.943076      19.904739      23.43662       20.889007      32.524368      24.299333      35.372389      28.756774      23.74792      -25.293531      0.63164862     18568423     
   1030000   900.34191     -244.58719      263273.02      263028.43      20.762293      35.507103      20.20992       24.05589       19.782288      32.60588       24.127162      37.167151      28.499711      23.196468     -6.7336725      0.62876759     18653504     
   1040000   898.26044     -683.84248      262664.36      261980.52      19.623158      35.941572      19.673719      24.417812      19.359343      31.116022      23.44522       38.972439      28.322894      22.618348      20.985669      0.63006264     18615163     
   1050000   901.42022     -13.613548      263588.33      263574.72      19.368904      34.530178      19.363761      24.496861      20.554896      30.326036      24.456326      39.290639      28.09075       22.099129     -3.2649687      0.62806095     18674491     
   1060000   897.37094     -695.84353      262404.26      261708.42      19.990394      34.493409      18.245221      24.735009      18.766014      30.133161      26.226411      40.088454      28.757281      21.862508     -5.8084544      0.62969191     18626122     
   1070000   896.89569     -1606.9732      262265.29      260658.32      19.119886      33.612171      18.541971      23.701019      20.415905      31.894395      23.859217      40.812766      29.391913      22.36784       9.8637142      0.63371278     18507941     
   1080000   902.92826     -530.89017      264029.3       263498.41      18.017198      32.914588      20.858015      24.027656      20.523224      32.482815      21.875735      39.683665      29.571171      20.656836      2.7732347      0.63212694     18554372     
   1090000   897.53064     -1113.877       262450.96      261337.08      18.262533      32.711707      20.679763      24.118361      19.560225      32.018099      23.945433      38.710299      30.337524      19.834839     -6.3881531      0.62824688     18668964     
   1100000   899.8138      -2119.5244      263118.59      260999.07      20.463468      33.444434      21.016264      25.45611       19.165546      32.967884      22.700199      39.522739      28.301313      18.43644       22.141831      0.63315355     18524288     
   1110000   895.68401     -512.00301      261910.98      261398.97      19.983274      36.169044      19.825647      25.296982      19.57536       33.035788      22.980413      39.41527       30.149786      19.81965       6.6406831      0.63022        18610515     
   1120000   897.76758     -1601.4009      262520.24      260918.84      18.583739      35.668584      20.524951      27.268756      18.304796      32.944372      23.463052      40.940824      30.214242      22.039104      6.7774462      0.63193757     18559932     
   1130000   896.36994     -893.52506      262111.56      261218.03      18.397183      35.911051      20.329319      26.113313      18.931042      33.364929      22.14517       39.596776      29.585432      23.256291      10.283514      0.62997218     18617836     
   1140000   902.10314     -1854.9271      263788.02      261933.1       18.421921      36.909053      19.479157      24.703449      19.083395      34.885615      21.414149      39.797231      30.528242      23.2937        7.8341265      0.63360167     18511186     
   1150000   899.23152      354.49044      262948.32      263302.81      18.023057      35.933326      20.884636      25.611076      19.809608      36.032499      21.233102      42.201101      29.43711       22.87304      -7.1510393      0.62844966     18662940     
   1160000   900.06947     -1732.0331      263193.35      261461.32      18.102181      35.81703       21.009764      26.806025      18.990028      34.71877       22.322119      42.602604      27.047351      23.221863      4.0007479      0.63278906     18534958     
   1170000   903.19544     -621.55979      264107.43      263485.87      20.568312      35.945705      21.809003      25.488657      19.632379      35.700066      23.519172      43.664735      26.85779       23.262195     -3.0636572      0.6309962      18587621     
   1180000   900.52407     -1043.4367      263326.28      262282.85      22.601667      35.360566      22.234593      25.00675       19.485335      35.176628      21.719177      40.3707        26.33092       23.020312      4.5404018      0.63307812     18526495     
   1190000   904.34513     -1215.8315      264443.62      263227.78      22.04439       34.109747      22.632013      24.165434      19.495543      35.417151      23.99          40.612205      27.756873      20.991269      4.5787058      0.62863582     18657414     
   1200000   896.64346      505.76791      262191.53      262697.3       23.018742      33.601191      23.764699      25.401128      17.335208      34.385428      21.603421      40.096396      28.095163      22.146854     -5.5680707      0.62940541     18634601     
   1210000   899.12356     -1297.2097      262916.75      261619.54      21.63558       33.91644       23.077546      27.965931      18.476497      34.106844      22.450187      40.523483      28.416599      22.14051       9.1867496      0.63089483     18590608     
   1220000   899.02145     -56.669904      262886.89      262830.22      24.624626      34.067636      22.440408      27.416296      17.060608      32.010208      21.155704      40.611113      28.022817      22.472543      14.056076      0.62993998     18618787     
   1230000   901.132        384.16226      263504.05      263888.21      23.250039      35.752918      24.054722      28.321207      19.845277      31.53825       22.17482       39.166688      27.519995      20.684758     -7.3272023      0.62866031     18656687     
   1240000   901.65284     -230.66361      263656.35      263425.69      23.198218      36.594439      23.648515      28.221257      19.630268      32.672654      22.370371      38.94525       29.2798        22.610942     -1.3714623      0.62790325     18679181     
   1250000   898.01768     -583.58803      262593.38      262009.79      23.200594      36.138396      23.669903      29.398465      17.317224      33.81314       22.736453      38.760944      29.957049      21.757949      18.713266      0.6291968      18640779     
   1260000   901.49293      119.88788      263609.59      263729.48      22.851825      37.788884      22.539725      30.866632      15.81927       33.980869      23.045144      39.055402      26.849764      22.730074      8.295789       0.62835437     18665771     
   1270000   897.47572     -584.11062      262434.9       261850.79      23.369467      37.824827      23.259         31.074854      16.348974      32.118509      21.36869       36.710461      27.083697      23.649647      9.0894229      0.62852661     18660656     
   1280000   897.6581       95.606328      262488.23      262583.84      21.715098      36.589382      21.043797      29.529148      16.583394      32.653576      22.567645      36.909358      29.153778      21.192377      10.608237      0.62612531     18732222     
   1290000   894.73741      18.858516      261634.18      261653.04      20.902198      38.115765      23.301824      28.677319      18.763706      34.066755      21.385402      35.884478      27.779548      21.940231     -2.5581295      0.62778739     18682628     
   1300000   897.24389     -136.8805       262367.11      262230.23      21.366599      38.196562      20.714536      26.854384      18.780667      33.715051      21.317436      33.573668      28.212401      21.089546     -22.194596      0.62988315     18620467     
   1310000   897.61352     -431.31806      262475.2       262043.88      23.352925      36.350899      21.165821      27.279396      17.552381      34.710599      20.298702      34.545102      29.542921      21.50149      -3.4563998      0.63042348     18604508     
   1320000   893.60498      367.72792      261303.04      261670.77      22.912394      33.053465      22.716612      26.490369      18.590939      35.434692      21.045015      33.578325      32.451853      19.873533      0.61717243     0.6261353      18731923     
   1330000   899.88229     -240.91067      263138.62      262897.7       23.626373      32.423251      24.491077      24.850208      19.18796       35.669672      23.280054      32.077113      32.829923      19.75849       9.690024       0.6290415      18645381     
   1340000   902.51326     -70.475246      263907.95      263837.48      21.862273      33.025007      25.730273      25.963359      17.956816      35.492303      20.973833      33.544239      31.95489       20.833023     -0.7701121      0.62846485     18662489     
   1350000   902.23839     -495.35659      263827.57      263332.22      21.757427      33.72016       26.984356      25.893937      19.914308      33.876081      18.884242      37.004933      32.013893      22.664514     -6.4044482      0.62671191     18714689     
   1360000   899.94513     -526.41378      263156.99      262630.58      23.017439      32.160775      27.071739      27.559436      21.12722       33.95418       17.408373      35.632259      32.843054      22.947524     -1.5902154      0.62746626     18692190     
   1370000   902.12322     -490.68389      263793.9       263303.21      22.691682      30.279674      26.319151      26.978562      19.332287      34.661435      19.030285      31.31345       32.423581      25.062052      27.566495      0.63028743     18608524     
   1380000   906.69833      323.49805      265131.73      265455.22      23.194447      31.353979      27.60906       29.597122      19.678102      38.270616      21.211049      29.587001      32.879577      22.678748      11.465707      0.6288272      18651735     
   1390000   902.49416     -1006.6666      263902.36      262895.7       23.458424      31.825298      28.478245      30.557949      18.930944      39.267002      21.431318      29.87146       33.33832       22.988981      9.3250845      0.63216947     18553124     
   1400000   896.86716     -923.97974      262256.95      261332.97      22.267922      33.896846      27.87823       30.406726      20.497592      39.298321      21.650293      31.122625      31.132836      22.482711     -24.382913      0.63220158     18552182     
   1410000   896.95664      642.8757       262283.11      262925.99      22.220795      32.066485      26.619536      31.793944      19.274277      39.406096      23.204441      31.667538      30.312958      23.024028     -29.149541      0.628508       18661208     
   1420000   899.54708     -1470.9931      263040.6       261569.6       21.465204      32.139223      27.324516      32.163205      20.17823       39.736805      22.331911      31.570337      30.077388      23.461666      14.36247       0.63053131     18601326     
   1430000   901.24562      1007.9228      263537.27      264545.2       22.211931      32.796956      26.536308      30.436457      20.136116      40.188589      21.248907      30.572899      31.353715      24.059363      8.527527       0.62858402     18658951     
   1440000   902.84924     -634.48025      264006.19      263371.71      21.830732      32.909583      24.818735      27.919998      19.218224      39.76716       23.719147      28.830715      31.481328      23.99654       12.820624      0.62908741     18644020     
   1450000   905.89318      1192.8136      264896.29      266089.1       23.729653      32.6428        24.637281      29.078643      18.84601       38.852501      23.107179      28.423794      34.347075      23.860048      0.34897423     0.62914694     18642256     
   1460000   899.93962     -156.77124      263155.38      262998.61      24.283353      29.859604      24.915789      28.981048      17.720435      40.132811      22.458276      30.243582      34.666122      24.688417      11.358356      0.6292954      18637858     
   1470000   900.28081     -706.68019      263255.15      262548.47      22.7436        30.88964       24.521632      28.849657      15.279         39.437048      22.905113      29.777223      35.568114      25.113824     -21.441791      0.62846754     18662409     
   1480000   894.62282     -194.03283      261600.67      261406.64      21.530721      29.891583      25.918027      29.138243      17.357936      39.422876      22.385647      29.982477      35.905114      23.6501        20.485001      0.62987907     18620588     
   1490000   901.50021     -455.10565      263611.72      263156.61      23.751055      30.574443      27.177268      30.07064       17.003133      36.479863      23.060527      29.284356      35.496035      24.818198      15.739551      0.63061123     18598969     
   1500000   899.08977      32.689818      262906.87      262939.56      23.236736      32.437793      27.301726      32.144183      15.93464       37.30858       25.041947      31.054311      38.992996      22.673825      11.23631       0.62895031     18648084     
   1501000   898.96497      503.31695      262870.38      263373.7       23.111513      32.34552       26.889846      32.103309      16.118572      37.075295      24.966605      31.423625      38.927836      22.391074     -8.0426003      0.62759236     18688434     
Loop time of 3212.72 on 16 procs for 1000000 steps with 98100 atoms

Performance: 26.893 ns/day, 0.892 hours/ns, 311.263 timesteps/s, 30.535 Matom-step/s
98.8% CPU use with 16 MPI tasks x no OpenMP threads

MPI task timing breakdown:
Section |  min time  |  avg time  |  max time  |%varavg| %total
---------------------------------------------------------------
Pair    | 1333       | 1353.6     | 1400.6     |  50.4 | 42.13
Bond    | 698.01     | 711.97     | 744.58     |  43.8 | 22.16
Neigh   | 260.14     | 260.36     | 260.57     |   0.7 |  8.10
Comm    | 415.05     | 493.85     | 527.72     | 131.9 | 15.37
Output  | 6.8306     | 8.6702     | 10.467     |  38.2 |  0.27
Modify  | 338.48     | 343.4      | 346.44     |  11.5 | 10.69
Other   |            | 40.91      |            |       |  1.27

Nlocal:        6131.25 ave        6279 max        6005 min
Histogram: 1 1 1 2 5 3 1 0 1 1
Nghost:        6047.44 ave        6175 max        5954 min
Histogram: 3 1 1 1 5 1 2 0 1 1
Neighs:         135748 ave      141764 max      130932 min
Histogram: 1 1 1 5 3 1 2 0 0 2

Total # of neighbors = 2171973
Ave neighs/atom = 22.140398
Ave special neighs/atom = 5.88
Neighbor list builds = 33475
Dangerous builds = 0
unfix           equil
# -----------------------------------------------------
# 6. 数据输出
# -----------------------------------------------------


# # 写出最终体系数据文件
# write_data      pdms_out.data
Total wall time: 1:19:37
