LAMMPS (29 Aug 2024)
# LAMMPS输入文件示例：使用Martini 3粗粒化力场计算PDMS的均方回转半径
# -----------------------------------------------------
# 1. 初始化设置
# -----------------------------------------------------
units               real
dimension           3
boundary            p p p
atom_style          full

# 读取包含PDMS分子结构的data文件
read_data           bad_pdms_10_box_is.data
Reading data file ...
  orthogonal box = (-2.244003 -2.305001 -2.255498) to (151.326 151.245 151.2745)
  4 by 2 by 2 MPI processor grid
  reading atoms ...
  26130 atoms
  scanning bonds ...
  1 = max bonds/atom
  scanning angles ...
  1 = max angles/atom
  scanning dihedrals ...
  1 = max dihedrals/atom
  orthogonal box = (-2.244003 -2.305001 -2.255498) to (151.326 151.245 151.2745)
  4 by 2 by 2 MPI processor grid
  reading bonds ...
  23517 bonds
  reading angles ...
  20904 angles
  reading dihedrals ...
  18291 dihedrals
Finding 1-2 1-3 1-4 neighbors ...
  special bond factors lj:    0        0        0       
  special bond factors coul:  0        0        0       
     2 = max # of 1-2 neighbors
     2 = max # of 1-3 neighbors
     4 = max # of 1-4 neighbors
     6 = max # of special neighbors
  special bonds CPU = 0.002 seconds
  read_data CPU = 0.133 seconds
mass                1 72
# -----------------------------------------------------
# 2. 力场参数设置（Martini 3参数）
# -----------------------------------------------------
# 定义非键相互作用（示例：Lennard-Jones势，截断距离可参考Martini 3常用取值）
pair_style lj/cut   12.0
special_bonds       lj 0.0 0.0 0.5
Finding 1-2 1-3 1-4 neighbors ...
  special bond factors lj:    0        0        0.5     
  special bond factors coul:  0        0        0       
     2 = max # of 1-2 neighbors
     2 = max # of 1-3 neighbors
     4 = max # of 1-4 neighbors
     6 = max # of special neighbors
  special bonds CPU = 0.001 seconds
pair_coeff          1 1 0.7337 5.1
# 定义键、角、二面角势（示例参数，实际参数请参考相关文献）
bond_style          harmonic
bond_coeff          1 13.243 4.48
angle_style         harmonic
angle_coeff         1 5.48 86.0
dihedral_style      harmonic
dihedral_coeff      1 0.3346  1  1
# -----------------------------------------------------
# 3. 邻域列表设置
# -----------------------------------------------------
neigh_modify    one 1000
neighbor        1 bin
neigh_modify    delay 0 every 1 check yes

# -----------------------------------------------------
# 4. 能量最小化与预平衡
# -----------------------------------------------------
minimize        1.0e-4 1.0e-6 1000 10000

CITE-CITE-CITE-CITE-CITE-CITE-CITE-CITE-CITE-CITE-CITE-CITE-CITE

Your simulation uses code contributions which should be cited:

- Type Label Framework: https://doi.org/10.1021/acs.jpcb.3c08419

@Article{Gissinger24,
 author = {Jacob R. Gissinger, Ilia Nikiforov, Yaser Afshar, Brendon Waters, Moon-ki Choi, Daniel S. Karls, Alexander Stukowski, Wonpil Im, Hendrik Heinz, Axel Kohlmeyer, and Ellad B. Tadmor},
 title = {Type Label Framework for Bonded Force Fields in LAMMPS},
 journal = {J. Phys. Chem. B},
 year =    2024,
 volume =  128,
 number =  13,
 pages =   {3282–-3297}
}

CITE-CITE-CITE-CITE-CITE-CITE-CITE-CITE-CITE-CITE-CITE-CITE-CITE

Generated 0 of 0 mixed pair_coeff terms from geometric mixing rule
Neighbor list info ...
  update: every = 1 steps, delay = 0 steps, check = yes
  max neighbors/atom: 1000, page size: 100000
  master list distance cutoff = 13
  ghost atom cutoff = 13
  binsize = 6.5, bins = 24 24 24
  1 neighbor lists, perpetual/occasional/extra = 1 0 0
  (1) pair lj/cut, perpetual
      attributes: half, newton on
      pair build: half/bin/newton
      stencil: half/bin/3d
      bin: standard
Per MPI rank memory allocation (min/avg/max) = 8.442 | 8.499 | 8.894 Mbytes
   Step          Temp          E_pair         E_mol          TotEng         Press     
         0   0              4.3895183e+10  85096.84       4.3895268e+10  3.32596e+09  
      1000   0             -116525.26      36737.861     -79787.401      418.36343    
Loop time of 2.01663 on 16 procs for 1000 steps with 26130 atoms

97.7% CPU use with 16 MPI tasks x no OpenMP threads

Minimization stats:
  Stopping criterion = max iterations
  Energy initial, next-to-last, final = 
      43895268431.9071  -79746.8945935984  -79787.4005709236
  Force two-norm initial, final = 2.9141275e+10 44.242675
  Force max component initial, final = 1.2067462e+09 13.158673
  Final line search alpha, max atom move = 0.0067213703 0.088444313
  Iterations, force evaluations = 1000 1001

MPI task timing breakdown:
Section |  min time  |  avg time  |  max time  |%varavg| %total
---------------------------------------------------------------
Pair    | 0.48739    | 0.80087    | 1.2102     |  22.6 | 39.71
Bond    | 0.097542   | 0.12908    | 0.17037    |   6.1 |  6.40
Neigh   | 0.41824    | 0.42211    | 0.42536    |   0.4 | 20.93
Comm    | 0.15502    | 0.5565     | 0.82989    |  24.2 | 27.60
Output  | 8.439e-05  | 8.9735e-05 | 0.00016582 |   0.0 |  0.00
Modify  | 0          | 0          | 0          |   0.0 |  0.00
Other   |            | 0.108      |            |       |  5.35

Nlocal:        1633.12 ave        1970 max        1361 min
Histogram: 5 1 2 0 0 0 2 3 2 1
Nghost:        2806.44 ave        3360 max        2188 min
Histogram: 2 2 4 0 0 0 0 1 2 5
Neighs:        59004.8 ave       81139 max       41918 min
Histogram: 4 1 2 1 2 0 1 1 3 1

Total # of neighbors = 944077
Ave neighs/atom = 36.130004
Ave special neighs/atom = 4.8
Neighbor list builds = 128
Dangerous builds = 0
fix             1 all npt temp 300.0 300.0 100.0 iso 1.0 1.0 1000
timestep        1
thermo_style    custom step temp press density vol
thermo          10000
run             500000
Generated 0 of 0 mixed pair_coeff terms from geometric mixing rule
Per MPI rank memory allocation (min/avg/max) = 7.319 | 7.399 | 7.769 Mbytes
   Step          Temp          Press         Density         Volume    
      1000   0              418.36343      0.86292189     3620341      
     10000   298.3764      -9.0193276      0.81277491     3843710.6    
     20000   299.31574     -26.266824      0.89277258     3499291.5    
     30000   301.04755     -55.987411      0.90897293     3436924.7    
     40000   300.14371     -5.571881       0.91816729     3402508      
     50000   301.75862      5.8309347      0.91945272     3397751.1    
     60000   297.86763     -5.4052366      0.92257881     3386238.1    
     70000   301.02858      18.980331      0.92064245     3393360.3    
     80000   298.27417     -2.6099754      0.92224829     3387451.7    
     90000   300.59175     -4.7029215      0.92176891     3389213.4    
    100000   300.00678     -20.321735      0.92074707     3392974.7    
    110000   299.59047      42.139307      0.92065241     3393323.5    
    120000   298.20219     -30.175173      0.92165485     3389632.8    
    130000   303.33815      16.291641      0.921706       3389444.7    
    140000   300.4385       15.51001       0.92218914     3387669      
    150000   296.68872     -16.599394      0.92036882     3394369.1    
    160000   299.90319      26.536591      0.92285044     3385241.4    
    170000   297.69699     -15.383907      0.92113205     3391556.6    
    180000   296.39195     -10.745862      0.92169866     3389471.7    
    190000   299.09696      15.363114      0.92055419     3393685.6    
    200000   299.21841     -0.767882       0.92181246     3389053.2    
    210000   299.96259      56.683314      0.92154846     3390024.1    
    220000   300.96014      25.106207      0.92194275     3388574.3    
    230000   298.62091     -19.459248      0.92099577     3392058.5    
    240000   298.80561      13.421236      0.92386072     3381539.5    
    250000   299.58445      10.680294      0.92356747     3382613.2    
    260000   300.52299     -14.451971      0.92053472     3393757.4    
    270000   298.64011     -6.5939165      0.92140874     3390538.2    
    280000   298.4731      -48.984698      0.92084413     3392617      
    290000   299.34921      13.155148      0.92118853     3391348.7    
    300000   299.07567      8.9289157      0.92348223     3382925.4    
    310000   297.29533     -32.722256      0.92276485     3385555.4    
    320000   299.56761     -1.5549035      0.92148203     3390268.5    
    330000   299.62906     -11.993273      0.92140478     3390552.7    
    340000   297.95838     -5.8571643      0.92039278     3394280.7    
    350000   299.38542     -11.238668      0.92255692     3386318.5    
    360000   302.75614     -55.593407      0.92037741     3394337.5    
    370000   300.50132     -2.1248854      0.92278318     3385488.1    
    380000   299.46596      18.227331      0.92091514     3392355.5    
    390000   298.76706      25.225537      0.92252613     3386431.4    
    400000   300.60275      12.920534      0.92282941     3385318.5    
    410000   302.04606      0.35127831     0.92222261     3387546      
    420000   299.78522      2.4842884      0.92221897     3387559.4    
    430000   299.82408     -23.924034      0.91974554     3396669.4    
    440000   300.2162      -2.0174224      0.92253131     3386412.4    
    450000   301.54625      4.6923483      0.92199211     3388392.9    
    460000   301.64898     -13.066789      0.92088264     3392475.2    
    470000   298.56314     -54.291068      0.92029392     3394645.4    
    480000   302.67807     -13.270547      0.92186294     3388867.7    
    490000   300.58253      15.634669      0.92246245     3386665.2    
    500000   295.38344      13.849065      0.92276374     3385559.5    
    501000   301.90282     -8.275066       0.92074327     3392988.7    
Loop time of 481.482 on 16 procs for 500000 steps with 26130 atoms

Performance: 89.723 ns/day, 0.267 hours/ns, 1038.461 timesteps/s, 27.135 Matom-step/s
98.7% CPU use with 16 MPI tasks x no OpenMP threads

MPI task timing breakdown:
Section |  min time  |  avg time  |  max time  |%varavg| %total
---------------------------------------------------------------
Pair    | 233.71     | 243.89     | 256.89     |  43.2 | 50.65
Bond    | 69.353     | 71.567     | 74.7       |  22.1 | 14.86
Neigh   | 23.595     | 23.602     | 23.614     |   0.1 |  4.90
Comm    | 83.678     | 99.698     | 111.78     |  84.4 | 20.71
Output  | 0.0018946  | 0.0019947  | 0.0032755  |   0.7 |  0.00
Modify  | 35.775     | 36.149     | 37.019     |   5.3 |  7.51
Other   |            | 6.572      |            |       |  1.36

Nlocal:        1633.12 ave        1648 max        1611 min
Histogram: 1 1 2 0 1 3 1 1 3 3
Nghost:        3377.75 ave        3408 max        3354 min
Histogram: 2 2 1 1 3 3 2 0 1 1
Neighs:        53750.8 ave       55048 max       52465 min
Histogram: 2 2 2 1 0 2 2 2 1 2

Total # of neighbors = 860012
Ave neighs/atom = 32.912821
Ave special neighs/atom = 4.8
Neighbor list builds = 9371
Dangerous builds = 0
unfix           1

# variable        lambda equal ramp(0.8,1.0)
# fix             2 all adapt 1 pair lj/cut/soft lambda * * v_lambda

# fix             3 all npt temp 300.0 300.0 100.0 iso 1.0 1.0 1000
# timestep        1
# thermo_style    custom step temp press density vol
# thermo          10000
# run             50000
# unfix           3

# -----------------------------------------------------
# 5. 计算均方回转半径
# -----------------------------------------------------
# 使用compute gyration命令计算整个体系的回转半径
fix             equil all npt temp 300.0 300.0 100.0 iso 1.0 1.0 1000
group           pdms1 id <= 10
10 atoms in group pdms1
group           pdms2 id 11:20
10 atoms in group pdms2
group           pdms3 id 21:30
10 atoms in group pdms3
group           pdms4 id 31:40
10 atoms in group pdms4
group           pdms5 id 41:50
10 atoms in group pdms5
group           pdms6 id 51:60
10 atoms in group pdms6
group           pdms7 id 61:70
10 atoms in group pdms7
group           pdms8 id 71:80
10 atoms in group pdms8
group           pdms9 id 81:90
10 atoms in group pdms9
group           pdms10 id 91:100
10 atoms in group pdms10
# variable        d_end equal "sqrt((x[1]-x[10])^2 + (y[1]-y[10])^2 + (z[1]-z[10])^2)"
compute         rg1 pdms1 gyration
compute         rg2 pdms2 gyration
compute         rg3 pdms3 gyration
compute         rg4 pdms4 gyration
compute         rg5 pdms5 gyration
compute         rg6 pdms6 gyration
compute         rg7 pdms7 gyration
compute         rg8 pdms8 gyration
compute         rg9 pdms9 gyration
compute         rg10 pdms10 gyration
# fix             avg pdms ave/time 1000 800 1000000 c_rg v_d_end file avg.txt
# 输出热力学信息及回转半径数据，每隔1000步输出一次
thermo_style    custom step temp pe ke etotal c_rg1 c_rg2 c_rg3 c_rg4 c_rg5 c_rg6 c_rg7 c_rg8 c_rg9 c_rg10 press density vol
thermo          10000
# 输出轨迹文件，便于后续可视化与分析
dump            traj all custom 1000 dump.pdms.lammpstrj id type x y z
# 运行模拟，记录回转半径数据（后续可统计分析均值与波动）
run             1000000
Generated 0 of 0 mixed pair_coeff terms from geometric mixing rule
Per MPI rank memory allocation (min/avg/max) = 7.337 | 7.408 | 7.771 Mbytes
   Step          Temp          PotEng         KinEng         TotEng         c_rg1          c_rg2          c_rg3          c_rg4          c_rg5          c_rg6          c_rg7          c_rg8          c_rg9          c_rg10         Press         Density         Volume    
    501000   301.90282     -77146.826      23513.878     -53632.948      7.6423436      4.9144449      5.0553162      5.8558043      5.9146908      6.3402865      6.8706219      5.5713046      6.8651893      6.2698039     -8.275066       0.92074327     3392988.7    
    510000   301.39392     -77181.125      23474.242     -53706.883      7.127767       5.3016748      5.289145       6.0781624      6.3687612      5.7581003      6.4825891      5.1643328      7.4177518      6.3704172     -0.75009314     0.92169641     3389480      
    520000   300.7999      -77379.215      23427.976     -53951.239      7.9561218      5.3008167      5.1594681      6.2341879      5.8315676      6.2903128      7.3671084      5.9702428      7.6722527      6.9856854     -20.246693      0.92128732     3390985      
    530000   301.73205     -77446.346      23500.577     -53945.769      7.3139322      5.1612588      5.0378147      6.5774836      5.7061667      6.675777       7.0235074      5.8375974      7.5994659      6.2446815      47.994591      0.923209       3383926.6    
    540000   300.81905     -77268.011      23429.468     -53838.543      6.8792807      4.9399554      4.7616083      7.2662356      5.5939832      6.481632       7.5670428      5.4398876      6.9998423      6.225195       36.067865      0.92247618     3386614.8    
    550000   299.65477     -77303.673      23338.787     -53964.886      7.9858024      5.2325571      5.3493215      7.5068568      6.5545364      6.8819342      7.5355711      5.5098196      7.050273       5.8991685      47.365979      0.92218255     3387693.1    
    560000   299.09529     -77398.809      23295.212     -54103.597      6.9876433      5.5902068      5.8077922      6.7156477      6.01294        7.8282953      6.8196981      6.4564918      7.0767906      6.5542612     -15.643968      0.92145874     3390354.2    
    570000   297.7756      -77264.56       23192.427     -54072.134      7.5131552      4.9472644      7.035137       6.7847466      6.4717544      6.8613191      6.6642447      6.9752789      7.0725413      6.3666059      14.875246      0.92172479     3389375.6    
    580000   302.49293     -77194.961      23559.839     -53635.122      7.8328513      5.0086284      6.4815515      7.8455751      6.9900696      6.6333177      6.1904215      6.6286282      6.6526295      6.1813157      22.861453      0.92090791     3392382.1    
    590000   299.74682     -77303.281      23345.957     -53957.324      6.9960647      5.4022819      6.4291625      7.2917003      7.6893107      7.0320234      6.5160307      6.8944846      7.7283466      7.0347137     -2.5693759      0.92062806     3393413.3    
    600000   297.71636     -77575.866      23187.813     -54388.053      7.0890713      5.1183006      5.5813899      7.0761032      8.0785298      7.4154627      6.6103473      6.8463131      6.9447558      7.4432603      31.073636      0.9229999      3384693.2    
    610000   298.1405      -77700.385      23220.848     -54479.537      7.3519968      5.9486016      5.8082794      6.8611979      8.3609953      6.6168099      6.5129424      7.0721532      6.1982639      6.9766645     -5.2891454      0.92373989     3381981.8    
    620000   299.69495     -77137.588      23341.917     -53795.671      7.3449767      6.2082644      6.2014852      6.0442242      7.1309298      8.3011789      6.8994692      7.6295715      6.5025938      7.2379761     -37.491553      0.92027205     3394726.1    
    630000   299.66297     -77262.435      23339.426     -53923.009      7.7090787      6.0957424      5.9429557      5.404769       7.4723998      7.7613743      6.3801347      8.4014375      6.3658398      6.972847      -6.9922028      0.92137768     3390652.5    
    640000   300.49631     -77470.35       23404.331     -54066.018      8.3388762      6.3555427      5.0793332      5.9731485      7.0106853      8.2127351      6.205982       8.0942782      6.7200799      7.4905067      9.282959       0.92209824     3388002.9    
    650000   301.63243     -77311.556      23492.819     -53818.738      7.5936046      7.1611728      5.1031831      4.7457591      6.6598705      8.4226396      5.8125486      7.8655953      7.149548       6.6496662      10.25423       0.92100515     3392023.9    
    660000   300.14101     -77645.654      23376.658     -54268.995      7.8568088      6.4289688      4.8508686      5.3428259      6.5903402      8.3343199      6.2703239      7.9268842      6.7113049      6.2703008      16.596014      0.92295392     3384861.8    
    670000   301.12981     -77391.037      23453.672     -53937.365      7.7453515      6.2211607      4.9273283      5.5003527      6.1518584      7.3873866      6.1460975      7.5694672      6.7105113      5.6550241     -17.704937      0.92132779     3390836.1    
    680000   302.64151     -77892.704      23571.411     -54321.293      7.4918199      5.2907801      5.2604605      6.6573677      6.4021941      7.3838042      6.3750073      8.2145736      6.5951709      5.8141909     -11.651483      0.92449186     3379230.9    
    690000   299.59955     -77316.404      23334.487     -53981.917      7.6347031      5.2962687      5.3623983      6.4749457      7.2469512      7.7571353      7.3136735      8.1852666      7.0747827      6.3317341     -2.8653597      0.92126838     3391054.7    
    700000   298.52928     -77388.69       23251.128     -54137.561      7.5298043      5.6884045      6.3505084      6.4296672      6.6405151      8.2263045      6.1914179      6.9208432      6.9896873      6.2398976     -8.3283704      0.92141071     3390530.9    
    710000   300.4616      -77298.535      23401.628     -53896.907      6.3206528      5.9439038      5.9503863      6.4054982      7.0405404      7.6130593      6.6054049      7.3892725      6.3210253      5.758286      -11.646138      0.9210636      3391808.7    
    720000   298.09136     -77258.76       23217.02      -54041.74       7.3483875      5.4371464      5.8697909      6.5456667      8.1522075      8.254236       6.4536086      8.0813348      6.7272911      7.1768018     -33.058395      0.91943605     3397812.7    
    730000   300.78077     -77215.995      23426.486     -53789.509      7.5734712      5.8976534      6.4146266      6.7116681      7.6566768      7.74735        6.9512972      7.689892       6.4559975      6.9191419     -29.224167      0.92062119     3393438.6    
    740000   298.10088     -77510.613      23217.762     -54292.851      6.3399234      5.82638        5.7826595      5.9993603      7.2555928      8.1700596      5.8486704      8.6335071      6.1990389      7.6099761      2.5864908      0.92134302     3390780      
    750000   301.95637     -77005.936      23518.048     -53487.887      6.4129268      5.3838508      5.869108       6.2566064      7.0305113      7.0718518      5.7666839      8.6556307      6.4388494      7.0412124     -53.97141       0.91953864     3397433.6    
    760000   300.27216     -77389.215      23386.873     -54002.342      7.3215028      5.0690595      6.2655648      5.0757662      8.027279       6.2594474      6.2661862      9.0375357      6.3557968      6.9343254     -12.757477      0.92111208     3391630.1    
    770000   298.87583     -77031.972      23278.119     -53753.853      7.3622716      5.4249819      6.4397015      5.1986734      7.5210412      7.0236247      6.6533501      8.3122058      6.4846137      7.7175215     -8.7741258      0.91931019     3398277.9    
    780000   299.36664     -77332.534      23316.346     -54016.187      6.400937       5.3620301      6.4600164      5.4741764      7.3366216      5.7111817      7.1534234      7.9540382      6.7919602      7.1105861     -25.161676      0.92039996     3394254.3    
    790000   299.66801     -77423.404      23339.819     -54083.585      6.9485295      6.3583266      5.3644883      5.0774086      6.719758       6.5030213      7.8724036      8.1749789      7.0857594      7.5604594     -7.5414963      0.92201376     3388313.3    
    800000   297.2688      -77183.779      23152.955     -54030.825      6.9005468      5.2213975      5.9632278      6.6047328      6.8726956      5.5920284      6.8445779      7.299641       6.7511634      6.9404388     -13.305297      0.92145743     3390359      
    810000   298.98312     -77382.956      23286.475     -54096.481      6.1815199      5.8746835      5.4839195      6.7805586      7.2225127      6.4230443      7.0906008      7.243368       5.8558605      7.283418       7.9911135      0.92263397     3386035.6    
    820000   300.42653     -77368.849      23398.897     -53969.952      6.1702141      5.4975795      5.0285324      5.9223189      6.9013922      6.5585355      7.3094247      6.9311536      6.0741311      7.4673329      13.31017       0.92211692     3387934.3    
    830000   296.48164     -77281.712      23091.646     -54190.065      6.3668657      5.3971835      5.7956456      6.9770979      7.6931762      6.6672302      7.3684262      7.0570971      6.2539778      7.3610452      20.627039      0.92189045     3388766.5    
    840000   299.00075     -77221.717      23287.848     -53933.868      7.2183071      5.2459804      5.2847917      7.3024526      6.9631461      6.7911935      7.9667306      7.0587053      6.6761843      7.4904915      8.8897042      0.92128653     3390987.9    
    850000   298.09349     -77344.381      23217.186     -54127.195      6.1498496      5.4542924      6.0122035      6.4397863      6.3902826      6.2929218      8.2860784      6.1929322      6.826145       7.5838066      9.4643234      0.92214066     3387847      
    860000   299.41983     -77381.435      23320.489     -54060.946      6.0862113      5.4966119      6.3417381      7.4910259      6.8179935      5.2735019      8.4486967      6.322771       6.205599       7.7182238      23.467556      0.92273288     3385672.7    
    870000   300.80665     -77380.703      23428.502     -53952.201      6.5764231      5.5763692      6.1705022      6.9972541      7.5421016      5.4439286      7.8139448      6.8813012      5.9546781      7.1542725      13.843873      0.9212638      3391071.6    
    880000   302.51972     -77201.435      23561.925     -53639.51       6.6610847      5.784085       6.6773516      7.6257522      6.3544613      5.6865243      8.8451306      7.1822194      5.8023921      7.2543809      13.901019      0.92172329     3389381.1    
    890000   302.42018     -77055.636      23554.173     -53501.464      6.6545785      6.0516388      6.3511845      8.8488157      5.8601507      5.6819921      8.1731827      6.7791431      7.0912048      5.4953154      3.6507521      0.920586       3393568.3    
    900000   301.36973     -77118.179      23472.358     -53645.821      6.5708149      5.4625202      6.9361817      8.0909744      5.5815309      6.1111328      7.2701593      6.8535895      6.798505       5.4969668      12.822984      0.91962183     3397126.3    
    910000   298.00472     -76894.173      23210.272     -53683.901      5.8471887      5.2296901      7.2997748      7.2344074      5.5739942      6.1723255      6.593203       6.6873727      6.5949731      6.5246302     -35.45526       0.91918945     3398724.3    
    920000   300.07767     -77422.504      23371.725     -54050.779      6.8638514      5.1572913      6.6436664      8.6576688      5.8974023      5.7313147      6.8791808      7.1895812      7.0002876      6.8198328     -5.9330101      0.92348236     3382924.9    
    930000   298.65551     -77437.329      23260.96      -54176.369      6.7351245      5.4346643      6.931731       7.0514925      5.4931446      4.8563761      6.7071178      6.5485365      6.4512653      6.707304      -27.81939       0.92156271     3389971.7    
    940000   300.17103     -77206.888      23378.997     -53827.891      6.4800731      6.2363647      6.6688264      6.574254       5.644098       4.7748268      6.602738       7.4299909      6.5246951      6.8168147     -11.149924      0.9210189      3391973.3    
    950000   298.05031     -77427.472      23213.823     -54213.649      6.5290772      5.1788017      6.297436       6.755458       5.0691471      4.8396653      6.4230905      7.8281324      6.2201075      6.6613763     -37.992805      0.92259195     3386189.9    
    960000   299.19218     -77488.599      23302.758     -54185.841      7.2271399      4.9328939      7.2410332      7.8322965      5.618259       5.0061765      6.4426834      7.2671772      6.3964167      6.2474299      7.276658       0.92301308     3384644.9    
    970000   300.225       -77369.589      23383.2       -53986.389      6.9292932      5.2142701      6.3504745      7.3258983      5.7047288      4.9546193      6.384638       7.2225536      6.4702095      6.4142377     -9.144701       0.92274434     3385630.6    
    980000   300.2683      -77521.203      23386.572     -54134.631      7.0012706      4.9576086      7.2737907      7.4121979      5.5497352      5.4099179      6.232944       6.7547949      6.786579       5.9447918      10.077432      0.92317388     3384055.3    
    990000   300.52447     -77364.743      23406.525     -53958.218      7.2946055      5.2872329      6.8831987      7.1498423      6.1551177      5.2042877      5.6783801      7.1793711      6.2379121      5.9632142      1.5795664      0.92165579     3389629.3    
   1000000   301.33286     -77414.001      23469.486     -53944.514      7.505589       5.659957       6.6680174      7.0218806      6.3549103      5.5138031      6.6044974      6.5897812      5.8539716      6.3973862      5.787328       0.92138339     3390631.4    
   1010000   301.8585      -77534.51       23510.426     -54024.084      7.5229485      5.2788441      7.4707387      6.91085        5.7821789      5.3573053      7.3825502      7.029185       6.2451223      5.606613       32.544417      0.92260487     3386142.4    
   1020000   298.67255     -77167.645      23262.287     -53905.358      7.4818571      5.1643797      7.0646542      6.9238928      6.3900797      5.5281285      6.8035297      6.8839836      7.0041081      6.0556513      16.856713      0.92018666     3395041.1    
   1030000   301.0754      -77566.067      23449.434     -54116.633      7.127404       5.2379354      6.8991081      6.4797065      6.6178767      6.7852476      6.4511085      7.1464266      6.7084187      6.7713375      23.252427      0.92308304     3384388.4    
   1040000   300.0132      -77470.429      23366.704     -54103.725      8.0146452      5.275286       6.8040983      6.0721701      5.6954675      6.2365234      6.61922        5.881507       6.4273973      6.2083296     -31.797862      0.91959764     3397215.6    
   1050000   298.88526     -77310.939      23278.853     -54032.085      7.6639442      4.8934795      6.7007956      6.5512292      5.8218593      5.3973307      6.6074508      6.5759772      5.7626084      6.1624105     -9.866967       0.9214257      3390475.8    
   1060000   299.08428     -77422.268      23294.354     -54127.914      6.9378869      5.3183319      6.8278836      6.4273433      6.229567       5.6750161      6.274232       6.4838833      5.7476192      5.4479063      0.022974383    0.92140115     3390566.1    
   1070000   298.26406     -77636.59       23230.471     -54406.119      7.2582913      5.96014        6.9865909      7.657461       5.8420051      5.2175655      6.9653959      7.0412305      6.0365772      5.6886393      14.142795      0.9212037      3391292.8    
   1080000   302.34976     -77508.066      23548.688     -53959.377      7.2407547      6.1722746      7.5552681      7.6406245      5.5728145      5.7868937      7.8463969      6.450295       6.0541164      5.8529462     -17.967004      0.92199583     3388379.2    
   1090000   299.89032     -77468.222      23357.133     -54111.089      7.360923       6.870894       7.5798725      6.5303623      5.7136157      5.6436052      8.189516       7.1751837      6.963791       6.5665041     -5.3256279      0.92082178     3392699.4    
   1100000   298.63085     -77244.046      23259.038     -53985.007      6.7730706      6.928754       6.9903513      7.6698093      5.9371148      6.1414195      7.9313903      6.6231196      5.6598356      7.2754199      12.332774      0.92129624     3390952.2    
   1110000   303.15971     -77477.691      23611.772     -53865.919      7.1848168      7.0934688      7.6516541      6.2285435      6.2378633      5.541865       7.8032962      6.4656107      5.6515662      6.6593342     -29.493077      0.9220668      3388118.4    
   1120000   300.93079     -77452.024      23438.17      -54013.853      7.5755575      7.2737404      7.8831904      6.593488       6.2675145      6.4793894      8.0131872      6.3472081      5.2257444      7.068881       2.4789829      0.921957       3388521.9    
   1130000   302.32045     -77480.292      23546.405     -53933.887      7.5285646      7.6098187      7.0992176      6.4201577      6.4981641      7.0151598      7.3192421      6.7107512      4.942441       6.7079021      25.695899      0.92062944     3393408.2    
   1140000   297.58413     -77205.357      23177.514     -54027.843      6.7209192      7.1374917      6.7871132      6.5345377      7.0581697      7.3258543      7.152254       6.9080739      5.1143059      6.1101208      16.794326      0.92233522     3387132.4    
   1150000   301.67747     -77337.038      23496.326     -53840.712      7.5170225      6.4250092      7.5883838      6.8708592      6.7434556      7.1845645      6.9804786      6.9674524      5.5088919      6.2982816     -17.271841      0.9207357      3393016.6    
   1160000   299.18271     -77651.67       23302.021     -54349.649      7.9509506      6.7574539      7.5567964      6.3148595      6.7718762      6.5152359      7.4777776      7.2104376      5.1194091      5.8350601     -0.50294548     0.92307646     3384412.5    
   1170000   299.80662     -77314.595      23350.614     -53963.981      7.4945634      5.6337924      7.2701544      6.1458823      6.9026316      6.8057704      7.9551413      6.8998345      5.4294249      5.9652869     -0.027248891    0.92173805     3389326.8    
   1180000   300.65672     -77477.048      23416.825     -54060.223      6.574856       5.6877669      6.5754025      5.6467761      6.3585731      6.4964814      7.662964       7.5977878      5.139443       6.1781442      44.615475      0.92342168     3383147.2    
   1190000   299.42894     -77658.854      23321.198     -54337.655      6.4760623      6.4573188      6.6709275      5.4742584      6.1259691      7.2518054      7.5046085      7.4750576      5.5842707      6.789122       32.085826      0.92273952     3385648.3    
   1200000   298.57241     -77191.234      23254.487     -53936.747      6.128475       6.4687622      7.1748977      6.1599888      7.622433       6.3367127      6.2201526      7.3308561      5.4864742      7.0197663     -4.6540023      0.92052863     3393779.8    
   1210000   301.44759     -77051.302      23478.422     -53572.879      5.9864948      6.4157422      7.3259578      5.3700861      6.0270827      5.7669014      7.3909562      6.1640655      5.5152285      6.8225597     -40.414907      0.92028005     3394696.5    
   1220000   301.13103     -77303.646      23453.767     -53849.88       6.1340125      6.2433975      8.1927577      5.5862181      7.3932535      6.0521269      7.3016352      6.2627971      6.0660006      6.6683502      3.2026053      0.92277846     3385505.5    
   1230000   302.01692     -77085.374      23522.765     -53562.609      6.3203061      6.9642505      7.2297183      4.7988591      6.5759543      6.0462526      7.2758955      6.8072508      5.8546678      6.8878223     -18.289296      0.92072876     3393042.2    
   1240000   298.37157     -77734.104      23238.845     -54495.26       6.4457711      7.4080723      7.2026215      5.8912629      6.6468486      6.120124       7.5863779      6.07223        5.4278586      6.2197264      11.247874      0.92231082     3387222      
   1250000   299.41745     -77514.7        23320.303     -54194.397      5.9658786      6.7002703      6.7922868      5.3697934      6.3841132      6.4697879      7.143971       6.0057823      5.9558665      6.61466       -15.126582      0.92224868     3387450.2    
   1260000   302.53554     -77119.547      23563.158     -53556.389      6.6901573      6.9118538      7.1684427      5.0160525      6.5231042      5.9707832      6.6414853      7.2431105      6.1221196      6.7236958     -22.559802      0.92052497     3393793.3    
   1270000   299.45695     -77490.054      23323.38      -54166.674      6.6963287      6.490668       7.5735025      5.4341501      6.4556217      5.8994148      7.0208031      6.5610656      5.8213115      6.5684703     -20.624635      0.9196128      3397159.7    
   1280000   302.90738     -77676.295      23592.119     -54084.176      6.6979949      6.7772798      6.7392096      5.5442048      7.2321365      6.011559       7.3512756      7.0433861      6.0878068      7.7485373     -14.717612      0.92173709     3389330.4    
   1290000   301.40741     -77243.509      23475.292     -53768.217      5.6344492      7.1090685      6.2011042      5.251879       7.0537032      6.0554384      6.7944808      6.41049        5.7743764      7.3250447     -13.68647       0.91946083     3397721.1    
   1300000   301.90931     -77178.367      23514.383     -53663.983      6.4227376      6.2235028      6.4187051      5.7332523      7.0944819      6.3290888      7.1793869      6.3184621      5.4785024      7.0335516      11.916578      0.92131712     3390875.4    
   1310000   300.50462     -77583.766      23404.979     -54178.787      5.3758528      6.3752318      6.1596787      5.9097679      6.1906854      6.7734825      8.1031397      5.9880525      4.9969253      7.2203661      9.1895604      0.92182625     3389002.5    
   1320000   299.61822     -77683.748      23335.941     -54347.807      6.0863866      5.7635193      6.7274648      5.7464779      6.3774667      6.9297197      7.0361018      6.5221233      5.1794412      6.9038228     -14.789376      0.92277513     3385517.7    
   1330000   297.50627     -77346.079      23171.45      -54174.629      6.9419953      7.5177951      6.8501686      5.2151515      6.6711567      7.5473007      7.5222925      6.5282944      5.7108883      6.7790631      8.8664721      0.9199075      3396071.3    
   1340000   302.24281     -77306.92       23540.358     -53766.562      6.923235       7.1640158      7.0764836      5.4561175      6.8430418      7.4661767      8.1677775      6.1251813      5.4723805      6.8675363      4.7421384      0.92064022     3393368.5    
   1350000   300.58494     -77534.092      23411.234     -54122.858      6.3764234      6.8997858      6.3065332      5.3256582      6.9640127      7.2922572      7.1215085      5.8767954      5.5103511      6.9438492     -24.36753       0.92333671     3383458.6    
   1360000   301.57698     -77604.719      23488.499     -54116.219      6.3893572      7.7116238      6.6731084      5.7442756      5.6644003      7.1363321      7.0147319      6.2696629      5.3041282      6.2857406      16.482135      0.92368323     3382189.3    
   1370000   296.98325     -77143.758      23130.714     -54013.044      6.138975       7.1745557      6.4424524      5.3283612      5.2646447      7.2133622      7.2978598      6.6501625      5.5989805      6.9960981     -32.645623      0.92132726     3390838      
   1380000   300.97016     -76885.314      23441.237     -53444.077      6.3215909      7.5339262      6.6811541      5.306312       5.1839481      6.875041       7.0073874      6.2134858      4.9736318      6.1515859     -6.4081822      0.91945486     3397743.2    
   1390000   300.82629     -77438.593      23430.032     -54008.561      7.4299431      7.8269648      6.6773047      5.9939159      5.0151248      7.0070753      7.5734505      6.0412638      5.3032538      6.4677117      0.36541235     0.92281054     3385387.8    
   1400000   301.05162     -77449.921      23447.582     -54002.339      6.61006        7.6731987      7.0133178      6.2567663      6.1398234      7.1660581      7.1692223      5.9569245      5.349821       5.8657282     -17.686319      0.92109033     3391710.2    
   1410000   300.77258     -77415.278      23425.849     -53989.43       7.499692       7.0376513      5.9207124      5.8839848      6.5200382      7.3971532      6.6077256      6.0428106      5.2499659      5.8178015     -25.534609      0.92087576     3392500.5    
   1420000   298.84289     -77578.85       23275.554     -54303.296      7.9725899      7.139698       5.6614668      5.9664852      6.6607211      7.1473595      5.6661385      5.9167904      4.9446333      5.9432117     -7.0071682      0.92259184     3386190.3    
   1430000   300.83667     -77387.808      23430.84      -53956.968      7.382722       7.8682135      5.955049       5.5278945      5.7505335      7.3919716      5.8476887      6.1614066      5.2396879      5.6401607      43.941816      0.92272894     3385687.1    
   1440000   299.10305     -77526.681      23295.817     -54230.865      8.4487778      7.5201242      5.1350457      6.208876       5.0302932      6.9111738      5.4255956      6.7780027      5.0095075      5.6589494     -39.562068      0.92072518     3393055.4    
   1450000   299.19018     -77251.873      23302.603     -53949.27       7.9884315      8.0039093      6.0260817      6.3289329      4.9266335      6.4025849      6.1957568      6.7226728      5.1667842      5.0713655      19.302475      0.92148523     3390256.7    
   1460000   299.08471     -77418.824      23294.388     -54124.436      8.7281446      8.236648       6.5390171      6.0148122      5.2752643      6.0622861      5.519884       6.7773461      5.2071875      5.4537372      17.852758      0.92249101     3386560.4    
   1470000   302.72057     -77498.295      23577.569     -53920.726      7.6286846      8.5167789      7.1437716      4.9998085      5.4636307      6.0179159      5.8534568      7.5251998      5.571242       5.5146243     -4.3403901      0.92176774     3389217.7    
   1480000   300.53416     -77401.418      23407.279     -53994.14       7.6723066      7.8008006      7.7917834      4.7108685      5.2131906      6.3289987      5.9969067      6.9176404      5.7338165      5.1218594     -31.946218      0.91997152     3395835      
   1490000   300.01729     -77249.6        23367.023     -53882.577      7.8755592      8.0132629      7.5442769      4.7050912      5.6938565      6.8158539      6.2956533      6.2543709      5.1169334      5.0338044      9.9311014      0.92171628     3389406.9    
   1500000   301.13324     -77217.584      23453.939     -53763.645      7.9375322      8.378986       7.2011165      4.6696849      5.529493       6.7052995      6.1832469      6.4039689      5.5799017      4.960094       17.644321      0.92151835     3390134.9    
   1501000   302.98356     -77318.748      23598.052     -53720.695      8.0673058      7.8952343      7.1135946      5.115717       5.6367966      6.809761       6.1371359      6.4812744      5.5683288      5.0082861      9.2879128      0.92135958     3390719.1    
Loop time of 966.863 on 16 procs for 1000000 steps with 26130 atoms

Performance: 89.361 ns/day, 0.269 hours/ns, 1034.273 timesteps/s, 27.026 Matom-step/s
98.7% CPU use with 16 MPI tasks x no OpenMP threads

MPI task timing breakdown:
Section |  min time  |  avg time  |  max time  |%varavg| %total
---------------------------------------------------------------
Pair    | 477.05     | 490.31     | 507.79     |  39.4 | 50.71
Bond    | 138.28     | 143.33     | 148.07     |  23.3 | 14.82
Neigh   | 46.961     | 46.977     | 47         |   0.1 |  4.86
Comm    | 176        | 197.78     | 215.3      |  80.4 | 20.46
Output  | 1.8505     | 2.3105     | 2.7797     |  18.7 |  0.24
Modify  | 71.915     | 72.949     | 74.231     |   9.0 |  7.54
Other   |            | 13.2       |            |       |  1.37

Nlocal:        1633.12 ave        1646 max        1613 min
Histogram: 2 1 0 1 0 3 1 3 1 4
Nghost:        3376.31 ave        3405 max        3350 min
Histogram: 1 2 2 1 5 1 0 1 0 3
Neighs:        53837.6 ave       54904 max       52313 min
Histogram: 1 0 1 0 1 6 1 4 0 2

Total # of neighbors = 861402
Ave neighs/atom = 32.966016
Ave special neighs/atom = 4.8
Neighbor list builds = 18631
Dangerous builds = 0
unfix           equil
# -----------------------------------------------------
# 6. 数据输出
# -----------------------------------------------------


# # 写出最终体系数据文件
# write_data      pdms_out.data
Total wall time: 0:24:10
