LAMMPS (29 Aug 2024)
# LAMMPS输入文件示例：使用Martini 3粗粒化力场计算PDMS的均方回转半径
# -----------------------------------------------------
# 1. 初始化设置
# -----------------------------------------------------
units               real
dimension           3
boundary            p p p
atom_style          full

# 读取包含PDMS分子结构的data文件
read_data           PDMS_100_solvent.data
Reading data file ...
  orthogonal box = (-95 -95 -95) to (95 95 95)
  2 by 2 by 4 MPI processor grid
  reading atoms ...
  62292 atoms
  scanning bonds ...
  1 = max bonds/atom
  scanning angles ...
  1 = max angles/atom
  scanning dihedrals ...
  1 = max dihedrals/atom
  orthogonal box = (-95 -95 -95) to (95 95 95)
  2 by 2 by 4 MPI processor grid
  reading bonds ...
  99 bonds
  reading angles ...
  98 angles
  reading dihedrals ...
  97 dihedrals
Finding 1-2 1-3 1-4 neighbors ...
  special bond factors lj:    0        0        0       
  special bond factors coul:  0        0        0       
     2 = max # of 1-2 neighbors
     2 = max # of 1-3 neighbors
     4 = max # of 1-4 neighbors
     6 = max # of special neighbors
  special bonds CPU = 0.002 seconds
  read_data CPU = 0.102 seconds

# -----------------------------------------------------
# 2. 力场参数设置（Martini 3参数）
# -----------------------------------------------------
# 定义非键相互作用（示例：Lennard-Jones势，截断距离可参考Martini 3常用取值）
pair_style lj/cut   12.0
special_bonds       lj 0.0 0.0 0.5
Finding 1-2 1-3 1-4 neighbors ...
  special bond factors lj:    0        0        0.5     
  special bond factors coul:  0        0        0       
     2 = max # of 1-2 neighbors
     2 = max # of 1-3 neighbors
     4 = max # of 1-4 neighbors
     6 = max # of special neighbors
  special bonds CPU = 0.001 seconds
pair_coeff          1 1 0.7337 5.1
pair_coeff          2 2 0.7337 5.1
pair_coeff          1 2 0.7337 5.1
pair_coeff          1 3 0.5762 4.65
pair_coeff          2 3 0.5762 4.65
pair_coeff          3 3 1.1071 4.7
# 定义键、角、二面角势（示例参数，实际参数请参考相关文献）
bond_style          harmonic
bond_coeff          1 13.243 4.48
angle_style         harmonic
angle_coeff         1 5.48 86.0
dihedral_style      harmonic
dihedral_coeff      1 0.3346  1  1
# -----------------------------------------------------
# 3. 邻域列表设置
# -----------------------------------------------------
neigh_modify    one 1000
neighbor        1 bin
neigh_modify    delay 0 every 1 check yes

# -----------------------------------------------------
# 4. 能量最小化与预平衡
# -----------------------------------------------------
minimize        1.0e-4 1.0e-6 1000 10000

CITE-CITE-CITE-CITE-CITE-CITE-CITE-CITE-CITE-CITE-CITE-CITE-CITE

Your simulation uses code contributions which should be cited:

- Type Label Framework: https://doi.org/10.1021/acs.jpcb.3c08419

@Article{Gissinger24,
 author = {Jacob R. Gissinger, Ilia Nikiforov, Yaser Afshar, Brendon Waters, Moon-ki Choi, Daniel S. Karls, Alexander Stukowski, Wonpil Im, Hendrik Heinz, Axel Kohlmeyer, and Ellad B. Tadmor},
 title = {Type Label Framework for Bonded Force Fields in LAMMPS},
 journal = {J. Phys. Chem. B},
 year =    2024,
 volume =  128,
 number =  13,
 pages =   {3282–-3297}
}

CITE-CITE-CITE-CITE-CITE-CITE-CITE-CITE-CITE-CITE-CITE-CITE-CITE

Generated 0 of 3 mixed pair_coeff terms from geometric mixing rule
Neighbor list info ...
  update: every = 1 steps, delay = 0 steps, check = yes
  max neighbors/atom: 1000, page size: 100000
  master list distance cutoff = 13
  ghost atom cutoff = 13
  binsize = 6.5, bins = 30 30 30
  1 neighbor lists, perpetual/occasional/extra = 1 0 0
  (1) pair lj/cut, perpetual
      attributes: half, newton on
      pair build: half/bin/newton
      stencil: half/bin/3d
      bin: standard
Per MPI rank memory allocation (min/avg/max) = 8.815 | 9.273 | 9.681 Mbytes
   Step          Temp          E_pair         E_mol          TotEng         Press     
         0   0              5.5070924e+10  359.19227      5.5070924e+10  2.2021842e+09
       462   0             -483441.78      303.72294     -483138.06     -484.21918    
Loop time of 1.55265 on 16 procs for 462 steps with 62292 atoms

97.8% CPU use with 16 MPI tasks x no OpenMP threads

Minimization stats:
  Stopping criterion = energy tolerance
  Energy initial, next-to-last, final = 
      55070924239.6045  -483089.966197967  -483138.057675632
  Force two-norm initial, final = 9.8875515e+11 66.267508
  Force max component initial, final = 5.5599659e+11 1.6460868
  Final line search alpha, max atom move = 0.0093101128 0.015325254
  Iterations, force evaluations = 462 465

MPI task timing breakdown:
Section |  min time  |  avg time  |  max time  |%varavg| %total
---------------------------------------------------------------
Pair    | 0.54514    | 0.82643    | 1.1318     |  19.2 | 53.23
Bond    | 0.00020942 | 0.00067433 | 0.0024557  |   0.0 |  0.04
Neigh   | 0.25407    | 0.25495    | 0.25577    |   0.1 | 16.42
Comm    | 0.11425    | 0.40782    | 0.69064    |  27.3 | 26.27
Output  | 0          | 0          | 0          |   0.0 |  0.00
Modify  | 0          | 0          | 0          |   0.0 |  0.00
Other   |            | 0.06276    |            |       |  4.04

Nlocal:        3893.25 ave        4107 max        3438 min
Histogram: 2 2 0 0 0 0 0 4 1 7
Nghost:        5884.12 ave        6405 max        5138 min
Histogram: 3 1 0 3 1 0 0 0 0 8
Neighs:         158176 ave      178409 max      126791 min
Histogram: 4 0 0 0 0 4 0 0 3 5

Total # of neighbors = 2530811
Ave neighs/atom = 40.628187
Ave special neighs/atom = 0.0094394144
Neighbor list builds = 58
Dangerous builds = 0
fix             1 all npt temp 300.0 300.0 100.0 iso 1.0 1.0 1000
timestep        1
thermo_style    custom step temp press density vol
thermo          10000
run             500000
Generated 0 of 3 mixed pair_coeff terms from geometric mixing rule
Per MPI rank memory allocation (min/avg/max) = 8.078 | 8.206 | 8.561 Mbytes
   Step          Temp          Press         Density         Volume    
       462   0             -484.21918      1.085808       6859000      
     10000   300.25913      9.3419314      0.88554574     8410132.4    
     20000   300.61315     -8.0613596      0.86391696     8620686.1    
     30000   300.10284      1.3831774      0.87519413     8509605.7    
     40000   300.64834      5.5189093      0.89297701     8340144      
     50000   300.14177      20.706835      0.909938       8184686.1    
     60000   298.63065      0.22594383     0.92437002     8056900.1    
     70000   300.34781      7.6940362      0.94065224     7917439.2    
     80000   299.44559      4.8025117      0.95532207     7795859.8    
     90000   298.89887     -13.255281      0.96785053     7694945.3    
    100000   299.38529     -0.77489131     0.97578274     7632392.6    
    110000   300.47608      1.4882873      0.98500489     7560933.9    
    120000   298.95464      7.0560657      0.99130322     7512894.9    
    130000   299.9157       1.3720286      0.99618943     7476044.9    
    140000   300.29255     -5.7986522      1.0003105      7445244.8    
    150000   300.50412      9.8671813      1.0047168      7412593.4    
    160000   299.06179      0.32358832     1.0062686      7401161.7    
    170000   300.56999      13.459359      1.0038843      7418740.5    
    180000   299.40643      5.6394555      1.0061068      7402352.4    
    190000   299.90154     -1.0634554      1.0060239      7402962      
    200000   300.20254      14.526758      1.0067171      7397864.6    
    210000   299.79097     -5.6593483      1.0067473      7397642.8    
    220000   301.13519      4.9846958      1.005853       7404219.7    
    230000   299.29884     -9.4718771      1.0075991      7391389      
    240000   301.15213      9.5596408      1.0080567      7388033.6    
    250000   298.57072      10.236029      1.0080347      7388195      
    260000   300.07842      2.8275153      1.0077217      7390490      
    270000   300.20168      5.0643335      1.0087354      7383063      
    280000   300.162       -14.145512      1.0089519      7381478.9    
    290000   298.11687      0.55143797     1.0094504      7377833.8    
    300000   299.30721     -4.7330181      1.0103627      7371171.9    
    310000   299.84856      3.7217181      1.0119861      7359347.3    
    320000   300.97864      15.673875      1.0122403      7357498.7    
    330000   299.51413     -9.6531809      1.0131056      7351214.6    
    340000   299.76827     -21.312034      1.0118219      7360541      
    350000   299.61294     -1.3789462      1.0149071      7338166.1    
    360000   299.84034      0.22630743     1.015237       7335781.5    
    370000   296.90417     -7.7982555      1.0158961      7331022      
    380000   301.1312       1.9931313      1.0185945      7311601.1    
    390000   299.12462      11.252709      1.0204951      7297984.1    
    400000   301.89236      10.054976      1.0223435      7284789.4    
    410000   299.42283      8.9569853      1.0222776      7285259      
    420000   300.47394     -1.94576        1.0244213      7270013.4    
    430000   301.80525     -6.8487114      1.02612        7257978.2    
    440000   301.20388     -14.202459      1.028294       7242633.9    
    450000   301.0713       13.062344      1.0309833      7223741.4    
    460000   300.71799     -7.9182052      1.0317881      7218107      
    470000   300.45177      3.444713       1.0347367      7197538      
    480000   299.36717      7.7664073      1.0374769      7178527.7    
    490000   300.2922       0.51294475     1.0407175      7156175.5    
    500000   299.91787      5.5020156      1.0433925      7137828.7    
    500462   299.4143      -2.3903375      1.0428935      7141244.1    
Loop time of 997.514 on 16 procs for 500000 steps with 62292 atoms

Performance: 43.308 ns/day, 0.554 hours/ns, 501.246 timesteps/s, 31.224 Matom-step/s
98.8% CPU use with 16 MPI tasks x no OpenMP threads

MPI task timing breakdown:
Section |  min time  |  avg time  |  max time  |%varavg| %total
---------------------------------------------------------------
Pair    | 627        | 671.35     | 729.68     | 112.4 | 67.30
Bond    | 0.24128    | 0.71425    | 3.8698     | 104.1 |  0.07
Neigh   | 50.929     | 50.978     | 51.017     |   0.3 |  5.11
Comm    | 130.98     | 183.68     | 224.77     | 185.7 | 18.41
Output  | 0.0025168  | 0.0026583  | 0.0040128  |   0.7 |  0.00
Modify  | 70.854     | 77.933     | 87.98      |  74.0 |  7.81
Other   |            | 12.86      |            |       |  1.29

Nlocal:        3893.25 ave        4149 max        3766 min
Histogram: 5 2 1 4 1 0 0 0 2 1
Nghost:        5780.56 ave        5970 max        5655 min
Histogram: 2 3 2 1 3 1 1 1 1 1
Neighs:         149200 ave      166455 max      139505 min
Histogram: 5 2 0 4 2 0 0 0 1 2

Total # of neighbors = 2387208
Ave neighs/atom = 38.322866
Ave special neighs/atom = 0.0094394144
Neighbor list builds = 9721
Dangerous builds = 0
unfix           1

# variable        lambda equal ramp(0.8,1.0)
# fix             2 all adapt 1 pair lj/cut/soft lambda * * v_lambda

# fix             3 all npt temp 300.0 300.0 100.0 iso 1.0 1.0 1000
# timestep        1
# thermo_style    custom step temp press density vol
# thermo          10000
# run             50000
# unfix           3

# -----------------------------------------------------
# 5. 计算均方回转半径
# -----------------------------------------------------
# 使用compute gyration命令计算整个体系的回转半径
fix             equil all npt temp 300.0 300.0 100.0 iso 1.0 1.0 1000
group           pdms id <= 100
100 atoms in group pdms
variable        d_end equal "sqrt((x[1]-x[100])^2 + (y[1]-y[100])^2 + (z[1]-z[100])^2)"
compute         rg pdms gyration
fix             avg pdms ave/time 1000 800 1000000 c_rg v_d_end file avg.txt
# 输出热力学信息及回转半径数据，每隔1000步输出一次
thermo_style    custom step temp pe ke etotal c_rg v_d_end press density vol
thermo          10000
# 输出轨迹文件，便于后续可视化与分析
dump            traj all custom 1000 dump.pdms.lammpstrj id type x y z
# 运行模拟，记录回转半径数据（后续可统计分析均值与波动）
run             1000000
Generated 0 of 3 mixed pair_coeff terms from geometric mixing rule
Per MPI rank memory allocation (min/avg/max) = 8.091 | 8.301 | 8.567 Mbytes
   Step          Temp          PotEng         KinEng         TotEng          c_rg         v_d_end         Press         Density         Volume    
    500462   299.4143      -441007.17      55594.541     -385412.63      13.12752       29.987979     -2.3903375      1.0428935      7141244.1    
    510000   299.9779      -442794.06      55699.188     -387094.87      13.265919      32.216246     -9.5607961      1.0458048      7121364.6    
    520000   300.38849     -444534.15      55775.425     -388758.73      13.126943      30.77061      -5.5572332      1.0488185      7100901.3    
    530000   301.56711     -446232.91      55994.269     -390238.64      13.374878      30.982572     -0.2764262      1.0519978      7079441.5    
    540000   300.52558     -448467.85      55800.881     -392666.96      13.181059      34.873719      0.80111794     1.055754       7054254.3    
    550000   298.86561     -450796.38      55492.661     -395303.72      13.051674      36.206785      32.604421      1.0606371      7021776.8    
    560000   299.78491     -452784.08      55663.354     -397120.72      13.059962      37.08603       7.6375295      1.0632696      7004391.8    
    570000   299.43227     -454684.34      55597.877     -399086.47      12.888585      37.162109      21.321609      1.0669144      6980463.5    
    580000   299.89995     -456029.91      55684.714     -400345.2       12.976095      38.283593     -18.96071       1.0681703      6972256.2    
    590000   300.00554     -458369.13      55704.32      -402664.81      12.806849      33.9832       -7.7205751      1.0724925      6944157.6    
    600000   301.05998     -459628.85      55900.107     -403728.75      12.960327      34.752124      13.053359      1.0753812      6925504.3    
    610000   299.08163     -460515.78      55532.771     -404983.01      12.858729      34.201165      13.68198       1.0771637      6914043.8    
    620000   300.82039     -461856.62      55855.62      -406001         12.927365      34.760748     -11.207939      1.0784707      6905664.5    
    630000   299.18576     -462954.11      55552.105     -407402.01      12.919034      35.731982     -12.214843      1.080724       6891266.1    
    640000   300.25493     -463809.05      55750.627     -408058.42      12.92049       33.27545       13.386576      1.0830273      6876610.8    
    650000   298.92971     -464784.79      55504.563     -409280.23      12.901258      33.23488       8.7510431      1.084779       6865506.3    
    660000   299.67635     -465603.74      55643.196     -409960.54      13.241829      34.539413     -12.513989      1.0855204      6860817.2    
    670000   299.80731     -465848.14      55667.513     -410180.63      13.321178      34.973737      4.8449061      1.0866252      6853841.7    
    680000   299.07896     -466317.89      55532.276     -410785.62      13.107195      34.682673     -0.30485548     1.087488       6848403.5    
    690000   299.00529     -466706.03      55518.597     -411187.43      13.036018      35.223604     -7.694178       1.087979       6845312.8    
    700000   299.70368     -467679.52      55648.272     -412031.25      13.070279      34.390165     -20.009597      1.0892402      6837387.2    
    710000   297.19282     -467434.28      55182.062     -412252.22      13.159621      35.302571      0.14305365     1.0896015      6835119.7    
    720000   299.61664     -468028.66      55632.111     -412396.54      13.069902      37.421645      2.5798194      1.0907123      6828159      
    730000   299.9944      -467747.77      55702.251     -412045.52      13.050594      35.45354       9.5901948      1.0906375      6828627.1    
    740000   301.09253     -468176.78      55906.15      -412270.63      13.005766      33.38631      -6.0535716      1.090897       6827002.7    
    750000   299.8093      -468624.62      55667.883     -412956.74      13.167536      35.33637      -14.625393      1.0914856      6823321.3    
    760000   297.99793     -468518.89      55331.553     -413187.34      13.092555      34.830333      5.4849645      1.091884       6820831.8    
    770000   300.27303     -468476.43      55753.987     -412722.44      12.964573      35.257473     -27.945124      1.090999       6826364.8    
    780000   298.20572     -468993.42      55370.134     -413623.28      13.094327      35.626892      2.5910314      1.0928056      6815079.5    
    790000   301.11228     -468913.28      55909.818     -413003.46      13.076943      35.737822      6.5205445      1.0928113      6815043.7    
    800000   300.68243     -469070.87      55830.003     -413240.87      13.041923      35.385551     -43.088343      1.0918088      6821301.2    
    810000   299.77945     -469211.54      55662.34      -413549.2       13.076157      34.45823      -6.9946771      1.0931153      6813148.3    
    820000   300.60662     -469693.77      55815.928     -413877.84      12.994504      34.092013      4.2490363      1.0942809      6805891.5    
    830000   300.33282     -469919.57      55765.088     -414154.48      12.984966      34.705526      9.7124494      1.0947824      6802774      
    840000   299.31352     -469321.11      55575.828     -413745.28      13.040638      34.727055     -8.1177917      1.0934869      6810833.2    
    850000   300.53439     -469594.13      55802.515     -413791.61      12.991428      34.159936      13.484248      1.0943108      6805705.4    
    860000   298.43731     -470164.41      55413.135     -414751.27      12.961062      34.66706       2.866305       1.0951517      6800479.5    
    870000   300.70584     -469779.57      55834.351     -413945.22      12.978313      34.73411       5.6085639      1.0945223      6804390.5    
    880000   299.27716     -470112.61      55569.077     -414543.54      13.008603      34.226482      10.510367      1.0952777      6799697.5    
    890000   299.44729     -470037.98      55600.666     -414437.31      13.032372      34.174668      4.7105153      1.0951083      6800749.3    
    900000   298.35424     -470240.38      55397.711     -414842.67      12.924283      34.131268      18.035136      1.0958165      6796354      
    910000   298.74462     -469890.67      55470.196     -414420.47      13.074299      34.451948      9.1355449      1.0949788      6801553.4    
    920000   299.43066     -469856.44      55597.578     -414258.86      13.042058      35.29716       15.891504      1.0949909      6801478.3    
    930000   300.24334     -470186.48      55748.475     -414438.01      12.875474      33.851208      7.8986017      1.0952689      6799752      
    940000   300.62784     -470005.72      55819.867     -414185.85      13.001485      35.001643      5.5026347      1.0949296      6801859.1    
    950000   298.71624     -469816.61      55464.927     -414351.68      12.992621      33.818308     -17.928772      1.093935       6808043.3    
    960000   300.48005     -470161.75      55792.426     -414369.33      12.985791      33.639871      12.227187      1.0954597      6798567.9    
    970000   299.24699     -470542.79      55563.474     -414979.31      13.103562      32.917211      2.5003305      1.095805       6796425.4    
    980000   300.45897     -470538.18      55788.512     -414749.67      12.98197       31.681298      2.644831       1.0957603      6796702.6    
    990000   301.37416     -470088.55      55958.443     -414130.1       12.976174      32.232231      1.8457234      1.0949557      6801696.9    
   1000000   298.82556     -470659.6       55485.225     -415174.38      13.188748      32.667596     -11.136502      1.0956992      6797081.5    
   1010000   301.80467     -470422.76      56038.379     -414384.38      13.134091      32.190969     -27.676423      1.0945818      6804020.2    
   1020000   300.19536     -470279.24      55739.566     -414539.67      13.004428      31.120871     -3.6197571      1.0950686      6800995.9    
   1030000   298.33652     -470806.83      55394.421     -415412.41      13.014921      34.422783      25.462722      1.096931       6789448.8    
   1040000   300.43602     -470477.24      55784.251     -414692.99      12.968639      34.629934     -8.3304493      1.0952642      6799780.9    
   1050000   300.94093     -470553.92      55878.001     -414675.92      12.979201      33.339006     -5.3508494      1.0956227      6797556.5    
   1060000   299.93459     -471240.96      55691.146     -415549.81      13.062929      34.758727     -0.8659414      1.0969501      6789330.8    
   1070000   302.5835      -470905.57      56182.991     -414722.58      12.998699      34.427121      13.944096      1.0967124      6790802.2    
   1080000   301.47836     -470622.75      55977.79      -414644.96      12.974118      35.17196      -10.5928        1.0956915      6797129.3    
   1090000   299.71853     -471200.85      55651.029     -415549.82      13.102303      33.000932      0.8789311      1.0969131      6789559.6    
   1100000   299.49693     -470801.13      55609.882     -415191.24      13.068673      39.756336      10.001474      1.0966613      6791118.7    
   1110000   300.92083     -470771.04      55874.27      -414896.77      12.98118       38.172649     -8.9615172      1.0961         6794596      
   1120000   300.70633     -471615.2       55834.441     -415780.76      13.10347       37.925644     -0.90615664     1.0976435      6785041.7    
   1130000   300.95772     -471389.44      55881.119     -415508.32      12.97045       34.805331     -3.0986658      1.0972788      6787296.9    
   1140000   299.35127     -471511.13      55582.836     -415928.29      13.097689      36.44357       7.9213246      1.0979102      6783393.7    
   1150000   299.16267     -471820.8       55547.819     -416272.98      12.990423      33.75102      -1.0154437      1.0980862      6782306      
   1160000   300.42011     -471476.59      55781.297     -415695.29      12.944205      34.848645      19.66907       1.0980508      6782524.9    
   1170000   299.29773     -471476.8       55572.895     -415903.9       12.772803      33.816995      11.150871      1.0978741      6783616.8    
   1180000   299.62194     -472020.57      55633.094     -416387.48      12.85846       35.021907      21.796927      1.0990297      6776483.6    
   1190000   300.03498     -471518.57      55709.787     -415808.79      12.984589      34.99017       30.107239      1.0984477      6780074.1    
   1200000   300.89884     -471786.59      55870.186     -415916.4       13.030648      34.357126      41.089839      1.0992197      6775312.7    
   1210000   299.13391     -471994.48      55542.478     -416452         12.966296      31.361005     -10.040458      1.0981952      6781632.9    
   1220000   300.51138     -471820.13      55798.244     -416021.88      12.997104      34.383513      14.339589      1.0984739      6779912.7    
   1230000   300.61434     -472350.38      55817.361     -416533.02      12.969768      32.477574     -5.2744307      1.0989217      6777149.8    
   1240000   301.26375     -472230.68      55937.942     -416292.74      12.99038       33.496683     -9.2117791      1.0986268      6778968.6    
   1250000   300.27655     -472607.4       55754.64      -416852.76      12.923087      35.316797     -30.863842      1.0987196      6778396.1    
   1260000   301.16966     -472442.85      55920.472     -416522.38      12.71992       37.045109      28.398294      1.1000459      6770224.1    
   1270000   301.08872     -472275.35      55905.442     -416369.91      12.953465      38.176686     -12.257844      1.0987768      6778043.5    
   1280000   300.78676     -472902.5       55849.375     -417053.12      12.995282      38.805587     -1.7352506      1.1002217      6769142      
   1290000   298.84608     -472840.97      55489.034     -417351.93      12.96784       38.354305      33.632313      1.1010452      6764078.9    
   1300000   300.68579     -472966.69      55830.628     -417136.06      12.894691      37.996391      37.808404      1.1015118      6761214.1    
   1310000   301.3237      -472807.83      55949.073     -416858.76      12.802996      37.833055      1.8271606      1.1003122      6768585.3    
   1320000   299.49638     -473718.04      55609.78      -418108.26      12.937596      38.510417     -15.322869      1.1013989      6761907.1    
   1330000   299.32123     -473313.92      55577.259     -417736.66      12.925967      37.301399     -34.195569      1.1001882      6769348.1    
   1340000   298.94976     -473718.8       55508.285     -418210.51      13.027706      37.29414       5.7258432      1.1019355      6758614      
   1350000   299.76604     -474537.25      55659.85      -418877.4       12.90872       38.051631      27.797887      1.1040248      6745824.2    
   1360000   299.64777     -474391.49      55637.891     -418753.6       12.876803      39.076353      10.486069      1.1031782      6751000.9    
   1370000   301.9613      -474766.61      56067.461     -418699.14      13.036933      37.741977     -3.8499518      1.1034019      6749632      
   1380000   300.0256      -474474.16      55708.045     -418766.12      12.952551      38.221623     -2.0406393      1.1031256      6751322.6    
   1390000   299.81479     -475152.45      55668.902     -419483.54      13.026558      38.282535     -4.5267825      1.1041773      6744892.2    
   1400000   299.18823     -474970.51      55552.564     -419417.95      12.942227      38.033252      14.006838      1.1044763      6743066.3    
   1410000   299.14441     -475280.14      55544.428     -419735.71      12.989364      38.367396     -1.3234913      1.1045663      6742516.6    
   1420000   298.59831     -475348.93      55443.029     -419905.9       13.088365      39.260662     -6.4134207      1.104623       6742170.6    
   1430000   302.91291     -475070.25      56244.153     -418826.1       12.801066      37.727338      7.9930202      1.1044983      6742932      
   1440000   299.61143     -474977.62      55631.144     -419346.48      12.807292      37.338536     -11.340521      1.1038613      6746822.9    
   1450000   301.21669     -475116.77      55929.204     -419187.56      12.932559      38.031072     -30.843126      1.1035474      6748742.1    
   1460000   299.33172     -475619.99      55579.208     -420040.79      13.082532      38.652982     -15.624083      1.1048173      6740985.2    
   1470000   299.68969     -475349.75      55645.673     -419704.08      13.041988      38.160268     -0.35255781     1.1047847      6741184      
   1480000   300.64113     -475401.64      55822.335     -419579.3       13.011924      37.864539     -2.9542777      1.1047139      6741615.8    
   1490000   298.60941     -475382.03      55445.09      -419936.94      12.889525      37.529294      15.309435      1.1053138      6737956.8    
   1500000   302.03116     -475451.47      56080.432     -419371.03      12.892031      38.227129     -1.0567823      1.1048891      6740547.2    
   1500462   300.51171     -475586.93      55798.305     -419788.62      12.891607      39.144563     -10.459778      1.1049526      6740159.5    
Loop time of 2094.41 on 16 procs for 1000000 steps with 62292 atoms

Performance: 41.253 ns/day, 0.582 hours/ns, 477.462 timesteps/s, 29.742 Matom-step/s
98.9% CPU use with 16 MPI tasks x no OpenMP threads

MPI task timing breakdown:
Section |  min time  |  avg time  |  max time  |%varavg| %total
---------------------------------------------------------------
Pair    | 1381.9     | 1451.7     | 1513.5     | 103.0 | 69.31
Bond    | 0.49327    | 1.4424     | 8.9857     | 169.8 |  0.07
Neigh   | 102.29     | 102.37     | 102.47     |   0.5 |  4.89
Comm    | 300.88     | 354.44     | 414.78     | 178.1 | 16.92
Output  | 4.2276     | 5.5162     | 6.7762     |  33.4 |  0.26
Modify  | 142.47     | 154.06     | 165.31     |  73.2 |  7.36
Other   |            | 24.85      |            |       |  1.19

Nlocal:        3893.25 ave        3946 max        3822 min
Histogram: 2 0 0 2 3 1 1 3 2 2
Nghost:        5911.62 ave        5997 max        5818 min
Histogram: 2 0 3 0 0 4 3 2 0 2
Neighs:         157226 ave      161529 max      152818 min
Histogram: 2 1 3 1 1 0 2 3 1 2

Total # of neighbors = 2515616
Ave neighs/atom = 40.384255
Ave special neighs/atom = 0.0094394144
Neighbor list builds = 19256
Dangerous builds = 0
unfix           equil
# -----------------------------------------------------
# 6. 数据输出
# -----------------------------------------------------


# # 写出最终体系数据文件
# write_data      pdms_out.data
Total wall time: 0:51:33
