LAMMPS (29 Aug 2024)
# LAMMPS输入文件示例：使用Martini 3粗粒化力场计算PDMS的均方回转半径
# -----------------------------------------------------
# 1. 初始化设置
# -----------------------------------------------------
units               real
dimension           3
boundary            p p p
atom_style          full

# 读取包含PDMS分子结构的data文件
read_data           bad_pdms_100_box_40.data
Reading data file ...
  orthogonal box = (-2.236 -1.532503 -3.523002) to (122.234 122.8775 120.877)
  4 by 2 by 2 MPI processor grid
  reading atoms ...
  4000 atoms
  scanning bonds ...
  1 = max bonds/atom
  scanning angles ...
  1 = max angles/atom
  scanning dihedrals ...
  1 = max dihedrals/atom
  orthogonal box = (-2.236 -1.532503 -3.523002) to (122.234 122.8775 120.877)
  4 by 2 by 2 MPI processor grid
  reading bonds ...
  3960 bonds
  reading angles ...
  3920 angles
  reading dihedrals ...
  3880 dihedrals
Finding 1-2 1-3 1-4 neighbors ...
  special bond factors lj:    0        0        0       
  special bond factors coul:  0        0        0       
     2 = max # of 1-2 neighbors
     2 = max # of 1-3 neighbors
     4 = max # of 1-4 neighbors
     6 = max # of special neighbors
  special bonds CPU = 0.002 seconds
  read_data CPU = 0.051 seconds

# -----------------------------------------------------
# 2. 力场参数设置（Martini 3参数）
# -----------------------------------------------------
# 定义非键相互作用（示例：Lennard-Jones势，截断距离可参考Martini 3常用取值）
pair_style lj/cut   12.0
special_bonds       lj 0.0 0.0 0.5
Finding 1-2 1-3 1-4 neighbors ...
  special bond factors lj:    0        0        0.5     
  special bond factors coul:  0        0        0       
     2 = max # of 1-2 neighbors
     2 = max # of 1-3 neighbors
     4 = max # of 1-4 neighbors
     6 = max # of special neighbors
  special bonds CPU = 0.000 seconds
pair_coeff          1 1 0.7337 5.1
# 定义键、角、二面角势（示例参数，实际参数请参考相关文献）
bond_style          harmonic
bond_coeff          1 13.243 4.48
angle_style         harmonic
angle_coeff         1 5.48 86.0
dihedral_style      harmonic
dihedral_coeff      1 0.3346  1  1
# -----------------------------------------------------
# 3. 邻域列表设置
# -----------------------------------------------------
neigh_modify        one 1000
neighbor            1 bin
neigh_modify        delay 0 every 1 check yes

# -----------------------------------------------------
# 4. 能量最小化与预平衡
# -----------------------------------------------------
minimize            1.0e-4 1.0e-6 1000 10000

CITE-CITE-CITE-CITE-CITE-CITE-CITE-CITE-CITE-CITE-CITE-CITE-CITE

Your simulation uses code contributions which should be cited:

- Type Label Framework: https://doi.org/10.1021/acs.jpcb.3c08419

@Article{Gissinger24,
 author = {Jacob R. Gissinger, Ilia Nikiforov, Yaser Afshar, Brendon Waters, Moon-ki Choi, Daniel S. Karls, Alexander Stukowski, Wonpil Im, Hendrik Heinz, Axel Kohlmeyer, and Ellad B. Tadmor},
 title = {Type Label Framework for Bonded Force Fields in LAMMPS},
 journal = {J. Phys. Chem. B},
 year =    2024,
 volume =  128,
 number =  13,
 pages =   {3282–-3297}
}

CITE-CITE-CITE-CITE-CITE-CITE-CITE-CITE-CITE-CITE-CITE-CITE-CITE

Generated 0 of 0 mixed pair_coeff terms from geometric mixing rule
Neighbor list info ...
  update: every = 1 steps, delay = 0 steps, check = yes
  max neighbors/atom: 1000, page size: 100000
  master list distance cutoff = 13
  ghost atom cutoff = 13
  binsize = 6.5, bins = 20 20 20
  1 neighbor lists, perpetual/occasional/extra = 1 0 0
  (1) pair lj/cut, perpetual
      attributes: half, newton on
      pair build: half/bin/newton
      stencil: half/bin/3d
      bin: standard
Per MPI rank memory allocation (min/avg/max) = 8.173 | 8.314 | 8.686 Mbytes
   Step          Temp          E_pair         E_mol          TotEng         Press     
         0   0              3.1866277e+08  11372.924      3.1867414e+08  45412945     
       686   0             -12929.074      2511.8565     -10417.218     -44.75405     
Loop time of 0.202726 on 16 procs for 686 steps with 4000 atoms

94.9% CPU use with 16 MPI tasks x no OpenMP threads

Minimization stats:
  Stopping criterion = energy tolerance
  Energy initial, next-to-last, final = 
      318674141.212577  -10416.1955658722  -10417.2179707052
  Force two-norm initial, final = 4.6712277e+08 6.0260042
  Force max component initial, final = 50728546 0.65340665
  Final line search alpha, max atom move = 0.067086809 0.043834967
  Iterations, force evaluations = 686 739

MPI task timing breakdown:
Section |  min time  |  avg time  |  max time  |%varavg| %total
---------------------------------------------------------------
Pair    | 0.005458   | 0.03381    | 0.08634    |  15.4 | 16.68
Bond    | 0.0025046  | 0.011518   | 0.026578   |   6.9 |  5.68
Neigh   | 0.048511   | 0.05007    | 0.051377   |   0.5 | 24.70
Comm    | 0.021064   | 0.084578   | 0.11738    |  11.3 | 41.72
Output  | 0          | 0          | 0          |   0.0 |  0.00
Modify  | 0          | 0          | 0          |   0.0 |  0.00
Other   |            | 0.02275    |            |       | 11.22

Nlocal:            250 ave         574 max          51 min
Histogram: 5 1 2 2 1 0 2 0 1 2
Nghost:          623.5 ave         972 max         339 min
Histogram: 3 4 1 0 0 1 3 0 2 2
Neighs:        6324.38 ave       16024 max        1062 min
Histogram: 5 4 1 0 1 0 0 2 1 2

Total # of neighbors = 101190
Ave neighs/atom = 25.2975
Ave special neighs/atom = 5.88
Neighbor list builds = 112
Dangerous builds = 0
# npt系综下驰豫
fix                 1 all npt temp 300 300 100 iso 1.0 1.0 1000 drag 2
thermo_style        custom step temp density press epair ebond eangle edihed pxx pyy pzz etotal vol
thermo              1000
run                 500000
Generated 0 of 0 mixed pair_coeff terms from geometric mixing rule
Per MPI rank memory allocation (min/avg/max) = 7.048 | 7.218 | 7.561 Mbytes
   Step          Temp         Density         Press          E_pair         E_bond        E_angle        E_dihed          Pxx            Pyy            Pzz           TotEng         Volume    
       686   0              0.24825681    -44.75405      -12929.074      51.830116      1451.8424      1008.184      -50.044075     -47.589816     -36.62826      -10417.218      1926373      
      1000   1.1150586      0.25200835     12.766597     -12990.445      63.766307      1470.9775      1007.8964      7.6480831      8.8537325      21.797976     -10434.513      1897695.9    
      2000   26.465072      0.25889257     8.1094464     -13214.307      62.815178      1590.3001      1005.5035      9.3632819      0.33458926     14.630468     -10240.218      1847234.2    
      3000   93.360619      0.26123004     0.67368866    -13056.192      82.327071      1668.9109      1000.5182      12.491742      5.5510061     -16.021682     -9191.5527      1830705.3    
      4000   194.7215       0.26078919     2.4853659     -12537.934      153.38105      1884.1198      981.87664      9.872758       10.133253     -12.549913     -7197.4253      1833800      
      5000   270.19322      0.25572442    -1.3434235     -11841.3        312.93607      1997.3026      959.04667     -2.3032995      18.62956      -20.356531     -5351.2416      1870119.4    
      6000   295.13498      0.25326151     8.6362576     -11506.796      505.65787      2050.9799      939.91232      27.867265      13.997442     -15.955934     -4492.1603      1888305.9    
      7000   297.37808      0.25055442     3.7385145     -11278.571      645.20154      1960.1323      922.30223      12.179537      0.33177754    -1.2957715     -4206.1115      1908707.9    
      8000   303.22885      0.25305117    -3.0008794     -11453.265      785.06331      2005.5877      912.03686      10.375978      7.8475045     -27.22612      -4136.0105      1889875.5    
      9000   300.71569      0.2522595     -0.84413669    -11435.922      869.45089      1877.3204      899.12093      31.016739     -4.5122695     -29.03688      -4205.4211      1895806.5    
     10000   300.5872       0.25278008    -9.7420795     -11597.831      960.07752      1906.4464      885.54775      0.3685574      1.0303157     -30.625112     -4262.6821      1891902.3    
     11000   303.62269      0.25393336    -16.220713     -11704.258      999.34979      1826.2014      895.36645     -21.586749     -12.044288     -15.031102     -4364.0788      1883309.9    
     12000   302.17399      0.2576108      2.6798639     -11898.893      1048.7131      1812.1764      880.80469      9.7269379      5.1228413     -6.8101874     -4555.207       1856425.3    
     13000   300.42751      0.25811692     10.796304     -11954.286      1077.8224      1816.1297      880.82607      5.5237859      20.835459      6.0296686     -4598.3337      1852785.2    
     14000   304.08718      0.25649488    -7.8261151     -11925.068      1039.7645      1693.9709      871.67977     -17.520336      3.0205184     -8.9785277     -4694.8549      1864502      
     15000   299.5637       0.2589003      8.9469378     -11992.909      1061.4416      1775.4183      862.41848     -8.5838393      24.321258      11.103394     -4722.7533      1847179.1    
     16000   301.23274      0.25964571    -0.43464134    -12026.071      1099.7688      1736.0631      859.91161      33.333738     -19.43643      -15.201232     -4739.5554      1841876.1    
     17000   297.60551      0.25974062    -5.3541089     -12051.61       1128.8105      1692.3303      847.61942     -6.192362       14.897586     -24.767551     -4835.3148      1841203      
     18000   303.18423      0.2609341      15.939213     -12082.68       1100.6366      1641.0817      850.35795      21.702292      23.607932      2.5074139     -4876.5693      1832781.6    
     19000   304.15231      0.25924651    -5.9119321     -12065.87       1132.0149      1578.8026      837.94232     -25.861568      4.2619137      3.8638582     -4891.5354      1844712.3    
     20000   300.6849       0.25852292    -12.416779     -12079.097      1163.532       1593.5772      837.39967     -4.9878532      4.1592489     -36.421732     -4900.3461      1849875.5    
     21000   299.73409      0.25986531     5.7888389     -12161.157      1182.6935      1625.8473      839.72892     -7.039608      -0.62567131     25.031796     -4939.9796      1840319.5    
     22000   297.41074      0.2609198      9.9960038     -12234.047      1202.5136      1647.49        823.93803     -0.37122045     27.317368      3.0418632     -5014.8918      1832882      
     23000   301.79667      0.26013527     16.969705     -12206.978      1206.8016      1556.4894      833.93129     -11.643176      36.85361       25.69868      -5012.2607      1838409.7    
     24000   303.17613      0.25990197     6.8797856     -12239.755      1177.9962      1585.695       829.26078      1.7634688      1.1676882      17.7082       -5032.8647      1840060      
     25000   299.3977       0.26019739     2.3163271     -12213.074      1167.9461      1598.7619      823.801       -6.3991681     -18.847493      32.195643     -5053.6667      1837970.8    
     26000   301.64058      0.26017172    -4.0083553     -12291.446      1173.9893      1663.6924      827.66395     -20.786174      6.7426035      2.018504      -5030.466       1838152.2    
     27000   303.00397      0.26113219     5.7386962     -12284.693      1167.3495      1647.6104      818.90074      16.579836      21.287399     -20.651146     -5038.9468      1831391.2    
     28000   296.22246      0.26149483     11.509208     -12247.607      1193.5758      1639.6958      810.48858      23.893247      18.125016     -7.4906398     -5072.798       1828851.5    
     29000   299.47235      0.26146643    -4.4241518     -12319.142      1234.1206      1645.6137      811.74602     -3.5731299     -34.87795       25.178624     -5057.8732      1829050.1    
     30000   299.05277      0.26319621    -5.3750187     -12401.795      1190.2392      1658.8782      807.7121      -21.063513      22.101673     -17.163216     -5180.1787      1817029.3    
     31000   298.03932      0.26281379    -18.51325      -12312.698      1215.0799      1656.7465      800.93207     -33.146268     -1.4140481     -20.979435     -5087.234       1819673.2    
     32000   301.21311      0.26447795     4.1400796     -12395.573      1154.0175      1659.1853      806.64169      8.79678       -0.87191821     4.495377      -5185.1899      1808223.4    
     33000   297.72252      0.26412895    -7.8933916     -12378.279      1247.256       1680.1812      806.68499     -7.2851756     -26.605893      10.210894     -5095.2276      1810612.6    
     34000   304.42241      0.26409703    -0.38635406    -12372.774      1228.4         1645.5485      800.06362     -18.520599      15.738194      1.6233428     -5069.968       1810831.4    
     35000   304.73278      0.26519643    -9.4255907     -12425.813      1206.6084      1619.8019      804.38452     -25.464216      6.5009835     -9.3135392     -5162.5243      1803324.5    
     36000   300.24315      0.26617446     7.2574479     -12355.905      1169.4125      1560.5632      801.26759      30.39332       12.787586     -21.408562     -5245.6855      1796698.3    
     37000   298.42755      0.26691486     1.2606665     -12411.054      1210.9938      1644.7897      798.95898     -2.8878631     -14.273051      20.942914     -5198.9778      1791714.4    
     38000   298.47285      0.26647709    -9.9908616     -12384.814      1183.5222      1641.3348      793.25742     -15.20445      -15.687149      0.91901359    -5208.8253      1794657.9    
     39000   300.43031      0.26674319     1.8905872     -12367.49       1156.77        1628.0845      785.57013      8.0522516      1.514118      -3.8946081     -5215.858       1792867.6    
     40000   300.72463      0.26859649     1.9595766     -12432.325      1192.6704      1642.8738      782.75933     -3.5153857     -0.12116907     9.5152844     -5229.3064      1780496.9    
     41000   301.19423      0.26682844    -1.4083287     -12388.714      1173.4648      1613.5608      785.783       -4.2957077     -7.6903377      7.7610593     -5225.5923      1792294.7    
     42000   298.43941      0.26700253    -10.784313     -12383.594      1175.3962      1614.6818      772.44054     -5.5344484     -8.0681487     -18.750341     -5263.6007      1791126.1    
     43000   300.58823      0.26836111     3.4096297     -12459.289      1187.6565      1623.1101      778.29456     -23.696573      17.689609      16.235852     -5287.1377      1782058.6    
     44000   303.20825      0.26694653     2.9254367     -12365.556      1162.3916      1616.4172      771.42516     -10.267957     -16.544602      35.588869     -5201.001       1791501.9    
     45000   297.69239      0.2662964     -8.7639659     -12317.724      1186.4321      1554.9855      774.78876     -18.750244      1.0604171     -8.6020704     -5252.9473      1795875.6    
     46000   298.56192      0.26792849    -0.81885412    -12394.587      1151.3671      1608.0688      775.82285     -15.840611      3.4579266      9.9261225     -5300.3922      1784936      
     47000   302.74533      0.26956488     14.607857     -12471.722      1160.4206      1619.5951      770.66174     -1.8089879      26.680613      18.951945     -5312.242       1774100.6    
     48000   295.94522      0.26844617     6.7603696     -12377.314      1172.0329      1619.2335      774.44892     -3.3059164      32.43189      -8.8448646     -5283.855       1781493.9    
     49000   295.38357      0.26967803     4.5859885     -12392.283      1197.3076      1620.218       776.73561      31.258372     -27.113229      9.6128223     -5276.9731      1773356.2    
     50000   296.02293      0.27209761     3.126182      -12474.002      1197.0281      1596.3566      771.28679      4.7210217      5.4625811     -0.80505676    -5380.6606      1757586.9    
     51000   296.79155      0.27352137     6.6028387     -12490.556      1224.3324      1637.4759      756.40775      14.233286      12.74474      -7.16951       -5334.5081      1748438.2    
     52000   300.94464      0.27488585     7.0924562     -12503.085      1183.1836      1645.0512      764.07497      7.0921688      19.671142     -5.4859426     -5323.4372      1739759.3    
     53000   298.88765      0.27708367     15.288657     -12541.947      1199.4083      1668.9682      774.16847      26.590165      21.372123     -2.0963159     -5336.5835      1725959.6    
     54000   299.83639      0.27625101     2.8713047     -12439.641      1182.5761      1563.3785      771.76428     -17.160957     -7.3202738      33.095145     -5347.7947      1731161.9    
     55000   297.32395      0.27707387    -20.434633     -12454.096      1213.4724      1606.8223      780.3562      -1.2991064     -25.836194     -34.168597     -5309.2665      1726020.6    
     56000   301.18511      0.27921166    -1.0910261     -12506.573      1191.1387      1638.1762      774.21548      24.42453      -4.6622104     -23.035398     -5312.8378      1712805.3    
     57000   299.55595      0.27989642     0.18631344    -12436.535      1180.7374      1630.4867      779.52144      8.7176199     -8.0021743     -0.1565053     -5275.0051      1708614.9    
     58000   294.68744      0.28027945     4.2957752     -12406.899      1225.1774      1616.9747      771.94013     -16.03397       18.680376      10.240919     -5280.0563      1706280      
     59000   301.68898      0.28283433    -10.508913     -12434.816      1202.7194      1578.4506      769.82094      16.057135     -36.917896     -10.665977     -5287.6147      1690866.9    
     60000   301.26378      0.28636594     5.7539066     -12490.982      1225.6472      1596.1744      769.66504     -6.8481175      7.481155       16.628682     -5308.353       1670014.3    
     61000   294.94522      0.28618135     2.3286235     -12452.084      1198.5434      1582.0828      772.33065      19.768158     -2.5107521     -10.271535     -5383.304       1671091.5    
     62000   297.15512      0.28837883     2.0235955     -12486.75       1184.6004      1607.8254      775.57921      1.0251409      20.24459      -15.198945     -5376.5785      1658357.6    
     63000   303.2097       0.2914543      3.8368397     -12464.651      1164.1357      1614.0288      777.95122     -4.0565552      22.965721     -7.3986462     -5294.1972      1640858.3    
     64000   300.92086      0.29305124     3.6893345     -12490.773      1197.1543      1607.4755      771.4334      -15.398565     -5.0700644      31.536633     -5327.655       1631916.7    
     65000   300.40954      0.29425564     5.746044      -12425.771      1206.7969      1598.7674      779.19394      10.347101     -20.476791      27.367822     -5260.0533      1625237.2    
     66000   302.45877      0.29553495     2.9847977     -12459.15       1204.3171      1585.2085      772.38418     -20.220895      6.78299        22.392298     -5291.8528      1618201.9    
     67000   296.72379      0.29742461     1.3684341     -12490.943      1217.0916      1665.3751      778.71031     -4.136439       4.456776       3.7849653     -5292.7418      1607920.8    
     68000   302.63479      0.29898003     6.4184225     -12458.963      1189.1615      1591.5289      780.41688      13.191931     -8.945986       15.009323     -5290.3704      1599555.7    
     69000   299.11048      0.30053997     3.0704743     -12408.384      1207.6279      1606.9727      766.07722      11.166691      18.120865     -20.076133     -5262.232       1591253.3    
     70000   299.87212      0.3025899      5.423433      -12470.445      1201.4718      1589.1438      764.65932      9.7690563      0.92774022     5.5735025     -5340.6164      1580473.1    
     71000   304.46743      0.30367281    -2.2865506     -12455.911      1181.7255      1545.1089      769.76452      14.123969      5.2875553     -26.271176     -5329.9817      1574837.1    
     72000   304.01025      0.30786892     0.60083475    -12595.461      1236.0428      1581.9191      762.3166       5.6421782     -20.115732      16.276058     -5391.3015      1553372.8    
     73000   299.72244      0.3088882      3.8355876     -12497.17       1169.1321      1615.4706      765.43563      1.1537331      25.655748     -15.302719     -5374.362       1548246.9    
     74000   299.73468      0.3114206      5.8132936     -12526.671      1220.4396      1614.299       767.07371      15.454981      12.876076     -10.891177     -5351.9436      1535657      
     75000   301.5365       0.31372033     2.8856031     -12534.11       1219.2665      1593.9249      768.42702      4.446233       8.4548472     -4.244271      -5358.0984      1524399.8    
     76000   301.64445      0.31518105     8.4600256     -12505.224      1177.2392      1550.2201      764.31083      29.522577     -17.729881      13.587381     -5417.7742      1517334.9    
     77000   298.44609      0.31539517    -10.480476     -12416.458      1206.0343      1508.2373      764.91217      14.076679     -45.691703      0.17359629    -5379.7194      1516304.8    
     78000   300.61436      0.31750724    -9.5144957     -12425.325      1194.6851      1523.5551      759.06511      21.978768     -57.001927      6.4796713     -5364.6184      1506218.3    
     79000   297.78374      0.32024445    -4.522036      -12511.376      1193.2214      1592.1811      764.57589      11.218535     -26.052109      1.2674661     -5411.7382      1493344.3    
     80000   297.82723      0.3237361      18.777946     -12490.216      1171.2578      1570.6787      766.13651      43.525268     -0.16921408     12.977785     -5431.9651      1477237.8    
     81000   300.80976      0.32354365    -14.864517     -12518.886      1197.7013      1518.2734      767.95812      2.5519601     -38.76119      -8.3843196     -5449.2225      1478116.5    
     82000   304.93618      0.32744233    -8.7122058     -12567.36       1204.1789      1576.1314      772.53037      6.6655259     -5.5756541     -27.226489     -5379.6009      1460517.3    
     83000   301.75728      0.32996625    -12.986457     -12549.195      1205.536       1532.6199      771.79331     -5.1445002     -9.253684      -24.561187     -5442.221       1449345.8    
     84000   301.6941       0.33317739     6.2368124     -12535          1148.992       1543.7091      770.81111      23.824715     -20.645005      15.530727     -5475.2158      1435377.1    
     85000   302.63599      0.33695542     8.5749174     -12550.393      1176.4243      1505.2321      767.56267      7.309301      -15.758999      34.17445      -5493.6739      1419283.3    
     86000   301.70879      0.34071063    -0.0027877414  -12594.655      1220.101       1556.2247      771.71059     -18.136428      14.935181      3.1928839     -5450.1715      1403640.4    
     87000   300.84625      0.34312671     9.0834138     -12544.711      1178.8512      1591.8072      776.74299      31.23947       24.666057     -28.655285     -5411.1439      1393756.9    
     88000   298.98167      0.34820491    -5.9533622     -12605.98       1183.3419      1604.818       771.85048     -5.9960293     -36.01877       24.154712     -5482.0308      1373430.4    
     89000   300.03495      0.35175758     3.0580293     -12550.001      1187.3702      1550.657       775.94336      44.637364     -24.922153     -10.541123     -5459.5363      1359559.1    
     90000   302.46693      0.35985109     8.2635873     -12711.084      1215.0359      1659.884       766.8073       34.943969      21.194794     -31.348        -5463.8724      1328980.9    
     91000   301.53504      0.36507099     0.53699879    -12684.098      1212.1095      1597.6169      769.08457      16.940689      12.002955     -27.332647     -5510.9114      1309978.7    
     92000   294.12951      0.36823306    -0.93970304    -12534.181      1208.6854      1604.7149      764.34929      9.6520774     -2.6723487     -9.7988378     -5450.3315      1298729.7    
     93000   300.43186      0.37624226     12.036751     -12593.526      1198.1844      1620.5453      758.39812      21.111971     -22.189949      37.18823      -5435.1723      1271083.2    
     94000   297.22051      0.38260951    -0.57582214    -12592.584      1212.4809      1601.8121      771.29504     -28.472394      19.553423      7.1915041     -5464.0502      1249930.3    
     95000   299.28415      0.39078019     0.46654878    -12637.606      1204.6329      1656.5205      777.56438      10.834056     -13.732213      4.2978034     -5431.3433      1223795.9    
     96000   300.85609      0.39893636    -0.83611313    -12630.136      1154.269       1609.6051      760.9513      -9.9274343     -18.858012      26.277107     -5519.0276      1198775.7    
     97000   298.61809      0.40450516    -25.534878     -12571.9        1199.622       1568.0959      765.78412      6.7529977     -70.528072     -12.829561     -5478.7932      1182272.2    
     98000   301.37611      0.41373534    -10.704284     -12618.605      1174.4648      1601.1254      762.00838      15.629763     -9.8423965     -37.900218     -5488.5253      1155896.4    
     99000   299.35557      0.4242725      8.5448805     -12656.604      1167.9506      1630.62        770.05119      23.867554      16.823014     -15.055926     -5519.5866      1127188.8    
    100000   305.04022      0.4301857     -3.2211269     -12594.693      1135.0078      1530.6864      776.32692      10.633763     -27.716743      7.4195996     -5516.5129      1111694.8    
    101000   305.36441      0.4410571     -10.170573     -12695.926      1134.9017      1583.9815      774.14121      30.793857     -47.818395     -13.487182     -5562.8783      1084293.2    
    102000   301.56557      0.45071902     12.123386     -12648.652      1165.4181      1602.1224      775.15493     -3.3932146      16.465418      23.297955     -5511.2166      1061049.6    
    103000   302.39465      0.46258278     6.6186204     -12786.607      1182.6313      1596.4589      780.29694     -31.272075      5.4588681      45.669068     -5622.5975      1033837      
    104000   300.43717      0.47409275    -7.1206334     -12789.969      1218.3519      1604.015       776.27869      35.553631     -14.801465     -42.114067     -5610.0344      1008737.7    
    105000   297.32499      0.48590152    -8.7908494     -12809.627      1210.7791      1598.4838      774.05547      41.681836     -30.680966     -37.373418     -5682.1174      984222.5     
    106000   300.47634      0.49449105     8.2892014     -12775.131      1146.5622      1577.3565      775.81214      45.18709      -2.3289659     -17.99052      -5693.6444      967126.12    
    107000   297.37271      0.50717354    -10.082287     -12930.674      1226.4676      1681.6062      769.75671     -82.280298      22.321708      29.711729     -5708.0834      942941.96    
    108000   300.06929      0.51982487     13.676423     -12996.92       1184.1386      1643.4841      771.41008      12.819417      54.574828     -26.364975     -5820.9835      919992.93    
    109000   300.68788      0.52561138    -3.2005065     -12986.182      1248.9239      1576.8196      769.4239      -32.269797      80.860078     -58.191801     -5806.7372      909864.64    
    110000   300.96562      0.53402276     0.84376874    -13008.903      1195.0048      1577.9027      767.85941      0.75864654    -7.5978287      9.3704884     -5880.5477      895533.39    
    111000   295.51359      0.53937924    -5.6305025     -12974.763      1198.0602      1612.4641      764.86425     -13.038825      41.968049     -45.820731     -5876.7756      886640       
    112000   296.09569      0.54654106     1.2936225     -12981.422      1218.7593      1607.2921      755.03677      4.6759705      3.0608351     -3.8559382     -5870.7961      875021.55    
    113000   297.66558      0.55483503     2.8598139     -13011.436      1194.7536      1621.8742      761.49435     -6.3051937     -19.313957      34.198593     -5885.063       861941.26    
    114000   301.39224      0.56040326    -18.491741     -13073.955      1214.5772      1621.9412      757.88243     -3.088607      -1.6175525     -50.769063     -5886.8809      853376.93    
    115000   301.8888       0.56775831    -14.578576     -13068.118      1205.299       1612.3068      757.27872     -34.763238      21.379942     -30.352431     -5894.6404      842321.82    
    116000   303.74647      0.57713535     15.355636     -13147.726      1169.8935      1674.3901      754.00291     -4.0185689      16.857073      33.228403     -5928.7026      828636.13    
    117000   301.60125      0.5781241     -4.0988687     -13020.044      1184.0227      1569.5185      762.30657      9.8031456     -28.088429      5.9886773     -5909.0312      827218.94    
    118000   304.86682      0.59032705     9.4695237     -13207.788      1225.0698      1637.7305      768.42085      13.636702     -5.2564284      20.028297     -5942.4757      810119.09    
    119000   300.97223      0.59612264     14.279678     -13177.103      1209.1716      1675.9197      759.87459      2.2072467      21.907061      18.724728     -5944.4702      802243       
    120000   299.30343      0.59785709    -14.328208     -13077.88       1202.813       1616.1364      755.14718     -15.904697      1.2046471     -28.284575     -5936.0089      799915.59    
    121000   299.32531      0.60424289    -36.572043     -13125.727      1221.1607      1572.6013      761.10631     -58.593564     -49.73781      -1.3847547     -6002.8235      791461.87    
    122000   299.45305      0.61337037     14.320327     -13212.524      1198.8542      1674.1481      755.86393      3.8110435      40.871439     -1.7215004     -6014.0999      779684.23    
    123000   296.11538      0.61846768     14.670264     -13184.761      1227.3438      1636.4256      759.79122     -55.243154      35.952267      63.301681     -6031.4288      773258.2     
    124000   300.53164      0.62320954    -9.3217236     -13204.143      1235.4944      1587.0463      754.84577     -44.501091      32.922262     -16.386341     -6044.341       767374.66    
    125000   301.91207      0.62613795    -2.8940468     -13209.865      1205.0593      1591.9298      750.44145      0.32084139    -4.1020113     -4.9009706     -6063.5644      763785.7     
    126000   302.78569      0.63044493    -17.311349     -13229.16       1200.1824      1602.6333      757.61168     -15.3442       -32.079037     -4.5108084     -6059.4489      758567.77    
    127000   302.7826       0.63581787    -25.750871     -13266.594      1178.1557      1622.2171      752.88556     -47.533967     -21.284603     -8.4340421     -6104.0889      752157.54    
    128000   305.27678      0.63903393     15.098625     -13257.766      1167.8037      1581.4296      742.56506     -42.121115      54.650899      32.766091     -6126.9894      748372.17    
    129000   299.29785      0.64325721    -6.0436862     -13220.398      1191.5734      1611.8941      749.67938     -2.6449551     -15.757999      0.27189594    -6099.5433      743458.76    
    130000   294.78174      0.65150958     5.1461165     -13340.941      1246.3284      1663.8382      755.07698     -64.339454      6.9642174      72.813586     -6161.8229      734041.72    
    131000   300.2078       0.65497618    -11.675225     -13377.502      1218.4101      1711.2121      751.61216     -76.49678       3.2329732      38.238133     -6117.7125      730156.64    
    132000   298.62237      0.65846402     16.012309     -13367.928      1182.1593      1688.4301      747.2401       16.685532      72.962505     -41.61111      -6190.4421      726289.05    
    133000   302.94605      0.66115266    -11.172387     -13380.509      1177.7791      1646.4536      751.30838      57.695903     -32.472256     -58.740807     -6193.7727      723335.53    
    134000   299.83749      0.66619611    -7.4310463     -13353.994      1153.2232      1674.1622      752.85099     -63.409303      40.919327      0.19683693    -6199.6171      717859.51    
    135000   306.31022      0.67138538    -32.793249     -13419.659      1162.0789      1655.3267      754.40719     -18.552219      27.404334     -107.23186     -6196.549       712311.02    
    136000   294.72584      0.67890693    -3.2454944     -13377.965      1213.2085      1665.5643      756.62406      11.822755      87.098776     -108.65801     -6229.3599      704419.4     
    137000   296.70785      0.68365774    -14.763476     -13371.28       1212.8066      1614.6784      765.7223      -19.707386     -58.790483      34.207442     -6241.2384      699524.31    
    138000   298.04657      0.68883556    -30.562112     -13397.958      1194.8068      1659.9978      760.0411      -20.604209     -48.385581     -22.696546     -6230.3197      694266.15    
    139000   304.97151      0.69498464    -3.9856564     -13508.125      1208.3673      1601.3045      757.64525     -36.236776      53.310065     -29.030258     -6305.4682      688123.42    
    140000   297.75559      0.69925414    -10.581018     -13474.749      1192.0347      1607.4892      754.58929     -17.63157      -48.72901       34.617527     -6371.3115      683921.88    
    141000   299.07155      0.70414062    -12.940395     -13475.151      1218.8198      1621.0546      754.26375      21.943655     -51.584297     -9.1805423     -6316.0022      679175.72    
    142000   300.74256      0.7107258      20.231752     -13530.371      1202.5007      1653.4385      751.58097      9.8624025      44.7287        6.104153      -6337.9219      672882.86    
    143000   302.6519       0.71294575    -12.795158     -13491.828      1194.713       1616.5819      754.00497      0.083011465   -15.356246     -23.11224      -6318.8385      670787.66    
    144000   301.36237      0.71775907    -9.9923037     -13556.85       1174.9007      1612.7446      750.26028     -129.63579      20.173752      79.485125     -6426.627       666289.33    
    145000   297.5073       0.72468881     29.674544     -13569.443      1191.6587      1650.9635      750.80333      19.696582      43.659096      25.667955     -6429.6531      659918.02    
    146000   299.78507      0.72818949    -3.2229692     -13597.461      1169.1973      1672.8477      744.32716     -51.990151      74.360243     -32.038999     -6437.5735      656745.55    
    147000   295.75047      0.73180896    -27.498418     -13599.814      1228.4999      1673.181       753.86759     -95.069703      17.121144     -4.5466955     -6418.8435      653497.34    
    148000   297.68525      0.73486847    -11.657343     -13627.912      1198.911       1661.9014      744.93047     -6.0533284     -45.842724      16.924025     -6473.6836      650776.61    
    149000   300.87472      0.74016432     16.929007     -13685.986      1177.2575      1687.7348      736.19677      15.99229      -1.3344801      36.129212     -6498.2925      646120.32    
    150000   299.44911      0.73931763    -24.381679     -13658.372      1225.2735      1619.3495      733.95964     -35.828192     -10.606495     -26.710349     -6510.2781      646860.28    
    151000   300.50936      0.74251068    -12.657723     -13688.359      1232.4955      1653.2466      744.29251     -55.170494      56.23349      -39.036164     -6476.1753      644078.56    
    152000   302.76428      0.74845341    -2.2764701     -13779.851      1196.8057      1662.5599      750.25359     -10.475659     -30.94853       34.594778     -6561.2033      638964.56    
    153000   301.18828      0.74798942     3.6790518     -13746.033      1208.9105      1609.1956      750.49772     -16.595946      62.773731     -35.140629     -6587.1865      639360.93    
    154000   298.19255      0.74964084     7.7522402     -13652.681      1233.0228      1612.4499      748.82112      7.8118259     -2.675903       18.120798     -6503.855       637952.45    
    155000   298.40421      0.75395395    -21.069721     -13732.54       1196.9822      1649.0159      738.80055     -80.703492      28.41795      -10.923619     -6590.6852      634302.94    
    156000   304.26552      0.75678966     11.651191     -13720.934      1174.1034      1648.465       736.20415      57.578797      6.3367295     -28.961954     -6535.2374      631926.2     
    157000   304.09881      0.75885561    -24.361913     -13804.586      1195.2542      1699.9218      740.96892      22.873839     -47.529155     -48.430424     -6543.5039      630205.8     
    158000   296.38421      0.76164411    -9.0097496     -13710.835      1247.9626      1624.8775      737.21133     -29.139661      53.33575      -51.225338     -6567.8071      627898.52    
    159000   301.7855       0.76619875     13.200244     -13801.365      1201.5003      1665.9174      737.57786      75.430188     -15.230993     -20.598464     -6599.0078      624166       
    160000   301.41215      0.76569816     16.32856      -13803.614      1198.3998      1641.0409      735.69243      8.1924407      78.265836     -37.472597     -6635.5696      624574.06    
    161000   300.49617      0.76690933    -10.987975     -13840.76       1258.3982      1636.9592      742.26297      62.204532      15.407786     -110.57624     -6621.1472      623587.68    
    162000   300.13061      0.77177399     15.257529     -13807.362      1224.6934      1635.7937      736.47847      51.296278      1.4136827     -6.9373735     -6632.762       619657.07    
    163000   302.17976      0.77334973     25.483891     -13850.29       1219.3764      1644.8593      737.11157      3.7496403      16.568048      56.133983     -6646.8815      618394.49    
    164000   299.13158      0.77255123     15.63584      -13803.908      1219.0533      1670.7763      732.23729      20.546106      28.600305     -2.2388907     -6616.1154      619033.65    
    165000   299.50847      0.77634801     1.1401014     -13838.488      1225.1463      1647.6956      731.99107      44.921026     -12.551447     -28.949275     -6663.4368      616006.23    
    166000   301.88754      0.77731732    -7.0128138     -13831.929      1215.1941      1607.6005      726.68667      4.8973474     -37.495965      11.560176     -6683.8699      615238.07    
    167000   300.04843      0.77500668    -33.785042     -13808.304      1260.6737      1614.1113      736.65702     -61.653818      8.1414872     -47.842796     -6620.2067      617072.37    
    168000   302.03298      0.77699751    -17.790867     -13816.378      1234.9535      1636.0568      734.47526      23.567212     -23.078738     -53.861074     -6610.5808      615491.3     
    169000   299.45159      0.77999508     20.977841     -13869.477      1221.9992      1642.6249      732.63141      79.639226     -21.889803      5.1841        -6702.6809      613125.93    
    170000   299.73112      0.7780201      2.2302748     -13817.307      1205.0748      1619.06        733.29009      0.31245703     10.908134     -4.529767      -6687.0092      614682.33    
    171000   299.92173      0.78264758     14.364757     -13829.541      1179.4182      1615.5885      735.91603     -26.16463       73.242402     -3.9835014     -6723.4733      611047.96    
    172000   304.58658      0.7847768     -1.8823172     -13899.554      1168.8225      1606.0813      735.62669      50.543303     -37.249372     -18.940882     -6758.2728      609390.09    
    173000   298.66559      0.78820113    -15.754077     -13956.349      1196.2784      1699.0085      731.88881     -43.638973      73.159848     -76.783107     -6769.0016      606742.61    
    174000   298.84082      0.79012174    -26.724385     -13881.939      1236.8853      1618.4816      729.35665     -72.111871      28.598996     -36.66028      -6734.9551      605267.75    
    175000   299.80553      0.79546136    -4.4573175     -13874.094      1224.4576      1593.6435      730.0128      -14.487184      27.489903     -26.374672     -6752.2204      601204.82    
    176000   301.42557      0.80061356    -0.48319856    -13914.243      1196.2061      1587.6152      729.80093      72.391165     -92.324377      18.483616     -6807.5503      597335.89    
    177000   297.81683      0.80630247     48.33893      -13900.788      1223.8817      1633.9033      733.94098      40.629027      24.472927      79.914836     -6759.0085      593121.35    
    178000   299.29734      0.80793758    -3.6959482     -13881.513      1265.0315      1640.2693      722.4522      -54.937154     -8.404615       52.253924     -6686.0585      591920.99    
    179000   297.70396      0.8066902     -27.412286     -13836.776      1235.5578      1674.5767      722.43322      76.906661     -36.281312     -122.86221     -6655.5003      592836.27    
    180000   299.58719      0.81163371    -13.676156     -13887.719      1210.2392      1690.7561      729.90124      0.020333052   -62.044527      20.995726     -6685.6652      589225.41    
    181000   300.37193      0.81391721    -10.869076     -13900.869      1179.449       1676.1995      722.42147     -152.70534     -0.53000972     120.62812     -6742.2881      587572.3     
    182000   301.64308      0.81415788    -10.900038     -13889.222      1181.9934      1621.6348      721.16829     -21.980633     -10.342405     -0.37707437    -6768.7622      587398.62    
    183000   303.82336      0.8174389      8.2316968     -13921.006      1145.3472      1693.4647      717.17565      74.123087     -43.001449     -6.4265481     -6743.3656      585040.92    
    184000   304.96628      0.81951323     9.6865396     -13981.089      1191.2699      1699.7121      725.63603      73.767369     -30.107975     -14.599775     -6729.1934      583560.08    
    185000   302.19722      0.82453985     13.445571     -14036.285      1188.4483      1734.6655      729.56903     -5.8025413      27.976184      18.163071     -6781.333       580002.54    
    186000   304.77514      0.82632952    -27.616257     -14083.661      1188.8481      1733.857       722.44629      7.3683089      25.565261     -115.78234     -6805.5105      578746.37    
    187000   299.87579      0.82737212    -0.70346687    -13998.832      1208.19        1661.6706      726.10126     -8.6729796      51.925147     -45.362568     -6828.273       578017.07    
    188000   301.77488      0.82519316    -29.290298     -13938.866      1189.5106      1619.6267      729.33751      1.6906241      16.573591     -106.13511     -6803.1562      579543.35    
    189000   301.06078      0.82539634    -10.966371     -13939.151      1204.1084      1615.0068      724.32509     -0.48780195    -2.381305      -30.030005     -6806.9884      579400.69    
    190000   299.0319       0.83230257     23.35407      -14013.502      1230.8583      1700.1081      725.14948      82.116293      36.647658     -48.701739     -6792.8483      574592.98    
    191000   305.76169      0.83799781    -29.522495     -14114.179      1207.395       1719.7113      726.07776      3.5079907     -36.730899     -55.344577     -6816.2365      570687.9     
    192000   298.19245      0.83968307     7.2307073     -14068.292      1248.5698      1698.6646      724.87723      88.360319     -112.2032       45.535        -6841.6493      569542.51    
    193000   299.60118      0.84346903     1.103567      -14061.668      1241.198       1667.8715      717.98633     -60.294543      19.974738      43.630506     -6863.2882      566986.1     
    194000   301.08917      0.84627943     40.195996     -14041.336      1211.4873      1647.6448      721.75803      34.270201     -18.583731      104.90152     -6871.385       565103.2     
    195000   301.98871      0.84835345    -4.7254036     -14045.451      1207.6011      1623.3191      718.21803      21.514034     -103.75523      68.064988     -6896.5286      563721.65    
    196000   301.00275      0.85221702     32.165817     -14067.919      1175.2617      1630.6185      716.68949     -5.4328482      46.47873       55.451571     -6957.3185      561165.99    
    197000   301.63963      0.85506696     29.649835     -14076.829      1183.2366      1682.0429      714.70313      88.986542      27.717463     -27.7545       -6901.2237      559295.62    
    198000   296.91674      0.85535722     0.95684752    -14122.123      1207.6075      1716.6919      723.45813     -4.380492      -73.001538      80.252572     -6935.0413      559105.83    
    199000   302.74831      0.8576503      14.523454     -14145.206      1192.1435      1679.3791      725.96017      102.41683     -22.510349     -36.336119     -6938.8847      557610.96    
    200000   298.81432      0.85833893    -9.8849369     -14155.186      1196.7557      1695.0839      727.49023     -30.991681     -22.428247      23.765117     -6973.9122      557163.6     
    201000   301.69965      0.8639122      23.671904     -14173.702      1182.189       1612.3699      717.62496      39.44198      -78.48451       110.05824     -7065.1805      553569.23    
    202000   295.73692      0.86032743    -27.867116     -14144.016      1249.7427      1667.5792      723.3441       31.802481     -31.52574      -83.878089     -6978.0896      555875.81    
    203000   303.855        0.86300991     6.1148176     -14191.068      1165.9546      1704.6061      714.19218     -37.726382      9.3185127      46.752322     -6984.2851      554147.99    
    204000   298.89262      0.86249343    -9.4338414     -14174.758      1211.4479      1750.5658      722.27586     -9.7078698     -8.1938127     -10.399842     -6927.5912      554479.83    
    205000   299.77688      0.8640719     -39.507969     -14157.083      1195.0886      1707.2382      721.7757      -42.812714     -49.70897      -26.002224     -6959.5625      553466.91    
    206000   302.53731      0.86217907    -36.568092     -14121.222      1226.2834      1591.8967      721.90639     -29.188034     -54.820452     -25.695789     -6974.8123      554682       
    207000   296.83811      0.87036332     33.75417      -14171.766      1212.4502      1708.221       722.77809      45.003071      5.3075505      50.95189      -6989.9295      549466.18    
    208000   298.54644      0.87319288     54.538366     -14243.777      1235.7249      1744.6234      723.43525      43.671708      52.091826      67.851562     -6981.2424      547685.65    
    209000   302.43154      0.87621316     49.635758     -14318.622      1187.7184      1736.0303      718.47773      6.3838043      18.001254      124.52221     -7071.3331      545797.79    
    210000   301.00743      0.87537569     39.334448     -14252.051      1185.5902      1714.896       718.06304      98.675596      66.02623      -46.698483     -7045.415       546319.95    
    211000   299.97649      0.87865771     19.392459     -14269.594      1212.3219      1739.8396      721.86075      3.5018943     -8.2487628      62.924246     -7019.7745      544279.31    
    212000   303.6313       0.87967791    -4.7306818     -14336.341      1185.3654      1687.7996      723.71763     -44.387213      98.474159     -68.278992     -7120.0943      543648.08    
    213000   300.89025      0.88098669     26.669263     -14323.78       1206.1215      1723.3688      730.38167      154.57199     -66.273241     -8.290957      -7077.2179      542840.45    
    214000   301.04548      0.87924426    -63.399336     -14283.762      1211.8697      1680.7254      727.93115     -38.495132     -132.52483     -19.17805      -7074.6954      543916.21    
    215000   296.52001      0.88477818    -6.0632746     -14373.886      1236.5857      1714.8783      727.00799     -0.46604494    -73.813826      56.090047     -7160.8186      540514.24    
    216000   295.10626      0.88193086     5.4218389     -14263.183      1255.82        1653.0758      723.5149      -101.84994      78.163215      39.952242     -7113.0296      542259.3     
    217000   303.30405      0.88730537     26.947827     -14357.24       1188.6935      1703.1108      715.42378      48.651315      61.228334     -29.036169     -7134.5492      538974.77    
    218000   300.97307      0.88699357    -22.492742     -14352.684      1221.924       1661.974       724.72479     -23.63795      -30.504681     -13.335597     -7156.3841      539164.24    
    219000   298.95734      0.88561057     6.4351666     -14255.212      1223.0603      1631.8586      727.20286      7.8729546      60.487481     -49.054936     -7109.4416      540006.21    
    220000   302.20187      0.88608048     20.091797     -14283.069      1195.234       1583.0005      720.05478      54.377168      38.947412     -33.049189     -7182.4553      539719.83    
    221000   299.64182      0.89232766     17.352684     -14362.011      1190.9085      1679.388       717.45842      75.525327      37.912302     -61.379577     -7202.4478      535941.26    
    222000   305.37954      0.89175336    -26.539749     -14318.36       1160.4774      1649.2213      718.12964     -38.790429     -29.740143     -11.088674     -7150.3285      536286.41    
    223000   300.96232      0.89264818    -27.934785     -14345.295      1201.9161      1641.3589      715.14383     -22.880556     -90.941716      30.017916     -7199.3277      535748.82    
    224000   298.43895      0.89151122    -10.406722     -14270.784      1188.512       1596.3359      711.46467     -7.2275957      49.367177     -73.359746     -7217.0019      536432.07    
    225000   301.30954      0.89529666    -3.0119098     -14362.319      1171.3568      1654.6458      706.22637     -10.394716      62.65639      -61.297403     -7238.4022      534163.96    
    226000   298.81935      0.89851511    -17.577383     -14363.614      1209.3261      1690.0511      705.94216     -98.009093      1.8343921      43.442551     -7196.2906      532250.6     
    227000   299.38337      0.90046196     14.825511     -14430.304      1199.7761      1697.7886      712.61473      47.371394      11.615594     -14.510455     -7251.3967      531099.85    
    228000   297.29868      0.90156344    -13.66981      -14483.634      1216.4042      1730.9793      712.72879      57.198808     -29.353523     -68.854714     -7279.6446      530450.98    
    229000   298.80243      0.90092995     14.589889     -14443.364      1212.2111      1770.3224      714.22769      60.072795      46.674967     -62.978094     -7184.7999      530823.97    
    230000   298.2857       0.89709516    -19.900753     -14359.325      1230.8399      1689.2702      701.54046     -33.934892      16.277376     -42.044744     -7182.0314      533093.07    
    231000   301.41121      0.90274715     37.212295     -14413.176      1206.1343      1675.3908      708.68687      20.877455      142.70266     -51.943231     -7230.0646      529755.44    
    232000   301.17072      0.9021234      23.370352     -14422.411      1164.774       1690.9443      703.62551      11.773075     -65.195018      123.533       -7273.0338      530121.72    
    233000   296.95782      0.9032798     -0.58016645    -14425.701      1228.0878      1696.0853      706.26148     -12.011418      18.864323     -8.5934044     -7255.4526      529443.04    
    234000   300.72607      0.90569546    -31.103875     -14486.315      1235.343       1681.7946      701.86527     -33.665982     -36.016883     -23.628759     -7282.5798      528030.92    
    235000   296.76156      0.90334444    -23.419165     -14404.962      1240.1855      1636.6896      704.59825      50.925465     -42.796481     -78.386478     -7286.0135      529405.16    
    236000   301.3264       0.9075279      38.153633     -14457.632      1232.8837      1640.3187      701.65238      112.62519     -36.672871      38.508576     -7290.8885      526964.75    
    237000   302.34569      0.90715334    -1.455578      -14453.913      1221.9877      1680.33        704.23883      17.06024      -34.155353      12.728379     -7243.3174      527182.33    
    238000   301.46135      0.91225196     41.605028     -14534.513      1234.3961      1678.4945      700.55445     -10.887587      97.976023      37.726649     -7327.5699      524235.88    
    239000   298.58795      0.91074013     0.70226509    -14467.972      1221.5802      1655.2675      701.29303      24.337722     -33.590081      11.359155     -7330.5852      525106.11    
    240000   300.99449      0.90779995     3.0095586     -14427.198      1248.4861      1604.5581      712.14329     -59.19354      -24.470386      92.692602     -7274.078       526806.82    
    241000   296.92902      0.90838311    -21.767539     -14476.473      1280.1124      1624.5445      710.05249     -110.01815      5.1197771      39.59576      -7322.2926      526468.63    
    242000   300.43113      0.90628635     0.79295032    -14448.934      1233.0052      1574.0799      708.49403     -18.093073     -44.764718      65.236642     -7352.1376      527686.65    
    243000   299.74888      0.90499537    -67.782839     -14460.507      1250.8027      1600.4759      714.7367      -20.320757     -67.011487     -116.01627     -7321.4072      528439.4     
    244000   304.18475      0.90814461    -15.506925     -14481.256      1240.2308      1610.5223      706.96534     -54.599667     -35.321694      43.400586     -7297.5768      526606.89    
    245000   301.3631       0.9093317     -14.297255     -14458.215      1227.6843      1587.8105      706.95782     -17.704434     -12.160409     -13.026921     -7343.4358      525919.43    
    246000   297.53294      0.90963111    -15.893425     -14485.31       1250.5097      1603.196       708.73186      18.654492     -5.2773356     -61.057431     -7376.2026      525746.32    
    247000   296.5765       0.90815173    -44.607905     -14440.587      1239.7552      1581.5036      710.52049      48.991101     -72.682198     -110.13262     -7373.5392      526602.76    
    248000   305.84689      0.91145379    -9.0280848     -14488.868      1184.9455      1594.1455      709.94201      15.492865      24.196948     -66.774067     -7354.0611      524694.96    
    249000   301.48093      0.91220899     8.4882309     -14508.858      1174.0655      1674.2691      711.80902      130.80968     -147.35535      42.010359     -7354.9838      524260.58    
    250000   296.34619      0.91088757    -12.482834     -14499.169      1264.0512      1616.9909      716.80961      20.258853     -30.329945     -27.377412     -7368.7938      525021.12    
    251000   304.81711      0.91169635     5.2281701     -14513.983      1194.6857      1599.0388      711.23714     -2.4375176     -12.31009       30.432118     -7375.5226      524555.36    
    252000   296.70995      0.91279831     60.8934       -14463.326      1236.0024      1606.8965      702.82965      47.910758      103.10275      31.666693     -7380.7378      523922.1     
    253000   302.23484      0.91096344    -44.436095     -14432.387      1237.4455      1583.5131      715.32942      13.025179     -24.541844     -121.79162     -7293.3817      524977.39    
    254000   298.0995       0.91372387     20.985027     -14430.402      1212.0431      1604.6393      707.45313      109.20306     -101.22559      54.977619     -7352.843       523391.39    
    255000   301.04924      0.9146669     -3.9589727     -14489.146      1206.8862      1614.7574      711.18446     -21.652143     -26.149002      35.924227     -7367.7326      522851.77    
    256000   298.42702      0.91754992    -14.167334     -14549.866      1239.9823      1617.3021      710.63094     -27.800064     -2.2868187     -12.415119     -7424.6231      521208.93    
    257000   299.47141      0.91627715    -45.285235     -14527.244      1209.8849      1641.2929      711.32359     -24.211803      10.796727     -122.44063     -7394.9662      521932.92    
    258000   295.50827      0.91734298     20.103572     -14438.878      1227.0813      1610.8172      715.91212     -27.264655     -1.8886405      89.464013     -7362.5323      521326.5     
    259000   299.42457      0.91758034     19.420675     -14500.01       1220.7653      1602.6477      722.47568     -27.555411      42.088265      43.729169     -7384.9032      521191.65    
    260000   299.39097      0.92036103    -52.996077     -14604.344      1266.75        1680.2957      720.14485     -41.391867     -40.122589     -77.473775     -7368.3359      519616.97    
    261000   296.23368      0.91958437    -0.6460052     -14517.877      1222.7558      1629.5672      725.10131      51.631797     -44.612625     -8.9571879     -7409.27        520055.82    
    262000   297.49464      0.92184219     2.3681625     -14526.45       1264.8454      1623.2166      715.48638      40.529008     -54.443731      21.01921      -7376.6883      518782.08    
    263000   299.07027      0.92304754    -16.13794      -14574.909      1268.1039      1629.7783      710.81782      37.406867      21.280655     -107.10134     -7401.214       518104.64    
    264000   298.0175       0.92638573     61.495052     -14575.152      1233.7551      1675.9171      714.65666      83.730834      56.952154      43.802167     -7398.3772      516237.67    
    265000   297.92955      0.92514151     6.6338706     -14575.836      1230.7939      1651.3986      715.82899      31.914669     -11.560113     -0.45294382    -7426.4169      516931.95    
    266000   301.36219      0.92520584    -32.608485     -14597.294      1228.2018      1606.8627      714.3167       6.4783613     -58.352156     -45.951659     -7455.5973      516896.01    
    267000   304.30827      0.92441496    -25.876816     -14574.439      1241.9378      1556.4613      715.83063      12.45755      -64.627338     -25.46066      -7432.7761      517338.24    
    268000   301.30812      0.92483751     17.776394     -14536.727      1200.3442      1617.4746      715.54457     -47.931777      80.129458      21.131501     -7411.6926      517101.87    
    269000   300.19014      0.92609213    -11.676086     -14586.812      1230.8714      1639.2357      715.49712     -62.545386     -24.546744      52.063873     -7422.8635      516401.33    
    270000   294.35225      0.92239833    -45.654954     -14513.293      1238.7567      1589.9239      715.38392     -17.672457     -51.594323     -67.698081     -7460.473       518469.29    
    271000   300.12004      0.923579      -12.50369      -14522.518      1221.9916      1582.5315      721.71056      101.28653     -86.545513     -52.252085     -7418.7756      517806.5     
    272000   300.15905      0.92807214    -37.536309     -14658.475      1225.2272      1713.5158      717.55117      5.6842875     -96.48353      -21.809684     -7424.207       515299.61    
    273000   300.4728       0.92933469    -6.3041603     -14649.083      1230.9279      1683.5159      715.72867     -172.95917     -18.310236      172.35692     -7437.1971      514599.55    
    274000   297.71966      0.92529344    -7.9529045     -14564.823      1197.6831      1609.2107      715.43942      32.123315     -49.789569     -6.1924591     -7493.594       516847.08    
    275000   300.7828       0.92547388     6.1845296     -14552.841      1203.1298      1614.0895      711.96822     -58.591383      87.577581     -10.432609     -7438.2447      516746.31    
    276000   299.91256      0.92917153     10.178855     -14587.999      1234.8929      1627.9734      710.13476     -23.756629      6.9167223      47.376472     -7439.9624      514689.91    
    277000   296.77617      0.93047745     24.390339     -14567.646      1234.7973      1643.0836      714.01953      91.929164     -69.36867       50.610522     -7438.097       513967.54    
    278000   300.92359      0.9301898     -12.114133     -14553.834      1162.3879      1686.2503      707.36164     -4.2698539     -64.185658      32.113112     -7410.7464      514126.48    
    279000   302.41245      0.93095823     28.152754     -14538.146      1181.5115      1643.1686      711.16547      109.16781     -63.080202      38.37065      -7397.465       513702.11    
    280000   302.2807       0.93285034     19.030907     -14569.696      1204.0888      1619.9166      718.25708      75.613445      0.75698065    -19.277705     -7424.1696      512660.17    
    281000   300.69754      0.93297022     53.087189     -14578.823      1228.4743      1646.1576      721.0138       152.03105      9.3797396     -2.14922       -7398.7849      512594.29    
    282000   301.55925      0.9297933     -10.128657     -14572.255      1219.8306      1627.0334      718.64335     -15.396516      72.691219     -87.680675     -7412.0834      514345.72    
    283000   298.01775      0.92793726    -22.21084      -14524.619      1216.1482      1561.8542      721.21997      29.748113     -109.066        12.685372     -7472.9475      515374.51    
    284000   302.49182      0.93280991     9.4755281     -14559.345      1200.886       1604.9036      719.37041      6.6486902     -27.898092      49.675986     -7428.4035      512682.38    
    285000   303.80837      0.93173427    -2.623975      -14564.904      1177.4835      1573.2637      723.43134      16.28396      -61.098401      36.942516     -7469.2513      513274.25    
    286000   301.26072      0.92810697     22.589367     -14430.83       1169.0869      1542.7953      724.21557      132.62223      2.9003945     -67.75452      -7403.6267      515280.27    
    287000   303.07853      0.93554778    -17.279112     -14621.74       1207.3861      1638.4096      719.91242     -33.267636      9.0617645     -27.631464     -7443.257       511182.02    
    288000   298.59351      0.93422919     31.464241     -14514.257      1207.528       1630.9079      723.79939     -18.325108      17.059681      95.658148     -7392.7094      511903.52    
    289000   303.73291      0.93833842     17.687442     -14664.727      1171.6748      1699.5284      724.56691      62.125138     -12.50119       3.4383773     -7448.3815      509661.76    
    290000   304.32376      0.93879038     46.259123     -14648.982      1181.9139      1634.7733      727.45864      81.505928     -23.411758      80.683198     -7477.2177      509416.39    
    291000   301.38722      0.93725157     15.495864     -14635.736      1202.6181      1635.0168      721.8476       54.989968      34.248144     -42.750519     -7483.6398      510252.77    
    292000   304.29854      0.93893692     21.253888     -14674.041      1186.1507      1676.2866      732.56906      68.165417      34.705358     -39.109109     -7451.7171      509336.89    
    293000   299.09674      0.93439317    -5.3995413     -14573.178      1222.7685      1606.0285      725.79466      4.9855878     -56.500564      35.316352     -7453.2757      511813.68    
    294000   298.35401      0.9363509     -23.078914     -14567.166      1187.3386      1614.6267      725.84568      6.6555069     -57.268891     -18.623359     -7482.8982      510743.58    
    295000   300.85991      0.94072739     12.397303     -14621.707      1217.9186      1609.3011      723.84133     -43.100324     -25.494573      105.78681     -7484.3182      508367.48    
    296000   297.16135      0.93640028    -49.632043     -14563.968      1207.5021      1561.0574      732.34049     -16.709656     -121.34552     -10.840951     -7520.8272      510716.64    
    297000   299.78304      0.93457917    -73.4304       -14580.161      1188.0809      1597.9865      724.6619      -107.54189     -81.143409     -31.605901     -7495.9401      511711.82    
    298000   297.68899      0.94290911     5.6299061     -14662.996      1203.6468      1683.5158      725.46464     -72.402779     -11.282807      100.5753      -7501.839       507191.21    
    299000   299.71788      0.94339322     15.796586     -14666.009      1202.7703      1679.692       727.22307     -15.887045     -4.8232825      68.100086     -7483.6091      506930.94    
    300000   301.87476      0.93981171     13.895915     -14555.629      1143.0272      1596.8949      732.94644     -10.704383     -40.620107      93.012235     -7484.3349      508862.79    
    301000   299.06926      0.94113469    -44.861201     -14676.298      1214.1483      1662.6694      733.74236      20.982507     -157.19681      1.6307001     -7500.7545      508147.47    
    302000   298.24779      0.94281049    -30.882776     -14696.893      1257.1151      1627.7948      732.47943     -76.678619     -100.00879      84.03908      -7524.3125      507244.26    
    303000   299.97614      0.94506101     27.542392     -14673.528      1217.5385      1631.9784      726.87835      79.816323     -106.79957      109.61042     -7521.3393      506036.34    
    304000   296.8824       0.94292627    -40.548205     -14636.177      1206.5899      1678.5977      727.78194      4.7596582     -182.64471      56.240442     -7484.2925      507181.98    
    305000   297.41382      0.94506176     50.097136     -14590.287      1223.1762      1652.8095      728.21497     -31.603819      103.91111      77.984118     -7440.8363      506035.93    
    306000   300.71679      0.94558999     43.326832     -14631.386      1198.0065      1671.9519      726.84344      71.354235     -2.7342621      61.360523     -7449.962       505753.25    
    307000   297.13568      0.93977239     21.662521     -14509.489      1242.7406      1624.858       727.97274      82.86462       10.152314     -28.029371     -7371.9834      508884.08    
    308000   304.84244      0.9422637     -4.9676819     -14606.002      1247.2646      1622.0649      730.2017      -6.5224087      49.488406     -57.869043     -7372.6696      507538.61    
    309000   301.22593      0.94293935    -17.971942     -14636.405      1236.8946      1645.3061      720.88218      55.706787     -42.143468     -67.479146     -7442.6312      507174.94    
    310000   297.15364      0.94139395     6.4091899     -14573.148      1230.0845      1612.5013      718.95342      12.341606      2.5886001      4.2973634     -7469.4601      508007.52    
    311000   298.8339       0.944062       17.934736     -14638.55       1234.2675      1650.0515      722.01135      8.5933358      35.349178      9.8616944     -7470.0419      506571.82    
    312000   296.21566      0.94159691    -24.029014     -14650.679      1236.4664      1613.5247      722.38599      23.318438     -101.98784      6.5823563     -7547.3349      507898.03    
    313000   299.43614      0.94496187    -19.124019     -14709.898      1227.343       1690.3801      711.10255      66.076504     -61.899258     -61.549304     -7511.7157      506089.43    
    314000   298.14142      0.94234507     40.434831     -14631.219      1254.6085      1612.6605      722.17095      13.892342      29.972904      77.439247     -7487.856       507494.79    
    315000   300.69288      0.94403073     12.136847     -14643.839      1203.5704      1632.3506      716.94822      49.777218      20.719092     -34.085768     -7506.6328      506588.61    
    316000   300.94481      0.9423648      19.693047     -14618.011      1226.0132      1625.246       712.58548     -7.2725527      38.263747      28.087948     -7466.8262      507484.16    
    317000   300.81345      0.93987193    -28.619338     -14570.489      1203.5441      1612.9591      710.1541      -18.695281     -67.661563      0.49883063    -7458.0574      508830.19    
    318000   293.47517      0.94071957    -9.0935032     -14588.9        1269.6649      1644.8145      706.42573     -29.994768      84.267036     -81.552778     -7469.6947      508371.7     
    319000   304.53745      0.94240119    -33.947557     -14638.089      1241.7833      1602.2458      709.87631      16.229115     -65.467543     -52.604242     -7454.0184      507464.56    
    320000   300.08323      0.94897663    -18.262588     -14760.861      1258.4157      1601.8092      719.59502      78.426853     -117.92381     -15.29081      -7603.9714      503948.35    
    321000   299.41416      0.94971016    -1.0374918     -14784.083      1239.5599      1684.5675      716.988        55.513721     -32.102477     -26.523719     -7573.8728      503559.12    
    322000   299.31883      0.94891665     6.6175604     -14750.789      1231.7268      1659.7083      717.89162      35.513142     -65.700287      50.039826     -7573.5042      503980.21    
    323000   301.88002      0.94893158     43.143402     -14689.772      1191.066       1615.8115      703.64557      37.54324       15.457602      76.429364     -7580.761       503972.28    
    324000   301.49167      0.94726682     8.5187923     -14705.962      1200.2694      1658.6377      711.8616       24.371305     -2.9022977      4.0873691     -7541.3345      504857.97    
    325000   301.36958      0.94991572     36.126699     -14703.677      1203.9011      1656.7057      713.21973      69.159268      75.535975     -36.315147     -7537.4468      503450.15    
    326000   298.41924      0.95006552     6.6248071     -14724.061      1240.4126      1650.9776      713.46401      5.4820559     -38.2591        52.651465     -7561.9724      503370.77    
    327000   296.47769      0.94869684     47.748271     -14661.449      1236.6513      1639.706       717.36699      69.483518      75.619303     -1.8580069     -7533.6337      504096.98    
    328000   298.49537      0.94878122     12.297642     -14714.938      1259.5391      1664.0629      722.36939     -15.183802      29.234569      22.84216      -7510.8247      504052.14    
    329000   302.73559      0.95509363     32.811591     -14800.713      1204.4493      1681.0045      715.45518     -50.793161      39.312085      109.91585     -7591.1177      500720.76    
    330000   298.94121      0.95395003     39.827641     -14804.899      1219.406       1720.8274      725.1561      -8.3150218      6.4833953      121.31455     -7576.0533      501321.03    
    331000   297.36286      0.95280568     24.410503     -14777.081      1210.8576      1701.1231      720.30679      113.10475     -54.900626      15.027385     -7600.1512      501923.13    
    332000   304.73422      0.95031227    -16.022772     -14776.538      1167.2215      1708.5639      719.0248      -10.205045      12.654127     -50.517398     -7549.217       503240.07    
    333000   297.96546      0.95474037     39.199654     -14757.402      1207.7203      1744.5116      718.04387      102.59527     -42.116336      57.120024     -7535.3011      500906.03    
    334000   300.49759      0.94739141     2.682627      -14662.894      1199.246       1647.7113      723.11987      91.133717     -46.26412      -36.821716     -7510.8075      504791.58    
    335000   299.16354      0.95174682     25.719432     -14734.597      1222.8444      1683.5598      720.24238      99.887499      65.025497     -87.754699     -7541.8438      502481.54    
    336000   297.25116      0.94952179    -5.5811601     -14680.259      1232.1252      1696.2752      722.49266      47.668331      60.20691      -124.61872     -7486.055       503659.01    
    337000   298.44169      0.95069976    -8.1777554     -14713.48       1219.1134      1680.9556      728.84668     -16.745158      41.140588     -48.928696     -7527.0624      503034.95    
    338000   295.97733      0.94963741    -24.228597     -14709.606      1236.7734      1696.2628      725.07281     -113.76072      35.518557      5.5563703     -7523.3709      503597.69    
    339000   301.72271      0.95167287    -27.38419      -14741.923      1208.6177      1700.4672      710.47835      2.7140234     -24.862792     -60.003802     -7525.7463      502520.59    
    340000   303.15661      0.94687526    -0.0373557     -14653.267      1145.9174      1604.8837      721.91389      70.343187     -53.739369     -16.715885     -7566.847       505066.75    
    341000   300.91679      0.9528604      41.848431     -14739.789      1194.7197      1685.5058      717.90658      49.241956      15.126485      61.176851     -7554.6509      501894.31    
    342000   298.46659      0.94812653    -32.015494     -14713.332      1236.7103      1650.2081      721.85342      14.998268      24.509201     -135.55395     -7546.7612      504400.2     
    343000   300.91568      0.95467143     2.1137707     -14819.861      1209.2721      1687.4088      709.40066      17.157864     -36.253638      25.437086     -7626.7866      500942.2     
    344000   298.80424      0.95167324    -19.760373     -14740.028      1263.3367      1677.844       717.06863     -31.72289       69.453674     -97.011902     -7519.9549      502520.39    
    345000   297.81072      0.94971789    -31.492919     -14683.163      1201.2001      1656.1142      718.14944     -17.465886     -16.347524     -60.665345     -7557.7182      503555.02    
    346000   302.37902      0.95108766    -25.386845     -14764.51       1230.4802      1659.4154      718.40518      39.762879     -68.712341     -47.211075     -7551.773       502829.79    
    347000   298.70845      0.94905652     4.7483313     -14669.747      1194.6991      1647.0106      714.27666     -18.824181      24.692758      8.3764172     -7553.079       503905.93    
    348000   302.8883       0.95412587    -12.18071      -14786.971      1236.8979      1691.5144      706.42338      76.73923      -99.685375     -13.595986     -7541.6287      501228.64    
    349000   302.7115       0.95304188     55.870853     -14747.985      1179.0036      1651.0395      714.8725       50.938711      58.509298      58.16455      -7594.6699      501798.74    
    350000   298.85819      0.95463919     39.802193     -14797.543      1237.4611      1727.3878      711.93031      15.096896      42.107066      62.202615     -7558.2964      500959.12    
    351000   302.21803      0.95155047     17.181131     -14759.915      1210.8752      1625.0821      715.23134      3.9557135      37.35942       10.228259     -7606.2088      502585.23    
    352000   302.89257      0.95225772    -13.351061     -14809.161      1221.3426      1639.9407      718.43133     -47.317764      44.128145     -36.863565     -7618.8881      502211.95    
    353000   300.05677      0.95411777     19.749971     -14771.891      1209.3081      1700.041       715.70268     -1.1673834     -9.4735967      69.890892     -7570.0849      501232.89    
    354000   297.86255      0.95347612     2.3517286     -14811.774      1241.9683      1696.7667      721.65445     -105.7366       103.39649      9.395292      -7600.7854      501570.2     
    355000   301.39365      0.9519399      30.457448     -14734.391      1219.9419      1587.0324      714.72584     -10.645065      71.22225       30.795159     -7620.0007      502379.62    
    356000   299.0643       0.95539954    -9.2899779     -14838.794      1214.271       1683.0424      716.98747     -76.94452       15.749613      33.324974     -7659.5693      500560.43    
    357000   297.7537       0.95712449     52.657393     -14850.589      1203.2174      1721.1696      716.74465     -9.2830086      63.828588      103.4266      -7660.1558      499658.32    
    358000   300.02676      0.95691453     10.454505     -14859.872      1212.3592      1700.7147      712.93322      15.995996     -12.707125      28.074644     -7657.4682      499767.95    
    359000   299.68043      0.95339003     19.846311     -14784.232      1199.2892      1702.8549      720.61617      48.08799       5.2661904      6.1847539     -7589.2036      501615.49    
    360000   300.40661      0.95043902     37.375181     -14713.88       1201.734       1627.8587      713.41455      11.292672      54.7112        46.12167      -7589.9475      503172.95    
    361000   299.63553      0.95497814     17.372792     -14800.169      1224.5076      1672.6398      715.54281      57.968541     -8.2182044      2.3680388     -7615.7457      500781.31    
    362000   300.24655      0.95017272    -2.0124114     -14729.623      1216.3078      1611.5117      716.78068      19.120079      23.63936      -48.796673     -7606.006       503313.97    
    363000   296.12679      0.94909241    -16.567052     -14665.593      1254.2551      1620.7047      712.01815      2.7907044      11.516327     -64.008186     -7548.7071      503886.88    
    364000   301.35606      0.95238748    -21.931163     -14772.185      1237.9659      1596.4805      709.77417      2.1076685     -33.408159     -34.492999     -7635.7222      502143.53    
    365000   300.608        0.95002863     10.554456     -14698.426      1229.3539      1596.3997      712.85276     -30.129781     -16.266925      78.060073     -7576.4943      503390.31    
    366000   300.06997      0.94920491    -43.161378     -14701.661      1244.5501      1617.677       709.54606      33.292985     -99.998025     -62.779093     -7552.9756      503827.16    
    367000   301.20799      0.94776177    -8.3330629     -14674.23       1212.8437      1596.1189      706.9554      -102.35005      48.648586      28.702272     -7567.8349      504594.33    
    368000   300.18463      0.94970731     22.180516     -14669.526      1224.8183      1588.4782      714.33961      39.108174      5.3678666      22.065506     -7563.6112      503560.63    
    369000   299.26682      0.94902645     41.823565     -14649.715      1215.0244      1605.9825      710.71198      37.911023      58.202605      29.357066     -7550.6582      503921.9     
    370000   301.10762      0.94538717    -26.279793     -14614.443      1194.483       1590.1229      716.64637     -63.69253      -2.9074044     -12.239446     -7523.9094      505861.75    
    371000   299.80003      0.95021812    -6.6433557     -14680.609      1193.4165      1635.2463      702.2915       0.76183404    -63.528969      42.837068     -7575.9602      503289.93    
    372000   298.15028      0.94936343    -14.79627      -14669.134      1231.6446      1658.6279      697.72941     -40.625557      67.607016     -71.370268     -7527.1036      503743.03    
    373000   296.40439      0.95173987     25.463677     -14713.925      1231.351       1666.5523      702.50011     -14.415217      73.19538       17.610867     -7580.304       502485.21    
    374000   302.85151      0.95554295     12.739838     -14836.176      1208.4536      1728.3541      698.57736     -30.724046     -44.958904      113.90247     -7590.7225      500485.31    
    375000   302.69836      0.95490905     25.466614     -14798.857      1229.9296      1675.1411      690.67124      105.36589      44.839885     -73.805935     -7594.8718      500817.55    
    376000   301.29207      0.95152269     5.7689949     -14735.701      1209.4544      1621.2709      702.85874      12.959222      59.686952     -55.339189     -7610.637       502599.9     
    377000   295.57833      0.94857424     3.5777391     -14673.12       1286.9158      1592.8139      707.04769      64.248456     -30.141772     -23.373466     -7562.9719      504162.13    
    378000   297.54315      0.95106395    -8.3873221     -14745.111      1248.6985      1661.2393      696.21854      60.719376     -23.832945     -62.048397     -7592.1632      502842.33    
    379000   300.55826      0.95119129     6.7206971     -14759.459      1227.4965      1655.0402      696.65207     -75.097889      84.993183      10.266797     -7597.5379      502775.01    
    380000   294.52838      0.94988222    -31.05386      -14727.448      1232.542       1671.4384      697.36854     -13.46939       29.016842     -108.70903     -7615.244       503467.9     
    381000   296.53348      0.9583845      9.9743591     -14849.65       1257.6216      1658.8191      693.92667      73.657152      56.681536     -100.41561     -7704.5267      499001.4     
    382000   295.08349      0.9461368     -73.246511     -14692.43       1276.0271      1563.3529      687.70145      27.830721     -73.753286     -173.81697     -7647.8772      505460.95    
    383000   299.76862      0.94957283    -35.293075     -14770.005      1207.7878      1639.7279      689.47889     -12.047252      6.2591194     -100.09109     -7659.6911      503631.94    
    384000   301.08718      0.9585958      50.045149     -14857.598      1234.4092      1701.5926      689.9906       44.596219     -16.867598      122.40683     -7642.5681      498891.41    
    385000   297.95699      0.95424365     19.161213     -14780.231      1259.8617      1621.1751      697.89395     -46.126092      20.670042      82.93969      -7649.5753      501166.77    
    386000   301.50792      0.9526678      26.915761     -14768.539      1215.8098      1635.4494      699.07278      66.891377      102.84862     -88.992715     -7624.1541      501995.77    
    387000   297.63345      0.95096941     17.008367     -14727.348      1251.7976      1633.3626      694.21839      126.13575     -21.435297     -53.675356     -7600.1015      502892.32    
    388000   302.86534      0.95260874    -33.986924     -14793.425      1207.0962      1647.2585      692.67447      58.031347     -70.659873     -89.332245     -7636.1622      502026.9     
    389000   295.12404      0.94886492    -50.60373      -14713.319      1254.8851      1630.0886      696.35587     -90.69753      -60.294544     -0.81911602    -7614.034       504007.68    
    390000   302.90069      0.95059057     9.2871186     -14719.108      1218.6096      1618.151       705.00043      56.338454      12.806896     -41.283995     -7566.6922      503092.74    
    391000   296.87235      0.95079518    -24.891605     -14757.536      1234.8319      1648.8948      705.7512      -103.69848     -0.75067915     29.774344     -7629.2622      502984.47    
    392000   297.33981      0.95069684     58.162293     -14685.269      1231.0251      1616.8273      700.4682       44.9097        141.80018     -12.223003     -7592.5805      503036.5     
    393000   299.18214      0.95026928     6.8868235     -14700.056      1233.1844      1617.7131      707.65474      18.831604      11.986298     -10.157432     -7575.1755      503262.83    
    394000   302.15624      0.95038102     3.3101303     -14722.939      1226.5442      1573.9334      706.28859     -55.173954      2.6740549      62.430291     -7614.3924      503203.66    
    395000   297.43099      0.95253266     50.236292     -14718.658      1243.534       1628.6791      711.86571      42.07435       175.0882      -66.453671     -7589.1247      502067       
    396000   301.12171      0.94757997    -27.845144     -14655.342      1209.4032      1588.5409      709.9106       54.667637     -115.11635     -23.086723     -7558.0388      504691.14    
    397000   299.94402      0.9485296     -14.170659     -14707.491      1209.2602      1656.4449      707.14489      4.8696587     -73.131604      25.749969     -7559.231       504185.86    
    398000   302.3105       0.95264622     43.906271     -14738.526      1184.1302      1637.2562      703.31012     -23.97064       93.816207      61.873246     -7610.2104      502007.15    
    399000   298.11976      0.95208994     41.26662      -14705.002      1226.533       1658.9375      704.72099      67.114487      8.3683596      48.317015     -7561.1455      502300.45    
    400000   299.76866      0.95449263     42.776753     -14775.283      1262.6484      1637.4169      712.19787      46.84729       24.084767      57.398201     -7589.6996      501036.04    
    401000   298.4436       0.95524807    -33.586483     -14847.264      1253.8905      1684.4797      718.65263     -5.3881444      8.9413787     -104.31268     -7632.7161      500639.81    
    402000   298.77965      0.95045843    -49.421104     -14752.905      1268.3975      1630.0201      713.73627     -61.278898      29.845609     -116.83002     -7579.2205      503162.68    
    403000   299.46629      0.95060924    -4.9178995     -14718.577      1188.6811      1619.3428      721.89158     -36.827128     -20.590068      42.663497     -7618.9453      503082.85    
    404000   300.78872      0.94899904     23.16025      -14674.933      1188.5249      1609.1074      718.20258     -62.724856      47.097663      85.107944     -7573.6181      503936.45    
    405000   299.46346      0.94806738    -34.813805     -14696.984      1215.6172      1612.1486      717.31002     -40.236298     -96.99569       32.790574     -7582.2264      504431.67    
    406000   300.37148      0.94804754    -51.769104     -14731.976      1238.1804      1596.6474      720.0389      -80.81591      -12.95999      -61.531414     -7596.603       504442.22    
    407000   302.54034      0.9563998      71.912538     -14826.792      1202.2553      1642.3732      723.7719       42.988206      16.915127      155.83428     -7652.0329      500036.92    
    408000   302.59414      0.95107121    -6.2305522     -14763.839      1189.0199      1658.7342      716.61585      55.415249     -7.4828319     -66.624073     -7592.4683      502838.49    
    409000   302.54443      0.95283935    -19.535407     -14775.091      1226.503       1621.5965      713.08038     -2.197691      -114.02843      57.619901     -7607.503       501905.39    
    410000   298.0771       0.95325759     1.1290511     -14781.995      1259.925       1651.392       717.21844     -94.127225     -45.931546      143.44592     -7600.3034      501685.18    
    411000   300.63583      0.95223965    -4.6970409     -14795.369      1196.0905      1653.3142      717.96506     -137.58363      105.69385      17.798651     -7644.3424      502221.49    
    412000   302.09298      0.95673378    -3.7186299     -14831.53       1212.9078      1663.5976      715.4859      -2.177249       31.375951     -40.354592     -7638.5119      499862.37    
    413000   300.7271       0.95571765    -31.045315     -14811.991      1205.3658      1708.9976      700.82339     -40.596107     -105.25132      52.711486     -7612.0592      500393.82    
    414000   295.26909      0.95576474    -9.0466082     -14820.209      1229.0306      1713.8108      713.82775     -7.6178706      19.625066     -39.14702      -7643.8559      500369.17    
    415000   301.82569      0.95332991     0.65312793    -14767.144      1191.2974      1670.5342      703.31289     -81.086004      48.689286      34.356101     -7604.1586      501647.13    
    416000   306.75983      0.94862988     6.465951      -14713.162      1184.3082      1579.0032      714.16608     -48.818266      74.244584     -6.0284648     -7579.0273      504132.56    
    417000   300.6167       0.95377198     38.844092     -14785.462      1199.6361      1640.9368      714.61586      34.053899      84.48004      -2.0016636     -7646.8441      501414.61    
    418000   303.66718      0.95481763     52.214406     -14805.605      1182.0673      1661.8916      717.26221      26.538765     -11.683701      141.78815     -7624.592       500865.5     
    419000   296.69999      0.95458381     17.630701     -14764.418      1228.7499      1630.104       719.5215       32.511026     -18.489623      38.870701     -7649.3018      500988.19    
    420000   304.89903      0.95427102     9.5485625     -14843.205      1182.101       1649.5923      716.2971       29.233697     -16.483847      15.895838     -7660.7388      501152.4     
    421000   298.43985      0.95288553     3.3269205     -14808.448      1244.136       1643.9992      717.65344      41.548381     -59.149377      27.581758     -7645.1793      501881.07    
    422000   297.58308      0.95425559     2.0121916     -14770.512      1239.7785      1683.4012      720.81411      1.9277602     -62.2431        66.351915     -7579.2507      501160.5     
    423000   299.32056      0.95361071     42.757008     -14750.7        1200.4641      1674.9001      716.66044      128.19596     -8.7769056      8.8519684     -7590.6971      501499.41    
    424000   299.82454      0.95370359    -17.491911     -14796.797      1224.5811      1706.078       720.0754       61.303703     -102.57515     -11.204286     -7572.0761      501450.57    
    425000   299.45591      0.94877961    -22.375386     -14691.032      1189.0831      1672.7776      717.295       -13.623723     -19.364793     -34.137642     -7542.2842      504053       
    426000   301.17098      0.94992419     18.750385     -14684.504      1209.9005      1642.2466      719.24409      55.49345      -34.602427      35.360133     -7523.0768      503445.66    
    427000   301.46882      0.95363917     24.662376     -14765.696      1206.6395      1684.6558      713.24072      146.94172     -47.374121     -25.580476     -7567.573       501484.44    
    428000   300.79413      0.94740588    -12.94844      -14667.425      1211.7702      1635.5668      718.40204     -57.068606     -29.257031      47.480318     -7516.1416      504783.87    
    429000   299.62055      0.95002342    -13.151186     -14693.63       1227.3693      1660.4425      715.08581     -70.059568      47.447638     -16.841628     -7519.178       503393.07    
    430000   300.38916      0.95254501    -19.451371     -14780.483      1194.0675      1667.7931      717.91213     -4.4259055     -38.427722     -15.500486     -7619.9937      502060.49    
    431000   300.08899      0.95348554    -16.239044     -14802.218      1216.9671      1703.9731      710.22586     -36.0358       -14.79808       2.1167462     -7593.9137      501565.24    
    432000   301.7821       0.95076884    -65.205186     -14781.629      1234.0223      1645.0386      707.24216     -71.91726      -64.754901     -58.943399     -7598.0055      502998.41    
    433000   303.1979       0.94972724     8.5812407     -14733.43       1183.9353      1624.3911      713.46696     -23.540545      17.297042      31.987225     -7597.4394      503550.06    
    434000   297.78214      0.94785111     30.870423     -14624.33       1199.9439      1651.3458      703.74213      92.873398     -80.567853      80.305723     -7519.6581      504546.77    
    435000   297.31153      0.95180415     41.007845     -14743.694      1225.2802      1696.1042      707.45437      20.858415      54.821426      47.343694     -7570.8248      502451.27    
    436000   302.44143      0.95213946     62.386627     -14732.075      1201.1527      1679.5714      706.00282      26.522162      70.24101       90.396709     -7540.1677      502274.33    
    437000   298.92879      0.9518715      23.267073     -14713.42       1227.3626      1687.6666      705.86859     -8.6493593      26.715651      51.734928     -7529.2138      502415.72    
    438000   296.186        0.95208858     36.489078     -14705.507      1218.2122      1758.8804      710.91658     -18.952826      26.238805      102.18125     -7486.884       502301.17    
    439000   303.33918      0.95235434     27.040993     -14760.862      1219.0445      1668.5608      708.94012     -21.06864       69.405278      32.78634      -7548.4353      502161       
    440000   299.00817      0.94943366     14.150423     -14690.08       1225.1685      1657.761       708.53965     -57.26319       48.477238      51.237222     -7534.356       503705.77    
    441000   300.53514      0.94943011    -6.9422906     -14669.203      1199.2549      1639.1724      712.01124      3.3206326     -52.155138      28.007634     -7536.3079      503707.65    
    442000   302.67236      0.94854751    -29.795466     -14686.838      1204.7222      1688.3059      711.52424     -53.050473     -5.2207772     -31.115148     -7474.3528      504176.34    
    443000   299.31365      0.94523752    -19.679093     -14613.779      1241.6477      1597.7179      719.64718     -13.503312     -62.14991       16.615942     -7486.8703      505941.84    
    444000   299.77994      0.94966945    -6.2339024     -14674.298      1206.3911      1657.046       724.83353     -45.143769     -0.88370238     27.325765     -7512.5727      503580.7     
    445000   299.45463      0.94691708    -42.166562     -14650.804      1214.8601      1661.6038      718.49241     -45.808541     -77.717223     -2.9739227     -7486.2707      505044.44    
    446000   297.24441      0.95285956    -16.802322     -14756.813      1189.7876      1686.4442      722.41848     -29.880737     -30.762836      10.236606     -7614.9318      501894.75    
    447000   298.0104       0.95048573    -7.4863177     -14692.633      1223.331       1634.6754      718.7255      -38.966649      37.856557     -21.348861     -7563.5396      503148.23    
    448000   298.24783      0.95371506    -13.488819     -14802.049      1254.7816      1745.2753      721.96586     -33.112556      100.83281     -108.18671     -7524.8348      501444.54    
    449000   296.00254      0.95476755     20.454423     -14789.945      1279.217       1647.4157      727.30541      71.004587      37.801569     -47.442889     -7607.5803      500891.77    
    450000   301.2418       0.9522207     -15.654468     -14773.056      1219.6875      1678.6244      727.4          29.931933     -78.927614      2.0322761     -7556.4633      502231.48    
    451000   300.33632      0.95660544     49.569034     -14813.381      1205.2823      1665.2109      728.71024      62.317496     -12.653442      99.043046     -7634.0912      499929.42    
    452000   299.88059      0.95100768    -4.3566851     -14737.052      1223.9818      1639.9132      727.35659     -36.650573      28.811239     -5.2307216     -7571.1464      502872.08    
    453000   297.82367      0.95124849     26.64126      -14681.368      1229.9826      1648.631       720.62981      132.98557     -102.78139      49.719605     -7531.9894      502744.78    
    454000   300.34467      0.95017321     31.577794     -14708.424      1186.8156      1632.905       728.3377       68.301253     -30.626675      57.058805     -7580.1795      503313.72    
    455000   304.91423      0.95186092     26.812944     -14731.268      1186.3649      1617.1077      723.34078     -59.295859      2.067252       137.66744     -7569.7978      502421.31    
    456000   300.76712      0.94895031     7.541434      -14670.22       1206.4008      1595.6808      718.67755     -1.2389544      3.468338       20.394918     -7564.2392      503962.33    
    457000   301.93582      0.95126248     0.53677932    -14753.63       1235.304       1646.277       711.51283      106.69507     -89.850209     -15.234521     -7561.383       502737.38    
    458000   302.9442       0.95079291     18.635607     -14713.611      1176.6256      1648.7639      724.71308      41.054743     -1.9585369      16.810614     -7552.3355      502985.67    
    459000   300.67131      0.94617629    -73.575762     -14637.711      1226.7056      1584.54        730.88202      16.434032     -111.34897     -125.81235     -7511.5033      505439.86    
    460000   299.22888      0.95177532     13.322232     -14708.667      1237.5921      1628.973       720.8576       66.304223     -45.121015      18.783486     -7554.3586      502466.5     
    461000   303.35116      0.95198879    -16.913547     -14793.283      1209.6654      1671.0738      714.47489     -45.493276      31.265446     -36.512809     -7582.0445      502353.82    
    462000   299.01927      0.95483642     20.53505      -14802.175      1230.0789      1638.2943      718.72703      19.513667      41.698732      0.39274997    -7650.6878      500855.64    
    463000   299.60913      0.95124762    -3.739839      -14753.221      1226.8814      1620.6505      719.37299      18.97672       16.45142      -46.647658     -7614.8974      502745.24    
    464000   304.2072       0.94859559    -0.20324618    -14694.273      1200.8892      1563.1921      717.9769      -41.724134      43.553694     -2.4392986     -7585.9858      504150.78    
    465000   300.94634      0.94938263    -19.848596     -14738.622      1185.6631      1601.4655      723.3237       25.780263     -113.92275      28.596701     -7640.8111      503732.84    
    466000   300.51249      0.95208612     41.166438     -14758.633      1216.8916      1603.9608      726.9791       39.202587      48.358302      35.938426     -7628.6152      502302.47    
    467000   300.19715      0.95178223    -5.7223929     -14767.08       1211.5473      1629.4148      728.64577     -33.875277      54.93513      -38.227032     -7619.044       502462.85    
    468000   300.22495      0.95119504     1.7765829     -14758.928      1238.584       1602.4078      727.0395       85.30988      -104.29183      24.311694     -7612.1374      502773.02    
    469000   300.90364      0.95417758     31.257701     -14783.581      1231.1819      1627.199       711.41325      72.069136      31.075641     -9.3716719     -7626.9379      501201.47    
    470000   302.0463       0.9544024     -10.99125      -14836.904      1236.2533      1660.0177      721.58843      38.113276     -59.667601     -11.419425     -7618.5739      501083.41    
    471000   295.42905      0.95203972     7.5091225     -14759.667      1236.3349      1651.7542      720.27425      73.752328      18.506067     -69.731027     -7629.713       502326.95    
    472000   297.9327       0.95241403    -24.944721     -14787.974      1240.9585      1672.1403      713.82189      23.898998     -32.649923     -66.083236     -7609.6182      502129.53    
    473000   299.68241      0.95200562     28.562278     -14730.069      1225.6544      1577.5724      717.19381     -13.992947      40.738459      58.941322     -7637.3561      502344.94    
    474000   296.30793      0.94885336    -20.641104     -14716.525      1252.9684      1559.6478      730.02493     -29.346495      5.0671229     -37.643941     -7641.8168      504013.82    
    475000   297.24514      0.95170412    -69.352384     -14764.756      1243.6143      1673.6886      722.79857      8.7805049     -159.97324     -56.864421     -7581.415       502504.09    
    476000   300.02819      0.95250524     20.025075     -14734.646      1224.5666      1657.9735      719.12917      49.323424      70.357763     -59.605963     -7556.5626      502081.45    
    477000   301.28556      0.94971343    -0.025610915   -14697.312      1203.232       1609.4996      723.94503     -19.030587      59.825053     -40.871299     -7569.2334      503557.38    
    478000   299.04708      0.95434948     16.780392     -14795.827      1205.3698      1662.5667      718.102       -38.584678      50.909445      38.016409     -7645.0699      501111.19    
    479000   300.48262      0.95145467    -0.41268585    -14780.09       1204.2595      1617.4066      716.80991     -58.69566       128.64961     -71.192003     -7659.7829      502635.83    
    480000   293.21765      0.95419768     59.344022     -14753.83       1262.4528      1643.6772      717.88971      77.884367     -68.886239      169.03394     -7634.5802      501190.91    
    481000   301.85307      0.95429138     5.633475      -14806.335      1236.618       1666.5786      718.0195       138.76366     -8.9564659     -112.90677     -7586.9521      501141.71    
    482000   297.63005      0.95242034    -30.04585      -14769.692      1250.4184      1598.9483      723.25383     -56.857069      1.7448222     -35.025304     -7649.2444      502126.2     
    483000   301.32955      0.9535157     -19.749465     -14782.632      1242.7648      1596.6401      736.42951     -14.571286     -8.2431026     -36.434005     -7614.8715      501549.38    
    484000   298.02688      0.95442218     13.11684      -14761.994      1216.8941      1593.7243      721.82039      90.249693     -24.73158      -26.167593     -7676.9976      501073.03    
    485000   298.6875       0.94990515    -10.712334     -14714.751      1262.3345      1584.66        725.92389      16.204099      19.422529     -67.763631     -7581.3997      503455.75    
    486000   300.23183      0.95600042    -2.2134517     -14857.579      1243.8877      1596.3437      723.34843      17.607013      6.7160799     -30.963449     -7715.1581      500245.82    
    487000   296.86608      0.95363647     27.135554     -14772.097      1231.5054      1622.6471      719.57454      34.532668     -51.263497      98.137491     -7659.6492      501485.86    
    488000   297.6716       0.95067789     33.567163     -14675.853      1190.3503      1550.0311      725.53587      92.831998      19.156762     -11.287272     -7661.613       503046.53    
    489000   300.69364      0.95329384     27.69913      -14767.512      1212.027       1655.8679      732.18572      0.90959179     0.3211712      81.866626     -7583.0856      501666.11    
    490000   297.62251      0.94996252     51.758327     -14634.112      1213.016       1532.4349      728.87732     -30.909798      48.718238      137.46654     -7612.0459      503425.35    
    491000   302.82643      0.95276123     24.922949     -14751.522      1209.4286      1619.9587      730.37103     -54.26616       62.18009       66.854919     -7581.9937      501946.54    
    492000   297.77971      0.95006516    -25.179302     -14741.187      1219.3594      1656.125       728.85695     -51.249793     -32.866801      8.5786889     -7587.2345      503370.96    
    493000   301.96485      0.95201783    -19.610579     -14780.718      1189.5124      1652.1309      722.94668     -108.21335     -18.415744      67.797353     -7616.6289      502338.5     
    494000   302.37698      0.95468207     4.6478849     -14859.365      1205.2139      1734.9067      717.94428     -39.140777     -25.616232      78.700664     -7596.8884      500936.62    
    495000   302.4991       0.95159025     13.316545     -14724.025      1208.3879      1600.899       708.00203     -6.0587204      60.146805     -14.13845      -7600.8685      502564.22    
    496000   296.2211       0.95100341     7.3769268     -14717.498      1218.1867      1684.103       719.88499     -56.53165       31.631711      47.030719     -7564.2915      502874.34    
    497000   298.2209       0.95407136     50.878568     -14739.131      1214.2852      1691.4309      717.60749      99.431749      85.34926      -32.145306     -7560.9366      501257.27    
    498000   301.1226       0.95596714     21.334399     -14848.084      1242.0126      1628.0419      721.06898     -21.047192      97.032026     -11.981635     -7667.5011      500263.23    
    499000   299.70331      0.95351324     18.842467     -14772.038      1219.0157      1618.4816      722.43568      70.450766     -96.547961      82.624596     -7639.5638      501550.68    
    500000   298.89771      0.95162221     18.51927      -14754.721      1255.8945      1600.001       737.20383     -13.026549     -23.106038      91.690396     -7598.6837      502547.34    
    500686   304.82333      0.95538633     46.992868     -14838.663      1204.8456      1585.0741      735.48282      22.258899      23.215782      95.503922     -7679.6871      500567.35    
Loop time of 81.6729 on 16 procs for 500000 steps with 4000 atoms

Performance: 528.939 ns/day, 0.045 hours/ns, 6121.981 timesteps/s, 24.488 Matom-step/s
97.0% CPU use with 16 MPI tasks x no OpenMP threads

MPI task timing breakdown:
Section |  min time  |  avg time  |  max time  |%varavg| %total
---------------------------------------------------------------
Pair    | 13.5       | 21.596     | 29.045     |  84.0 | 26.44
Bond    | 7.394      | 11.113     | 14.79      |  57.5 | 13.61
Neigh   | 3.4533     | 3.4746     | 3.4987     |   0.8 |  4.25
Comm    | 20.807     | 30.433     | 41.883     |  88.7 | 37.26
Output  | 0.023583   | 0.024427   | 0.035809   |   1.9 |  0.03
Modify  | 10.7       | 12.276     | 14.994     |  45.6 | 15.03
Other   |            | 2.756      |            |       |  3.37

Nlocal:            250 ave         256 max         243 min
Histogram: 1 1 0 4 2 2 1 2 1 2
Nghost:        1325.62 ave        1339 max        1311 min
Histogram: 1 0 1 3 1 5 2 2 0 1
Neighs:        8484.38 ave        8748 max        8253 min
Histogram: 1 2 4 1 2 1 1 1 1 2

Total # of neighbors = 135750
Ave neighs/atom = 33.9375
Ave special neighs/atom = 5.88
Neighbor list builds = 8528
Dangerous builds = 0
#取消设置
unfix               1

# -----------------------------------------------------
# 5. npt下拉伸
# -----------------------------------------------------
# 计算应力
reset_timestep      0
timestep            1
compute             1 all stress/atom NULL
compute             2 all reduce sum c_1[1] c_1[2]
variable            CorVol equal ly*lx*lz
variable            sigmaxx equal c_2[1]/(v_CorVol*10000)
variable            px equal -pxx/10000
# 计算应变值
variable            tmp equal "lx"
variable            L0 equal ${tmp}
variable            L0 equal 79.4277156563304
variable            strain equal "(lx - v_L0)/v_L0"
#dump输出
dump                1 all custom 1000 dump.pdms.lammpstrj id type x y z vx vy vz
#设置npt系综
fix                 1 all npt temp 300 300 100 y 0 0 1000 z 0 0 1000 drag 2
#deform拉伸，x方向
fix                 2 all deform 1 x erate 1e-5 units box remap x
#热力学输出
fix                 def1 all print 100 "${strain} ${sigmaxx} ${px}" file Fe600K.txt screen no
fix                 ave_sxx all ave/time 100 100 10000 v_strain v_sigmaxx v_px file stress_profile.dat ave one
thermo_style        custom step temp v_strain v_sigmaxx v_px density pxx pyy pzz epair ebond eangle edihed etotal vol
thermo              1000

#启动模拟，n步
run                 200000
Generated 0 of 0 mixed pair_coeff terms from geometric mixing rule
Per MPI rank memory allocation (min/avg/max) = 10.84 | 10.99 | 11.32 Mbytes
   Step          Temp         v_strain      v_sigmaxx         v_px         Density          Pxx            Pyy            Pzz           E_pair         E_bond        E_angle        E_dihed         TotEng         Volume    
         0   304.82333      1.7891557e-16 -0.0022258899  -0.0022258899   0.95538633     22.258899      23.215782      95.503922     -14838.663      1204.8456      1585.0741      735.48282     -7679.6871      500567.35    
      1000   302.78674      0.01           0.02142871     0.02142871     0.94868202    -214.2871      -19.283786     -48.138448     -14726.213      1215.7763      1573.0729      728.67717     -7599.3906      504104.85    
      2000   299.418        0.02           0.016385241    0.016385241    0.94709691    -163.85241      29.323819     -17.028617     -14660.487      1238.1933      1609.3115      719.20026     -7524.6423      504948.55    
      3000   295.60132      0.03           0.013085872    0.013085872    0.94640914    -130.85872     -68.668579      37.04279      -14654.617      1298.7881      1578.1369      726.55939     -7527.4884      505315.5     
      4000   300.62247      0.04           0.021087991    0.021087991    0.94709332    -210.87991     -98.168009     -17.549214     -14712.341      1235.5922      1659.2296      724.08769     -7509.9333      504950.46    
      5000   297.41316      0.05           0.021732491    0.021732491    0.94386578    -217.32491      47.537097     -5.9425064     -14602.588      1251.7759      1556.2251      721.29499     -7528.0505      506677.13    
      6000   302.29945      0.06           0.017801784    0.017801784    0.94871678    -178.01784      88.207003      99.164716     -14687.269      1210.1241      1627.3159      732.1363      -7514.205       504086.38    
      7000   299.98697      0.07           0.024595488    0.024595488    0.94212783    -245.95488      77.417658     -39.31076      -14585.839      1227.9985      1597.1571      726.4276      -7458.3336      507611.81    
      8000   298.83541      0.08           0.023944091    0.023944091    0.94120114    -239.44091     -8.5579633      9.395132      -14566.354      1215.1251      1632.2629      720.9266      -7435.8444      508111.59    
      9000   301.12129      0.09           0.029614092    0.029614092    0.93578219    -296.14092     -57.609204     -101.49666     -14487.672      1235.2947      1564.8112      721.66722     -7376.4551      511053.97    
     10000   297.04689      0.1            0.027116905    0.027116905    0.93788219    -271.16905      68.038334      50.461987     -14454.917      1183.4564      1581.4635      729.34083     -7419.7804      509909.68    
     11000   298.97649      0.11           0.03947336     0.03947336     0.93754237    -394.7336       23.864781     -9.6656584     -14503.418      1205.9304      1585.9025      736.45341     -7411.254       510094.5     
     12000   298.51503      0.12           0.035376487    0.035376487    0.93673009    -353.76487     -13.999843      18.988909     -14456.139      1184.9937      1638.8234      723.68979     -7350.2558      510536.83    
     13000   304.09449      0.13           0.044229259    0.044229259    0.94235758    -442.29259     -36.259676      25.269875     -14602.971      1181.5739      1684.0618      729.81411     -7382.6355      507488.05    
     14000   300.31662      0.14           0.038381213    0.038381213    0.93848664    -383.81213     -4.3418507     -34.269434     -14525.664      1229.7909      1662.848       728.78322     -7324.3898      509581.26    
     15000   303.11764      0.15           0.019105006    0.019105006    0.9372221     -191.05006     -27.351319      6.6117795     -14483.958      1189.0061      1640.1301      724.04155     -7317.5393      510268.81    
     16000   294.49268      0.16           0.036929893    0.036929893    0.9373585     -369.29893     -13.357384     -65.323758     -14461.47       1250.0397      1672.9561      726.00573     -7302.0393      510194.56    
     17000   300.46103      0.17           0.035382065    0.035382065    0.93928388    -353.82065     -79.916127     -57.01579      -14545.289      1207.9242      1732.7864      722.8916      -7300.1138      509148.75    
     18000   299.22938      0.18           0.033108978    0.033108978    0.93496956    -331.08978     -89.347532     -49.613309     -14471.136      1237.3038      1668.7974      721.33692     -7276.8058      511498.16    
     19000   299.86292      0.19           0.02644587     0.02644587     0.93209044    -264.4587      -3.7245909      21.202263     -14386.829      1219.8967      1627.0295      728.16101     -7237.2975      513078.12    
     20000   296.33652      0.2            0.038900509    0.038900509    0.93621368    -389.00509     -99.802528     -65.227185     -14466.907      1266.3632      1660.3416      722.2552      -7285.5393      510818.44    
     21000   298.78823      0.21           0.049313817    0.049313817    0.93249488    -493.13817     -40.339659     -50.487591     -14401.002      1198.0989      1672.5111      720.97831     -7247.781       512855.59    
     22000   303.54081      0.22           0.041460859    0.041460859    0.93533054    -414.60859     -40.136143      65.465614     -14440.783      1233.6084      1658.2033      716.60289     -7214.0832      511300.75    
     23000   297.98109      0.23           0.036355206    0.036355206    0.93495807    -363.55206      43.792077     -13.416014     -14420.811      1251.6205      1636.8571      718.67743     -7261.6442      511504.44    
     24000   305.55557      0.24           0.036033421    0.036033421    0.93484711    -360.33421     -9.1865246      13.007896     -14440.265      1181.8952      1651.8554      712.21574     -7251.9972      511565.16    
     25000   304.79688      0.25           0.027487289    0.027487289    0.93711411    -274.87289      10.694523      81.926032     -14483.022      1195.5457      1659.1713      711.89538     -7283.1512      510327.61    
     26000   303.43999      0.26           0.037177013    0.037177013    0.9324631     -371.77013     -26.500761      9.3373917     -14427.089      1213.6684      1605.8756      707.6153      -7282.8463      512873.07    
     27000   300.14614      0.27           0.037814028    0.037814028    0.93553749    -378.14028     -11.404401     -25.863064     -14452.284      1190.2358      1648.8011      714.32286     -7321.1049      511187.65    
     28000   299.04875      0.28           0.027048026    0.027048026    0.93274045    -270.48026     -69.167399     -42.742536     -14411.066      1186.381       1665.0922      706.29909     -7288.5553      512720.56    
     29000   301.6191       0.29           0.031375749    0.031375749    0.93036409    -313.75749     -41.027929     -122.6073      -14397.859      1219.9591      1625.827       701.71232     -7254.9823      514030.17    
     30000   303.61311      0.3            0.035731       0.035731       0.93617189    -357.31        -14.134841      143.01838     -14475.106      1204.0559      1634.1428      709.07937     -7308.6806      510841.24    
     31000   298.37239      0.31           0.051602687    0.051602687    0.92876645    -516.02687     -33.443958      8.563704      -14410.442      1247.3141      1626.0573      715.68399     -7264.7106      514914.39    
     32000   292.74047      0.32           0.036875646    0.036875646    0.93083049    -368.75646      9.213784       25.586844     -14347.505      1232.2071      1625.3772      713.00385     -7287.3745      513772.61    
     33000   300.75375      0.33           0.042611787    0.042611787    0.93169572    -426.11787      10.465356     -15.809994     -14389.972      1216.9893      1652.0119      711.69401     -7224.214       513295.49    
     34000   298.2735       0.34           0.052073759    0.052073759    0.92877788    -520.73759     -31.62063       27.194927     -14327.037      1190.6232      1672.1325      704.4656      -7204.3185      514908.05    
     35000   302.02089      0.35           0.046046748    0.046046748    0.92970943    -460.46748     -59.351327      66.361924     -14315.206      1189.2065      1620.4654      713.67098     -7191.6953      514392.13    
     36000   300.62493      0.36           0.043540035    0.043540035    0.92946083    -435.40035     -64.836885      28.315452     -14375.665      1206.0116      1665.2391      708.47161     -7212.4158      514529.71    
     37000   300.82554      0.37           0.037333355    0.037333355    0.93385958    -373.33355      43.197511      75.918711     -14457.629      1200.4653      1728.8935      707.01639     -7235.3356      512106.12    
     38000   303.69632      0.38           0.039603184    0.039603184    0.93110106    -396.03184     -31.922828     -30.557988     -14413.467      1179.0235      1677.7992      705.75503     -7230.7507      513623.31    
     39000   299.02923      0.39           0.049781808    0.049781808    0.92868841    -497.81808      35.198131     -90.438555     -14343.341      1206.5588      1663.2666      705.58657     -7203.4229      514957.66    
     40000   302.30928      0.4            0.037239451    0.037239451    0.92451098    -372.39451     -35.215467     -31.914149     -14256.545      1208.5155      1622.1099      701.85963     -7120.4548      517284.51    
     41000   301.02445      0.41           0.047837999    0.047837999    0.92603795    -478.37999      36.703935     -105.4027      -14351.45       1256.3836      1626.3713      705.54785     -7174.8578      516431.55    
     42000   299.95803      0.42           0.043404266    0.043404266    0.92787159    -434.04266     -3.4705756     -40.378764     -14362.66       1237.4943      1662.1825      714.87588     -7172.5297      515410.98    
     43000   302.92134      0.43           0.055469371    0.055469371    0.93024603    -554.69371      6.0257002     -84.003999     -14358.477      1181.1086      1632.3473      707.16088     -7226.9597      514095.41    
     44000   300.3819       0.44           0.044048439    0.044048439    0.92874349    -440.48439      27.639187      31.930758     -14386.493      1216.3887      1677.1258      716.72348     -7195.6252      514927.12    
     45000   300.65446      0.45           0.045490415    0.045490415    0.92998406    -454.90415     -64.429229     -84.914169     -14450.367      1230.0167      1695.7233      714.52062     -7226.2272      514240.22    
     46000   302.99172      0.46           0.058005351    0.058005351    0.92968407    -580.05351     -39.456979      7.105647      -14406.187      1195.1612      1658.0386      706.23167     -7235.0156      514406.16    
     47000   298.85212      0.47           0.054027788    0.054027788    0.93093445    -540.27788      19.396552     -90.546907     -14437.266      1201.9604      1739.5983      710.36701     -7222.945       513715.23    
     48000   298.76651      0.48           0.053468235    0.053468235    0.92693827    -534.68235     -39.660304     -25.735812     -14314.53       1158.2435      1712.9567      710.81465     -7171.1413      515929.94    
     49000   301.34779      0.49           0.048575265    0.048575265    0.93247648    -485.75265     -29.000868      149.66176     -14406.479      1197.5868      1706.2683      703.25549     -7207.2243      512865.71    
     50000   304.20177      0.5            0.048763756    0.048763756    0.92709095    -487.63756     -20.091479     -18.177631     -14357.819      1201.6535      1713.4288      708.95778     -7107.6151      515844.98    
     51000   301.35909      0.51           0.048741239    0.048741239    0.92755996    -487.41239     -20.761144     -105.10356     -14383.624      1209.4827      1678.6146      705.62608     -7197.622       515584.14    
     52000   301.62911      0.52           0.043101911    0.043101911    0.92569573    -431.01911      4.0535667     -20.553598     -14328.571      1174.9941      1628.5357      705.5747      -7223.9691      516622.46    
     53000   303.39157      0.53           0.043846898    0.043846898    0.92532991    -438.46898     -34.510909      82.303408     -14338.836      1220.6273      1633.2385      700.68237     -7167.7812      516826.71    
     54000   298.63758      0.54           0.042638521    0.042638521    0.92400436    -426.38521      62.353221     -7.9930482     -14231.85       1171.7454      1677.6382      703.30602     -7119.323       517568.13    
     55000   300.40267      0.55           0.038251141    0.038251141    0.92539526    -382.51141      52.858418     -49.961425     -14246.974      1166.6389      1652.4305      703.56291     -7143.4634      516790.21    
     56000   300.76283      0.56           0.05151112     0.05151112     0.92425244    -515.1112      -6.0179876      35.457166     -14294.242      1187.2868      1666.9309      694.85139     -7160.0018      517429.21    
     57000   298.37048      0.57           0.048531442    0.048531442    0.92719706    -485.31442     -12.019569      71.686627     -14356.188      1221.3158      1678.5478      692.91587     -7206.7551      515785.94    
     58000   303.23791      0.58           0.039734848    0.039734848    0.92319238    -397.34848      1.4297335     -59.473913     -14272.534      1187.6978      1592.4675      695.62046     -7182.0735      518023.35    
     59000   297.36445      0.59           0.051777241    0.051777241    0.92234789    -517.77241      9.077539       2.6838494     -14279.535      1207.3809      1679.4177      697.61881     -7150.4567      518497.65    
     60000   301.90445      0.6            0.05333667     0.05333667     0.92818586    -533.3667       59.893322      87.902785     -14343.723      1177.6186      1647.8845      696.96052     -7222.4804      515236.47    
     61000   298.96944      0.61           0.051438542    0.051438542    0.92703606    -514.38542      76.563419      42.971545     -14323.782      1199.6012      1660.0248      691.31801     -7209.0444      515875.52    
     62000   298.5209       0.62           0.040830152    0.040830152    0.92736652    -408.30152     -35.026668     -13.900426     -14394.206      1221.3856      1647.2469      684.0681      -7283.0588      515691.69    
     63000   301.12421      0.63           0.041407072    0.041407072    0.92502145    -414.07072      3.1713622      6.0589586     -14360.141      1228.7427      1599.7249      690.51896     -7251.6754      516999.05    
     64000   299.7897       0.64           0.047749864    0.047749864    0.92759745    -477.49864     -19.885457      24.49211      -14392.981      1217.1508      1657.3859      681.68674     -7263.1864      515563.31    
     65000   301.26712      0.65           0.04733525     0.04733525     0.92225918    -473.3525      -47.512401      21.684246     -14277.969      1197.7329      1577.5908      680.66248     -7230.8003      518547.52    
     66000   296.04454      0.66           0.044996873    0.044996873    0.9260764     -449.96873      9.2929235      13.287669     -14329.478      1209.5179      1647.3681      682.39399     -7261.2702      516410.1     
     67000   299.69005      0.67           0.042914124    0.042914124    0.92955477    -429.14124      25.238501      25.308528     -14438.891      1197.9246      1649.0104      681.52886     -7338.0442      514477.71    
     68000   300.65051      0.68           0.060180049    0.060180049    0.92359943    -601.80049     -49.109353     -40.703694     -14361.216      1185.6592      1664.8237      676.2641      -7250.6364      517795.05    
     69000   299.88564      0.69           0.051806412    0.051806412    0.92425134    -518.06412     -1.758175       14.406876     -14340.978      1218.5563      1622.6199      675.48241     -7249.6046      517429.82    
     70000   304.02093      0.7            0.053725487    0.053725487    0.92509656    -537.25487     -2.9363269      25.030237     -14365.315      1192.7722      1675.9726      666.17465     -7206.3869      516957.07    
     71000   295.42501      0.71           0.040971834    0.040971834    0.92301666    -409.71834      76.401461      30.594077     -14274.522      1196.282       1663.1547      667.73303     -7225.8092      518121.97    
     72000   302.24963      0.72           0.042538597    0.042538597    0.92433631    -425.38597     -16.938163      41.17257      -14322.001      1149.2381      1632.9167      678.71937     -7258.2329      517382.26    
     73000   298.9381       0.73           0.04570477     0.04570477     0.92299343    -457.0477      -7.0189144      74.785331     -14338.272      1201.547       1713.1964      660.81049     -7199.2986      518135.01    
     74000   298.77841      0.74           0.043752267    0.043752267    0.92011774    -437.52267     -87.248326     -33.220275     -14259.688      1186.6467      1637.1662      666.59387     -7207.765       519754.36    
     75000   300.81419      0.75           0.044484331    0.044484331    0.92592032    -444.84331     -3.6246741      43.835956     -14388.549      1198.0889      1712.9747      656.35645     -7235.3459      516497.16    
     76000   301.4029       0.76           0.042514371    0.042514371    0.92481623    -425.14371     -23.111814     -2.3789952     -14368.682      1169.0324      1682.2674      666.24786     -7258.3334      517113.77    
     77000   300.23706      0.77           0.0559899      0.0559899      0.92291937    -559.899        50.274488     -68.846726     -14313.24       1181.563       1662.5808      658.42637     -7231.7665      518176.59    
     78000   298.4583       0.78           0.050068672    0.050068672    0.9218334     -500.68672     -34.49206       96.171758     -14297.432      1188.6226      1696.3682      660.40658     -7194.334       518787.02    
     79000   300.98238      0.79           0.047664815    0.047664815    0.92245226    -476.64815     -14.337471     -31.380417     -14301.977      1193.4265      1665.8801      666.80887     -7188.0739      518438.98    
     80000   298.67511      0.8            0.055712543    0.055712543    0.92002483    -557.12543      2.8531953      70.735542     -14233.108      1226.8943      1615.7499      663.47671     -7166.7019      519806.85    
     81000   300.69323      0.81           0.058463868    0.058463868    0.92307622    -584.63868      77.58548       27.667846     -14325.16       1215.8463      1698.0145      667.7544      -7159.2032      518088.54    
     82000   302.11657      0.82           0.056773854    0.056773854    0.91995749    -567.73854     -6.3941128     -78.854954     -14273.2        1181.6625      1673.7289      676.76141     -7139.7395      519844.9     
     83000   302.19463      0.83           0.065663135    0.065663135    0.92268404    -656.63135     -17.985278      4.8692803     -14310.63       1198.2536      1691.8009      672.57655     -7145.7603      518308.75    
     84000   299.78544      0.84           0.057450345    0.057450345    0.92381871    -574.50345      38.16029      -5.7054309     -14366.48       1215.9713      1709.2988      670.54836     -7197.1411      517672.14    
     85000   300.24429      0.85           0.048181291    0.048181291    0.92272162    -481.81291     -3.129915       32.597984     -14331.659      1219.1216      1612.8628      677.57726     -7243.1076      518287.64    
     86000   299.45335      0.86           0.048578247    0.048578247    0.92343159    -485.78247      50.807872      53.003605     -14310.655      1206.2017      1645.0248      677.05725     -7212.8095      517889.16    
     87000   304.00718      0.87           0.059444623    0.059444623    0.9229246     -594.44623     -70.719194     -73.722653     -14400.883      1212.8789      1631.6006      684.78694     -7247.772       518173.65    
     88000   300.98158      0.88           0.053261186    0.053261186    0.92234648    -532.61186     -161.45515      60.781648     -14330.673      1184.7839      1610.3532      676.57875     -7271.1788      518498.44    
     89000   303.95298      0.89           0.051142184    0.051142184    0.92723286    -511.42184      89.252324      48.924467     -14408.114      1204.69        1655.5413      678.2046      -7246.4801      515766.03    
     90000   297.96484      0.9            0.057872327    0.057872327    0.91810056    -578.72327     -57.323182     -92.202273     -14260.799      1212.9667      1618.2866      674.74993     -7202.9781      520896.33    
     91000   301.35022      0.91           0.067965314    0.067965314    0.91934111    -679.65314      0.64315293    -6.9543106     -14259.582      1177.6141      1701.9696      670.97903     -7116.8465      520193.44    
     92000   301.96099      0.92           0.053417673    0.053417673    0.92061265    -534.17673      6.752379      -53.040067     -14276.239      1232.1257      1632.137       669.79272     -7142.7306      519474.95    
     93000   298.85253      0.93           0.058592775    0.058592775    0.91700019    -585.92775      3.6882284      71.899764     -14216.977      1162.4933      1679.7744      670.60448     -7141.7051      521521.38    
     94000   302.49897      0.94           0.063661509    0.063661509    0.92200037    -636.61509      63.629411      1.497534      -14314.612      1183.1538      1720.9167      666.61744     -7138.058       518693.08    
     95000   301.36363      0.95           0.061700024    0.061700024    0.91648127    -617.00024      19.513931     -19.675269     -14227.227      1183.8452      1678.7359      661.55607     -7110.7574      521816.67    
     96000   302.73005      0.96           0.058854727    0.058854727    0.92039156    -588.54727     -4.308417       86.743262     -14294.84       1184.8455      1735.8894      660.49619     -7104.9884      519599.73    
     97000   303.45482      0.97           0.06163459     0.06163459     0.91868515    -616.3459       67.10872      -78.95166      -14281.684      1210.1163      1672.3115      659.98365     -7122.0128      520564.86    
     98000   299.19571      0.98           0.059696095    0.059696095    0.91932923    -596.96095     -14.35851      -40.162427     -14260.173      1192.9409      1689.1368      658.39391     -7153.2106      520200.16    
     99000   299.6281       0.99           0.064149045    0.064149045    0.91524326    -641.49045      59.425875      23.820623     -14187.479      1196.1901      1656.8423      658.08801     -7104.7144      522522.52    
    100000   305.99807      1              0.068713292    0.068713292    0.91495864    -687.13292     -53.237413     -7.5119707     -14227.832      1146.1086      1637.0995      665.34405     -7131.7034      522685.06    
    101000   297.7218       1.01           0.070714163    0.070714163    0.91788035    -707.14163     -120.99593     -51.022348     -14289.963      1196.7995      1658.7185      664.8169      -7220.707       521021.29    
    102000   300.88312      1.02           0.068532842    0.068532842    0.91770978    -685.32842      13.701596     -7.6811972     -14217.037      1189.6587      1638.7781      650.78337     -7151.2122      521118.14    
    103000   298.74078      1.03           0.057722825    0.057722825    0.91887067    -577.22825      26.02452      -40.198086     -14241.975      1199.9304      1669.7611      653.90682     -7157.3092      520459.76    
    104000   303.47679      1.04           0.062558847    0.062558847    0.92130922    -625.58847      25.432535     -67.429075     -14330.996      1156.4681      1679.2303      650.70416     -7227.0715      519082.19    
    105000   299.34354      1.05           0.064643713    0.064643713    0.91822898    -646.43713     -18.441078      13.517639     -14213.234      1170.8631      1627.1365      646.20312     -7200.7783      520823.48    
    106000   302.90792      1.06           0.062922313    0.062922313    0.92085595    -629.22313      0.52617181     10.572595     -14347.256      1187.0368      1742.8659      644.13349     -7162.4791      519337.7     
    107000   297.3447       1.07           0.05135733     0.05135733     0.92100652    -513.5733       132.37394     -24.934641     -14315.154      1219.3621      1750.1737      648.82722     -7152.3652      519252.79    
    108000   300.07475      1.08           0.07965798     0.07965798     0.91947886    -796.5798      -105.47909      13.615145     -14290.887      1192.4206      1700.9177      644.99824     -7175.582       520115.5     
    109000   298.48409      1.09           0.056191918    0.056191918    0.92133494    -561.91918      28.82304      -10.086724     -14289.281      1198.8433      1665.0878      648.30552     -7219.037       519067.7     
    110000   301.64775      1.1            0.066384532    0.066384532    0.91844021    -663.84532     -53.32193      -29.236718     -14303.228      1190.7243      1722.3925      649.33856     -7145.0534      520703.69    
    111000   296.5232       1.11           0.067542009    0.067542009    0.9173754     -675.42009     -22.627614      68.839362     -14218.237      1250.159       1655.5214      647.82365     -7130.0991      521308.08    
    112000   296.2757       1.12           0.055580377    0.055580377    0.91469262    -555.80377      64.39478       64.442828     -14096.63       1183.4841      1660.7236      647.86369     -7072.8756      522837.07    
    113000   299.55414      1.13           0.050413549    0.050413549    0.91708602    -504.13549     -54.279183      19.566565     -14225.372      1204.8333      1589.9135      637.6653      -7222.1967      521472.57    
    114000   303.99505      1.14           0.048352236    0.048352236    0.92108373    -483.52236      16.507001      92.477054     -14319.961      1163.481       1662.8817      641.02483     -7228.8736      519209.27    
    115000   303.77877      1.15           0.051056376    0.051056376    0.91875525    -510.56376      9.5299123     -42.618029     -14319.342      1200.5097      1653.3617      638.23958     -7206.1097      520525.14    
    116000   299.55716      1.16           0.05572563     0.05572563     0.91997282    -557.2563       85.646495     -73.255714     -14296.838      1222.4075      1619.7154      638.75754     -7245.1583      519836.24    
    117000   301.39891      1.17           0.059143411    0.059143411    0.91889722    -591.43411      56.042065     -29.425688     -14294.406      1235.6504      1629.3471      639.78493     -7196.8705      520444.73    
    118000   300.64298      1.18           0.082235059    0.082235059    0.92108265    -822.35059     -50.984316     -106.2366      -14406.02       1202.2252      1676.5347      657.31591     -7286.2018      519209.88    
    119000   296.60617      1.19           0.051955828    0.051955828    0.92315544    -519.55828      58.590216     -20.456302     -14370.92       1217.7949      1683.5141      644.14961     -7289.8392      518044.08    
    120000   304.02446      1.2            0.067747907    0.067747907    0.92318673    -677.47907     -44.771126     -32.152405     -14432.716      1192.8645      1648.7345      649.47409     -7317.5929      518026.52    
    121000   297.81447      1.21           0.070181854    0.070181854    0.92208804    -701.81854      34.629384      24.836531     -14334.911      1151.529       1668.9973      644.16324     -7320.196       518643.76    
    122000   299.24634      1.22           0.068570275    0.068570275    0.91517908    -685.70275     -26.161346      2.3933245     -14247.45       1208.2213      1661.9617      644.4433      -7165.7296      522559.16    
    123000   302.86519      1.23           0.070052621    0.070052621    0.91555009    -700.52621     -25.082683     -62.331049     -14229.033      1185.1575      1627.199       648.60257     -7157.8424      522347.4     
    124000   300.85516      1.24           0.072292567    0.072292567    0.92063302    -722.92567     -24.788572     -50.986212     -14355.163      1228.5207      1678.4919      645.57861     -7216.3006      519463.45    
    125000   304.96594      1.25           0.078546031    0.078546031    0.92231738    -785.46031     -3.2908515      31.893896     -14391.276      1153.6857      1723.4508      640.62494     -7238.2418      518514.8     
    126000   300.17846      1.26           0.060593796    0.060593796    0.92463114    -605.93796      59.216904      26.076493     -14403.757      1202.0614      1727.4801      633.25561     -7262.7551      517217.28    
    127000   303.03914      1.27           0.052075257    0.052075257    0.92123285    -520.75257      19.462121      22.36798      -14322.1        1191.9241      1667.189       640.25939     -7210.4221      519125.23    
    128000   299.71875      1.28           0.065457444    0.065457444    0.92000825    -654.57444     -90.916567      79.330313     -14320.386      1242.6983      1681.64        639.34438     -7183.9776      519816.22    
    129000   295.71815      1.29           0.061031155    0.061031155    0.9243303     -610.31155      124.7647      -10.619988     -14373.965      1235.9872      1758.6609      633.90083     -7220.3786      517385.62    
    130000   303.70949      1.3            0.061489379    0.061489379    0.91799547    -614.89379     -45.256781      37.758524     -14294.627      1191.3864      1656.4237      635.0685      -7191.453       520955.96    
    131000   296.74127      1.31           0.065950492    0.065950492    0.91987322    -659.50492      5.6242037      35.087374     -14336.584      1210.0362      1721.5943      637.74359     -7229.9766      519892.52    
    132000   299.79801      1.32           0.062930533    0.062930533    0.91792444    -629.30533      49.058989      76.938212     -14297.708      1197.812       1696.3834      634.00161     -7195.8413      520996.27    
    133000   303.65603      1.33           0.068847503    0.068847503    0.91771344    -688.47503      68.398014     -0.21581641    -14306.128      1173.9295      1705.5289      635.28275     -7171.7282      521116.06    
    134000   298.83868      1.34           0.065568661    0.065568661    0.91875045    -655.68661      27.792649     -40.945576     -14346.696      1225.9608      1778.8976      631.40033     -7148.2024      520527.86    
    135000   300.84308      1.35           0.054888665    0.054888665    0.92043415    -548.88665      83.589041     -10.499662     -14325.982      1174.0398      1753.7081      624.57939     -7187.5272      519575.69    
    136000   301.16281      1.36           0.062204441    0.062204441    0.91991148    -622.04441     -25.369744      4.1905575     -14361.382      1180.9406      1763.4307      615.10783     -7211.9645      519870.9     
    137000   299.12971      1.37           0.065293652    0.065293652    0.92137723    -652.93652     -19.385965     -3.4916853     -14347.172      1189.0224      1708.1433      620.67416     -7263.6283      519043.88    
    138000   302.06934      1.38           0.069810752    0.069810752    0.91763476    -698.10752     -2.6938586      80.413556     -14313.225      1218.0611      1685.8783      619.02592     -7189.5144      521160.74    
    139000   299.54749      1.39           0.061072624    0.061072624    0.91603349    -610.72624     -60.262972     -55.925813     -14285.986      1244.9396      1649.7478      616.29943     -7204.3158      522071.75    
    140000   298.12486      1.4            0.067299249    0.067299249    0.91887295    -672.99249     -27.786874      97.429956     -14287.964      1214.5446      1738.2037      612.61663     -7168.8732      520458.47    
    141000   301.54033      1.41           0.06437865     0.06437865     0.92123621    -643.7865       20.161853      71.069745     -14374.946      1197.4972      1707.5191      610.92863     -7264.5622      519123.33    
    142000   299.89567      1.42           0.071551058    0.071551058    0.91543212    -715.51058     -29.516932      7.6315886     -14263.781      1233.0842      1690.6749      612.0894      -7153.0988      522414.71    
    143000   302.39724      1.43           0.065655838    0.065655838    0.91110966    -656.55838      0.79370963    -55.809882     -14169.112      1171.3315      1651.1556      613.83455     -7128.1364      524893.14    
    144000   298.59719      1.44           0.067562329    0.067562329    0.91266328    -675.62329      14.173181      28.007749     -14185.679      1188.7296      1689.2828      613.27628     -7135.0348      523999.62    
    145000   298.37241      1.45           0.070977363    0.070977363    0.91336898    -709.77363      12.834929      2.2199866     -14216.289      1196.8138      1744.9389      619.53345     -7098.3263      523594.76    
    146000   302.94919      1.46           0.063614042    0.063614042    0.91443529    -636.14042     -0.10797227     16.150544     -14257.733      1178.2171      1702.8103      620.66303     -7144.8101      522984.2     
    147000   302.55186      1.47           0.059541421    0.059541421    0.9155028     -595.41421      78.352267      22.783626     -14231.749      1168.9957      1640.329       619.90258     -7196.0256      522374.38    
    148000   297.27396      1.48           0.067044773    0.067044773    0.90990605    -670.44773     -24.921936     -91.826983     -14154.199      1214.5796      1650.5493      605.25401     -7140.2333      525587.46    
    149000   303.10386      1.49           0.062496191    0.062496191    0.91415969    -624.96191      17.18492      -43.043881     -14235.753      1192.126       1689.1263      610.47651     -7130.9478      523141.87    
    150000   295.80183      1.5            0.072342216    0.072342216    0.91150155    -723.42216     -12.9884       -87.183855     -14179.943      1216.2596      1720.2244      605.57142     -7111.8534      524667.47    
    151000   300.90894      1.51           0.080720057    0.080720057    0.91349417    -807.20057     -4.8574851      0.25586129    -14208.356      1186.2127      1738.5659      600.6567      -7096.0078      523523       
    152000   304.43433      1.52           0.074552558    0.074552558    0.914137      -745.52558     -9.6746227     -54.953217     -14285.998      1159.7637      1709.0257      598.02364     -7190.2488      523154.85    
    153000   301.8811       1.53           0.070897746    0.070897746    0.91205341    -708.97746     -31.933421      29.161229     -14225.338      1158.9793      1725.4921      598.52083     -7143.8449      524350.01    
    154000   298.49163      1.54           0.07947186     0.07947186     0.91022417    -794.7186      -37.263231     -37.462882     -14115.933      1164.7563      1681.4855      594.53495     -7117.0588      525403.77    
    155000   297.99544      1.55           0.084582556    0.084582556    0.91553219    -845.82556      12.043724      32.821915     -14233.605      1217.1532      1751.1202      593.15385     -7119.9949      522357.61    
    156000   297.81591      1.56           0.06321753     0.06321753     0.91630925    -632.1753       11.859804      48.942828     -14265.833      1236.3111      1719.5835      592.40809     -7167.4878      521914.64    
    157000   298.73395      1.57           0.078765603    0.078765603    0.9129917     -787.65603      36.401194     -83.577413     -14227.777      1235.1475      1682.3934      594.39392     -7154.8556      523811.13    
    158000   303.65231      1.58           0.075131248    0.075131248    0.91432919    -751.31248     -22.637477      43.034001     -14302.981      1215.4854      1722.8357      595.54855     -7149.4974      523044.89    
    159000   295.89465      1.59           0.072960532    0.072960532    0.91465811    -729.60532      42.637862      39.478964     -14275.169      1214.8642      1709.5659      596.04629     -7227.552       522856.8     
    160000   297.23153      1.6            0.080787852    0.080787852    0.91240637    -807.87852      42.495893      63.8532       -14200.495      1201.1257      1722.7804      593.05083     -7140.4611      524147.16    
    161000   295.31124      1.61           0.07783968     0.07783968     0.91121982    -778.3968       49.242364      48.664731     -14142.726      1249.9973      1686.4318      594.88173     -7091.2283      524829.68    
    162000   299.9521       1.62           0.080847613    0.080847613    0.91037869    -808.47613      63.0029       -61.004463     -14203.907      1211.5525      1724.3968      591.37486     -7101.0758      525314.59    
    163000   296.79944      1.63           0.095754394    0.095754394    0.90744356    -957.54394     -116.28296     -116.99882     -14176.888      1221.3824      1719.2175      594.84163     -7103.5197      527013.72    
    164000   296.78355      1.64           0.080606667    0.080606667    0.9117712     -806.06667      27.391317     -42.581332     -14243.853      1222.9503      1756.3757      592.80262     -7133.9871      524512.3     
    165000   301.95583      1.65           0.078922214    0.078922214    0.91045788    -789.22214     -40.228149      5.8591649     -14219.364      1198.6933      1758.9653      600.65465     -7061.659       525268.9     
    166000   300.8353       1.66           0.071393533    0.071393533    0.90980424    -713.93533      75.835599     -3.9266149     -14188.295      1175.6703      1755.9772      588.14028     -7082.4721      525646.28    
    167000   300.57945      1.67           0.093715311    0.093715311    0.90636278    -937.15311     -73.902556     -54.751716     -14150.902      1162.1918      1770.6012      597.53435     -7037.5895      527642.15    
    168000   302.18707      1.68           0.09635061     0.09635061     0.90693683    -963.5061      -96.424058      21.222376     -14176.623      1162.1845      1785.3924      588.0844      -7038.8139      527308.18    
    169000   301.17103      1.69           0.094145069    0.094145069    0.90963307    -941.45069      50.60422      -8.3371163     -14246.152      1228.9328      1747.9829      579.44785     -7099.7519      525745.19    
    170000   297.3666       1.7            0.080203008    0.080203008    0.90770055    -802.03008     -23.099935     -14.269229     -14143.371      1204.8802      1739.5054      578.91473     -7075.3834      526864.51    
    171000   299.43405      1.71           0.084347147    0.084347147    0.9112349     -843.47147      8.8238619     -56.930341     -14220.828      1211.7598      1721.7079      582.31162     -7135.7172      524821       
    172000   300.18521      1.72           0.083704982    0.083704982    0.91065829    -837.04982      73.741334      65.695913     -14211.182      1219.9461      1744.926       582.23219     -7085.7923      525153.3     
    173000   297.16723      1.73           0.095927786    0.095927786    0.90577269    -959.27786      18.436053     -54.551499     -14138.461      1228.168       1709.6749      573.74985     -7084.5583      527985.9     
    174000   302.74828      1.74           0.083667889    0.083667889    0.90745004    -836.67889      12.792529      30.027045     -14186.7        1194.1419      1735.7862      576.38037     -7071.5532      527009.96    
    175000   299.7352       1.75           0.088923658    0.088923658    0.90979314    -889.23658     -60.542067      24.4026       -14270.27       1236.4902      1764.8529      580.31188     -7115.6936      525652.69    
    176000   300.88869      1.76           0.077327992    0.077327992    0.90540708    -773.27992      51.727219     -34.069642     -14168.787      1211.4647      1717.7918      576.83673     -7076.0228      528199.1     
    177000   300.3928       1.77           0.093130868    0.093130868    0.90528312    -931.30868     -59.890123      27.419272     -14154.884      1200.8106      1746.6603      569.21853     -7057.4341      528271.43    
    178000   301.76408      1.78           0.10750768     0.10750768     0.90830994    -1075.0768      17.038514      5.6390826     -14238.478      1222.3528      1778.6966      578.89412     -7061.4286      526511.04    
    179000   297.64001      1.79           0.097167201    0.097167201    0.90366077    -971.67201      20.613246     -10.990245     -14112.256      1201.7142      1740.2987      571.39545     -7050.9012      529219.84    
    180000   300.26349      1.8            0.092311436    0.092311436    0.90234702    -923.11436     -28.9001       -49.811298     -14200.59       1258.1017      1720.2134      575.35222     -7067.7044      529990.35    
    181000   302.26435      1.81           0.083574633    0.083574633    0.90261041    -835.74633      26.869202      8.9385623     -14107.193      1172.1378      1743.0239      567.86535     -7021.096       529835.69    
    182000   299.89097      1.82           0.088881804    0.088881804    0.90091382    -888.81804      22.447305     -98.428732     -14114.487      1219.273       1762.4863      580.514       -6977.4355      530833.47    
    183000   302.07215      1.83           0.090219987    0.090219987    0.89562355    -902.19987      5.079711      -131.02964     -14028.737      1218.0082      1712.0806      578.63672     -6919.2333      533969       
    184000   299.24685      1.84           0.091189648    0.091189648    0.89559464    -911.89648     -138.92635     -52.368612     -14045.764      1234.3849      1747.1919      572.66216     -6924.4252      533986.23    
    185000   300.40987      1.85           0.08592249     0.08592249     0.90124345    -859.2249      -20.864181      27.425316     -14115.855      1244.101       1763.6847      562.53293     -6964.5727      530639.32    
    186000   300.1305       1.86           0.082087675    0.082087675    0.89974999    -820.87675     -14.041555      46.437036     -14065.875      1190.6944      1762.2558      567.35925     -6967.9319      531520.1     
    187000   297.86602      1.87           0.080387696    0.080387696    0.89938656    -803.87696      136.05513      80.013434     -14020.58       1173.171       1836.4187      561.21478     -6899.1351      531734.89    
    188000   302.45576      1.88           0.095990977    0.095990977    0.89350896    -959.90977     -176.29406      66.49995      -14005.617      1191.6999      1787.6675      560.85594     -6860.0428      535232.69    
    189000   303.34127      1.89           0.082942557    0.082942557    0.89708429    -829.42557      21.933253     -97.408144     -14045.398      1198.146       1794.6936      558.56632     -6878.0855      533099.53    
    190000   303.77153      1.9            0.079659537    0.079659537    0.89485322    -796.59537     -85.632867     -119.97677     -14008.61       1184.9204      1781.4118      546.62406     -6874.6188      534428.66    
    191000   302.48871      1.91           0.085832963    0.085832963    0.89580825    -858.32963     -35.410957     -21.900182     -14053.888      1190.5794      1829.348       546.99679     -6881.2203      533858.9     
    192000   301.19466      1.92           0.067053148    0.067053148    0.89602461    -670.53148     -51.893628      48.147869     -14052.228      1199.9155      1841.0904      549.93105     -6870.9729      533730       
    193000   305.15281      1.93           0.089847571    0.089847571    0.89776379    -898.47571     -72.123885     -21.760603     -14100.905      1219.0265      1837.0359      542.57436     -6864.7673      532696.03    
    194000   302.1373       1.94           0.078924646    0.078924646    0.89913107    -789.24646     -29.46474      -4.3245893     -14109.498      1247.8065      1865.1277      540.18523     -6854.8236      531885.98    
    195000   297.0605       1.95           0.084969357    0.084969357    0.89353524    -849.69357     -16.08273       86.612945     -13970.828      1200.6986      1821.5535      542.97507     -6864.5627      535216.95    
    196000   297.74391      1.96           0.10154389     0.10154389     0.88898456    -1015.4389     -42.512548     -55.172557     -13925.316      1205.6238      1788.1977      542.35559     -6839.9541      537956.71    
    197000   297.89385      1.97           0.092520888    0.092520888    0.88785562    -925.20888     -10.223732     -30.888121     -13893.686      1201.201       1753.901       545.62025     -6841.9915      538640.74    
    198000   301.00878      1.98           0.089791368    0.089791368    0.89140658    -897.91368     -44.641802      46.03979      -13990.609      1185.8262      1781.7874      551.89251     -6882.9999      536495.04    
    199000   297.70128      1.99           0.078498964    0.078498964    0.89296805    -784.98964     -25.450304      10.277943     -14043.159      1233.2572      1786.7387      550.64759     -6923.8386      535556.91    
    200000   296.58948      2              0.077824018    0.077824018    0.89120349    -778.24018      52.055842      6.7213099     -14028.557      1219.7489      1821.9428      557.18743     -6894.2545      536617.3     
Loop time of 30.8315 on 16 procs for 200000 steps with 4000 atoms

Performance: 560.465 ns/day, 0.043 hours/ns, 6486.866 timesteps/s, 25.947 Matom-step/s
97.3% CPU use with 16 MPI tasks x no OpenMP threads

MPI task timing breakdown:
Section |  min time  |  avg time  |  max time  |%varavg| %total
---------------------------------------------------------------
Pair    | 7.342      | 8.5724     | 9.5172     |  18.6 | 27.80
Bond    | 3.9217     | 4.3315     | 4.6808     |  10.4 | 14.05
Neigh   | 1.245      | 1.2514     | 1.2554     |   0.3 |  4.06
Comm    | 8.2628     | 9.4221     | 11.101     |  22.9 | 30.56
Output  | 0.12104    | 0.16109    | 0.19921    |   5.9 |  0.52
Modify  | 5.9188     | 6.0999     | 6.4213     |   5.6 | 19.78
Other   |            | 0.9932     |            |       |  3.22

Nlocal:            250 ave         273 max         224 min
Histogram: 3 3 0 0 1 0 2 0 5 2
Nghost:        1325.31 ave        1429 max        1210 min
Histogram: 2 3 3 0 0 0 0 1 4 3
Neighs:        7987.38 ave        9614 max        6291 min
Histogram: 2 3 1 0 2 1 0 2 3 2

Total # of neighbors = 127798
Ave neighs/atom = 31.9495
Ave special neighs/atom = 5.88
Neighbor list builds = 3527
Dangerous builds = 0
unfix               1
unfix               2
Total wall time: 0:01:52
