LAMMPS (29 Aug 2024)
# LAMMPS输入文件示例：使用Martini 3粗粒化力场计算PDMS的均方回转半径
# -----------------------------------------------------
# 1. 初始化设置
# -----------------------------------------------------
units               real
dimension           3
boundary            p p p
atom_style          full

# 读取包含PDMS分子结构的data文件
read_data           bad_pdms_10_box.data
Reading data file ...
  orthogonal box = (-2.108001 -1.1785 -1.396996) to (151.022 150.1315 150.413)
  4 by 2 by 2 MPI processor grid
  reading atoms ...
  26130 atoms
  scanning bonds ...
  1 = max bonds/atom
  scanning angles ...
  1 = max angles/atom
  scanning dihedrals ...
  1 = max dihedrals/atom
  orthogonal box = (-2.108001 -1.1785 -1.396996) to (151.022 150.1315 150.413)
  4 by 2 by 2 MPI processor grid
  reading bonds ...
  23517 bonds
  reading angles ...
  20904 angles
  reading dihedrals ...
  18291 dihedrals
Finding 1-2 1-3 1-4 neighbors ...
  special bond factors lj:    0        0        0       
  special bond factors coul:  0        0        0       
     2 = max # of 1-2 neighbors
     2 = max # of 1-3 neighbors
     4 = max # of 1-4 neighbors
     6 = max # of special neighbors
  special bonds CPU = 0.002 seconds
  read_data CPU = 0.155 seconds

# -----------------------------------------------------
# 2. 力场参数设置（Martini 3参数）
# -----------------------------------------------------
# 定义非键相互作用（示例：Lennard-Jones势，截断距离可参考Martini 3常用取值）
pair_style lj/cut   12.0
special_bonds       lj 0.0 0.0 0.5
Finding 1-2 1-3 1-4 neighbors ...
  special bond factors lj:    0        0        0.5     
  special bond factors coul:  0        0        0       
     2 = max # of 1-2 neighbors
     2 = max # of 1-3 neighbors
     4 = max # of 1-4 neighbors
     6 = max # of special neighbors
  special bonds CPU = 0.001 seconds
pair_coeff          1 1 0.7337 5.1
# 定义键、角、二面角势（示例参数，实际参数请参考相关文献）
bond_style          harmonic
bond_coeff          1 13.243 4.48
angle_style         harmonic
angle_coeff         1 5.48 86.0
dihedral_style      harmonic
dihedral_coeff      1 0.3346  1  1
# -----------------------------------------------------
# 3. 邻域列表设置
# -----------------------------------------------------
neigh_modify    one 1000
neighbor        1 bin
neigh_modify    delay 0 every 1 check yes

# -----------------------------------------------------
# 4. 能量最小化与预平衡
# -----------------------------------------------------
minimize        1.0e-4 1.0e-6 1000 10000

CITE-CITE-CITE-CITE-CITE-CITE-CITE-CITE-CITE-CITE-CITE-CITE-CITE

Your simulation uses code contributions which should be cited:

- Type Label Framework: https://doi.org/10.1021/acs.jpcb.3c08419

@Article{Gissinger24,
 author = {Jacob R. Gissinger, Ilia Nikiforov, Yaser Afshar, Brendon Waters, Moon-ki Choi, Daniel S. Karls, Alexander Stukowski, Wonpil Im, Hendrik Heinz, Axel Kohlmeyer, and Ellad B. Tadmor},
 title = {Type Label Framework for Bonded Force Fields in LAMMPS},
 journal = {J. Phys. Chem. B},
 year =    2024,
 volume =  128,
 number =  13,
 pages =   {3282–-3297}
}

CITE-CITE-CITE-CITE-CITE-CITE-CITE-CITE-CITE-CITE-CITE-CITE-CITE

Generated 0 of 0 mixed pair_coeff terms from geometric mixing rule
Neighbor list info ...
  update: every = 1 steps, delay = 0 steps, check = yes
  max neighbors/atom: 1000, page size: 100000
  master list distance cutoff = 13
  ghost atom cutoff = 13
  binsize = 6.5, bins = 24 24 24
  1 neighbor lists, perpetual/occasional/extra = 1 0 0
  (1) pair lj/cut, perpetual
      attributes: half, newton on
      pair build: half/bin/newton
      stencil: half/bin/3d
      bin: standard
Per MPI rank memory allocation (min/avg/max) = 8.445 | 8.505 | 8.881 Mbytes
   Step          Temp          E_pair         E_mol          TotEng         Press     
         0   0              3.1012118e+08  127107.56      3.1024828e+08  24330864     
       854   0             -115265.35      34103.802     -81161.548      417.34372    
Loop time of 1.81356 on 16 procs for 854 steps with 26130 atoms

98.3% CPU use with 16 MPI tasks x no OpenMP threads

Minimization stats:
  Stopping criterion = energy tolerance
  Energy initial, next-to-last, final = 
      310248284.586559  -81154.6006204582  -81161.5476823733
  Force two-norm initial, final = 28680001 46.207236
  Force max component initial, final = 1094020.9 12.773188
  Final line search alpha, max atom move = 0.0057625333 0.073605923
  Iterations, force evaluations = 854 855

MPI task timing breakdown:
Section |  min time  |  avg time  |  max time  |%varavg| %total
---------------------------------------------------------------
Pair    | 0.40142    | 0.71827    | 1.0071     |  22.6 | 39.61
Bond    | 0.078267   | 0.1143     | 0.1415     |   6.0 |  6.30
Neigh   | 0.39457    | 0.39751    | 0.40099    |   0.4 | 21.92
Comm    | 0.21842    | 0.49906    | 0.87883    |  26.5 | 27.52
Output  | 0          | 0          | 0          |   0.0 |  0.00
Modify  | 0          | 0          | 0          |   0.0 |  0.00
Other   |            | 0.08442    |            |       |  4.66

Nlocal:        1633.12 ave        1943 max        1303 min
Histogram: 2 2 3 1 0 0 1 1 4 2
Nghost:        2952.31 ave        3558 max        2358 min
Histogram: 5 3 0 0 0 0 0 1 3 4
Neighs:        58566.7 ave       78958 max       42519 min
Histogram: 4 2 2 0 1 1 1 1 3 1

Total # of neighbors = 937067
Ave neighs/atom = 35.86173
Ave special neighs/atom = 4.8
Neighbor list builds = 118
Dangerous builds = 0
fix             1 all npt temp 300.0 300.0 100.0 iso 1.0 1.0 1000
timestep        1
thermo_style    custom step temp press density vol
thermo          10000
run             500000
Generated 0 of 0 mixed pair_coeff terms from geometric mixing rule
Per MPI rank memory allocation (min/avg/max) = 7.322 | 7.406 | 7.808 Mbytes
   Step          Temp          Press         Density         Volume    
       854   0              417.34372      0.88816298     3517452.9    
     10000   299.87995     -7.1822087      0.83860185     3725333.4    
     20000   299.59051      19.621324      0.89931483     3473835.2    
     30000   298.28298     -11.023109      0.91211269     3425093.8    
     40000   300.88711     -0.56010567     0.91921534     3398628.5    
     50000   299.37426     -11.298745      0.91930035     3398314.3    
     60000   301.24067      7.2995921      0.92001083     3395689.9    
     70000   299.71063      6.5040228      0.92034031     3394474.3    
     80000   299.25637     -25.098465      0.91904652     3399252.9    
     90000   303.40886      16.262441      0.92226509     3387389.9    
    100000   300.20816      1.6306803      0.92073496     3393019.3    
    110000   299.20879      13.006344      0.92241357     3386844.7    
    120000   298.32907     -32.088048      0.92132208     3390857.1    
    130000   299.96921     -27.862326      0.92077263     3392880.5    
    140000   301.39065     -25.591149      0.92164962     3389652      
    150000   300.55957     -14.248734      0.92076668     3392902.4    
    160000   299.96217     -25.546097      0.92199152     3388395      
    170000   299.85642     -21.501482      0.92114818     3391497.2    
    180000   300.11123     -39.966957      0.92164967     3389651.8    
    190000   297.92323      29.160997      0.92260263     3386150.6    
    200000   298.39027      15.724327      0.92265824     3385946.6    
    210000   299.3163       22.042983      0.92182557     3389005      
    220000   299.88858      14.757936      0.92242989     3386784.8    
    230000   299.77825      14.755905      0.9207247      3393057.1    
    240000   299.85715     -16.948075      0.92179451     3389119.3    
    250000   299.36527     -15.624268      0.9222145      3387575.8    
    260000   299.82782      24.834442      0.92064973     3393333.4    
    270000   302.03403     -14.215422      0.9202491      3394810.7    
    280000   299.55424      4.9623495      0.92188898     3388772      
    290000   298.61473      19.034257      0.92148898     3390242.9    
    300000   297.56016     -13.933371      0.92211206     3387952.1    
    310000   299.58446      7.8335108      0.9212693      3391051.3    
    320000   298.58524      1.9072579      0.92150752     3390174.7    
    330000   296.57831     -3.476281       0.9220483      3388186.4    
    340000   298.33305      12.945894      0.92255536     3386324.2    
    350000   301.42625      5.2153742      0.92253655     3386393.2    
    360000   303.64642     -4.7373004      0.92105498     3391840.4    
    370000   302.60371      10.729762      0.92119849     3391312      
    380000   300.59468     -12.210325      0.92316807     3384076.6    
    390000   300.55406     -0.44369167     0.92169412     3389488.4    
    400000   299.08637      23.022313      0.92121909     3391236.2    
    410000   297.73385      29.879746      0.92335709     3383383.9    
    420000   298.97653      44.599405      0.92267678     3385878.5    
    430000   303.32261      4.1313221      0.92008394     3395420.1    
    440000   298.94441     -10.819228      0.92027288     3394723      
    450000   298.81309      6.9040917      0.92396157     3381170.4    
    460000   299.30603     -12.301309      0.92190068     3388728.9    
    470000   299.86351      11.384619      0.92140838     3390539.5    
    480000   301.01821      13.098824      0.92078902     3392820.1    
    490000   302.80965      11.063724      0.9212654      3391065.7    
    500000   297.29535     -22.040708      0.92005215     3395537.4    
    500854   301.67614      26.645872      0.91975782     3396624      
Loop time of 472.198 on 16 procs for 500000 steps with 26130 atoms

Performance: 91.487 ns/day, 0.262 hours/ns, 1058.877 timesteps/s, 27.668 Matom-step/s
98.7% CPU use with 16 MPI tasks x no OpenMP threads

MPI task timing breakdown:
Section |  min time  |  avg time  |  max time  |%varavg| %total
---------------------------------------------------------------
Pair    | 229.12     | 236.68     | 245.73     |  33.2 | 50.12
Bond    | 67.463     | 69.465     | 71.478     |  13.9 | 14.71
Neigh   | 23.193     | 23.205     | 23.216     |   0.1 |  4.91
Comm    | 88.71      | 100.3      | 109.68     |  62.0 | 21.24
Output  | 0.0017951  | 0.0018901  | 0.0031392  |   0.7 |  0.00
Modify  | 35.357     | 35.966     | 36.728     |   7.5 |  7.62
Other   |            | 6.583      |            |       |  1.39

Nlocal:        1633.12 ave        1649 max        1609 min
Histogram: 1 0 1 1 2 2 1 3 4 1
Nghost:        3361.19 ave        3395 max        3338 min
Histogram: 3 1 3 2 1 2 0 2 1 1
Neighs:        53721.6 ave       54621 max       52283 min
Histogram: 1 1 0 1 3 2 0 2 2 4

Total # of neighbors = 859546
Ave neighs/atom = 32.894987
Ave special neighs/atom = 4.8
Neighbor list builds = 9359
Dangerous builds = 0
unfix           1

# variable        lambda equal ramp(0.8,1.0)
# fix             2 all adapt 1 pair lj/cut/soft lambda * * v_lambda

# fix             3 all npt temp 300.0 300.0 100.0 iso 1.0 1.0 1000
# timestep        1
# thermo_style    custom step temp press density vol
# thermo          10000
# run             50000
# unfix           3

# -----------------------------------------------------
# 5. 计算均方回转半径
# -----------------------------------------------------
# 使用compute gyration命令计算整个体系的回转半径
fix             equil all npt temp 300.0 300.0 100.0 iso 1.0 1.0 1000
group           pdms1 id <= 10
10 atoms in group pdms1
group           pdms2 id 11:20
10 atoms in group pdms2
group           pdms3 id 21:30
10 atoms in group pdms3
group           pdms4 id 31:40
10 atoms in group pdms4
group           pdms5 id 41:50
10 atoms in group pdms5
group           pdms6 id 51:60
10 atoms in group pdms6
group           pdms7 id 61:70
10 atoms in group pdms7
group           pdms8 id 71:80
10 atoms in group pdms8
group           pdms9 id 81:90
10 atoms in group pdms9
group           pdms10 id 91:100
10 atoms in group pdms10
variable        d_end equal "sqrt((x[1]-x[10])^2 + (y[1]-y[10])^2 + (z[1]-z[10])^2)"
compute         rg1 pdms1 gyration
compute         rg2 pdms2 gyration
compute         rg3 pdms3 gyration
compute         rg4 pdms4 gyration
compute         rg5 pdms5 gyration
compute         rg6 pdms6 gyration
compute         rg7 pdms7 gyration
compute         rg8 pdms8 gyration
compute         rg9 pdms9 gyration
compute         rg10 pdms10 gyration
# fix             avg pdms ave/time 1000 800 1000000 c_rg v_d_end file avg.txt
# 输出热力学信息及回转半径数据，每隔1000步输出一次
thermo_style    custom step temp pe ke etotal c_rg1 c_rg2 c_rg3 c_rg4 c_rg5 c_rg6 c_rg7 c_rg8 c_rg9 c_rg10 v_d_end press density vol
thermo          10000
# 输出轨迹文件，便于后续可视化与分析
dump            traj all custom 1000 dump.pdms.lammpstrj id type x y z
# 运行模拟，记录回转半径数据（后续可统计分析均值与波动）
run             1000000
Generated 0 of 0 mixed pair_coeff terms from geometric mixing rule
Per MPI rank memory allocation (min/avg/max) = 7.336 | 7.413 | 7.809 Mbytes
   Step          Temp          PotEng         KinEng         TotEng         c_rg1          c_rg2          c_rg3          c_rg4          c_rg5          c_rg6          c_rg7          c_rg8          c_rg9          c_rg10        v_d_end         Press         Density         Volume    
    500854   301.67614     -77305.693      23496.223     -53809.471      6.5505028      7.469982       6.9436612      7.4841207      7.3966579      6.5097421      6.6465653      5.5209629      7.1959766      7.7957701      15.147164      26.645872      0.91975782     3396624      
    510000   302.104       -77426.719      23529.547     -53897.172      6.7478616      7.550344       7.1003748      8.8072024      7.4707644      6.358844       6.6316585      5.1704454      6.2686877      7.7565712      14.841145     -12.381843      0.91960266     3397197.1    
    520000   297.37273     -77889.899      23161.049     -54728.85       6.4841845      7.9083476      7.8819165      8.698982       6.4138008      6.4249239      6.6160361      4.8305802      6.6508313      6.6353622      16.094132     -9.1692154      0.92070036     3393146.8    
    530000   298.91167     -77790.472      23280.911     -54509.561      6.8705163      7.5906271      7.0913716      8.2103903      6.7036151      6.0976934      6.6193286      5.2618128      7.0167732      6.0059093      18.438953      22.946836      0.92250118     3386523      
    540000   297.87152     -77969.639      23199.898     -54769.741      7.261601       6.7805142      7.3045504      8.0086268      6.5753284      6.0499637      6.4314024      5.3221772      7.4815833      5.1418204      19.320965      12.955789      0.9222033      3387616.9    
    550000   301.11218     -77550.734      23452.298     -54098.436      6.4133376      6.4256745      8.0441915      7.2131375      6.6524034      6.9259211      6.6067851      4.8859749      6.445101       5.7014637      18.017633      46.286936      0.92136755     3390689.8    
    560000   301.90363     -77639.859      23513.941     -54125.917      6.2282328      6.3656746      8.1136158      7.7332969      5.8844951      6.869721       6.4136438      5.2828754      6.9228705      5.6608819      16.809392     -22.430088      0.91954056     3397426.5    
    570000   300.73546     -77533.622      23422.958     -54110.664      5.636047       5.7242357      7.4142222      7.3421674      6.4007988      5.7663712      5.9514206      5.1804007      7.292593       6.6013976      13.490034     -53.328407      0.91983931     3396323.1    
    580000   300.13742     -77768.053      23376.379     -54391.674      6.3944296      6.0615957      7.3928967      7.1929665      6.5805414      5.7020448      6.0951684      5.4545184      6.9066859      6.2660862      16.086914     -33.839015      0.92099746     3392052.2    
    590000   298.32609     -77476.609      23235.303     -54241.307      5.8772462      5.8443896      7.5325489      6.8016425      6.3656619      5.8363552      6.7011964      6.1184477      7.7445396      6.9332389      13.736671     -3.3831393      0.92102282     3391958.8    
    600000   299.36944     -77620.814      23316.564     -54304.249      5.4290109      7.1187094      7.4589638      6.3250115      6.3590188      6.2550151      6.9792469      5.4481176      7.676443       6.8823899      11.128701      21.320648      0.9214453      3390403.6    
    610000   300.62401     -77623.076      23414.277     -54208.799      5.5369342      7.0416516      6.4932999      6.8867804      5.4414465      5.182823       7.3413365      5.2620549      8.1211387      7.8885339      11.466963      30.860375      0.91921166     3398642.2    
    620000   299.20297     -77578.184      23303.599     -54274.585      5.7251162      7.324011       7.3237872      7.4068523      6.2619631      5.4958517      6.3407877      6.1934962      7.8548982      6.7866709      11.313976      16.344642      0.92140479     3390552.7    
    630000   300.96749     -77729.101      23441.029     -54288.071      5.0874952      7.4721208      7.1393671      7.2379412      6.192712       5.4591759      7.0487057      6.6358479      6.6845494      6.9304878      9.336414       7.4505195      0.92079234     3392807.9    
    640000   302.42173     -77717.794      23554.293     -54163.501      5.5695947      6.7698012      6.5064381      6.5437173      5.6813726      6.1435457      7.2735041      6.2985172      8.0977412      6.3942154      12.371562      21.047498      0.92170679     3389441.8    
    650000   301.10451     -77587.311      23451.701     -54135.61       5.7480341      6.9173571      5.6779963      6.7225557      5.2765283      6.1835502      6.1784725      6.0816422      7.0362834      7.5221696      13.587798     -22.832656      0.91996586     3395855.9    
    660000   299.49017     -77659.147      23325.968     -54333.18       7.1489511      7.4628844      5.5611339      6.9242166      5.8189994      6.5860334      7.9168921      5.8509159      6.5448984      7.4866596      21.312044     -11.621206      0.92250574     3386506.3    
    670000   302.05903     -77762.948      23526.045     -54236.903      7.4140411      7.5818863      5.8996778      7.6723665      6.0043184      6.8212719      7.634331       5.9466414      6.458335       7.3140472      23.442975     -19.947735      0.92092769     3392309.2    
    680000   299.99891     -77645.291      23365.591     -54279.7        7.3501937      6.5631946      5.7978477      6.9460746      5.2258756      7.1274106      8.627366       6.3682806      6.4781736      7.2854677      20.543281     -0.64175358     0.92070841     3393117.2    
    690000   299.51846     -77546.271      23328.171     -54218.1        7.6283009      6.5101395      5.9403717      6.7096541      5.6213979      7.4295882      8.7487497      5.3060892      5.7984609      7.206005       22.937061      3.645525       0.92051859     3393816.8    
    700000   298.76406     -77672.935      23269.414     -54403.521      7.2721972      6.2550436      6.2790941      6.2841808      5.2474421      7.7343647      8.7143311      6.4332567      5.693163       7.5237307      22.458885      39.222444      0.92197612     3388451.6    
    710000   301.73505     -77755.97       23500.811     -54255.159      7.3407108      5.6584781      6.529477       7.7200237      5.0100582      7.3160745      8.1812772      6.290024       5.6623577      7.402169       22.749081      16.318487      0.92175698     3389257.2    
    720000   298.91782     -77929.187      23281.39      -54647.797      6.940215       6.2746368      6.1809642      8.6463612      5.3770464      7.1827506      8.1726406      7.614973       6.0277467      7.3794153      19.145283     -18.163996      0.92070536     3393128.4    
    730000   299.199       -77695.502      23303.29      -54392.212      6.7571757      6.1629998      6.7156181      7.7046161      4.6083019      6.9256648      8.1257134      7.2971094      5.4385185      7.7114608      18.173862      13.347009      0.92153077     3390089.2    
    740000   300.06757     -77586.143      23370.938     -54215.205      6.754798       6.6689652      6.6753103      8.2201169      5.5310969      7.2819843      8.0036608      7.4136255      5.9453726      6.9838251      15.327071     -12.668184      0.9196518      3397015.6    
    750000   300.0891      -77477.813      23372.616     -54105.198      7.7468217      6.7587912      6.0282374      8.0169998      5.5090855      7.0797114      8.0758263      6.2896         5.2436267      7.0129088      19.613906      12.831472      0.92161196     3389790.6    
    760000   301.58965     -77473.261      23489.487     -53983.775      7.5406519      6.5362744      6.5855439      8.2392555      5.5291452      7.9524826      7.1932278      6.5066936      5.9813771      6.018093       20.73829       22.579556      0.9214377      3390431.6    
    770000   301.29294     -77776.298      23466.377     -54309.921      6.9446995      6.8994313      7.0856159      7.6529107      5.5422098      7.6116875      7.1488952      6.920372       6.187749       6.1508329      20.606235      25.046665      0.92130897     3390905.3    
    780000   302.8492      -77799.834      23587.587     -54212.246      7.0801099      6.4410749      6.2287226      8.0535856      5.9654246      7.7637261      7.1978286      7.1193734      5.9718297      5.611883       20.127846      10.670406      0.92103636     3391909      
    790000   300.21571     -77637.965      23382.477     -54255.489      6.6369323      7.2358147      6.553755       7.753441       5.8858684      7.2595891      7.2187471      6.8318215      7.7907299      5.421602       17.159422      30.979132      0.92136114     3390713.3    
    800000   302.23034     -77509.72       23539.387     -53970.333      6.6290875      6.1259832      7.0644931      9.1248191      5.6955941      6.5875626      7.7574937      6.5150883      7.2653448      6.0028781      18.252483     -7.6884157      0.91968683     3396886.2    
    810000   299.52778     -77797.219      23328.897     -54468.323      7.4573417      5.7159574      7.7462652      7.8911414      5.51277        6.2725648      7.9248432      6.6834065      6.6638066      5.8947003      18.718952     -11.771894      0.92107992     3391748.6    
    820000   301.4576      -77542.708      23479.202     -54063.506      7.5444737      5.2558269      7.690258       7.5311508      5.7895683      6.1297103      7.7217627      8.091048       7.7671412      5.6591714      21.630346      28.8861        0.92125672     3391097.6    
    830000   300.79042     -77755.162      23427.238     -54327.924      8.2904646      5.306762       7.8182876      7.0080539      6.4477287      6.0699555      7.8647915      8.0893865      6.9296895      5.568098       25.336842      43.715497      0.9218319      3388981.8    
    840000   298.91326     -77699.909      23281.034     -54418.874      8.3784875      5.455244       6.9725357      7.3260879      5.5776055      6.276845       7.0918268      7.3782804      7.0293037      5.3792465      23.758436     -36.810573      0.91991964     3396026.5    
    850000   302.44036     -77648.451      23555.745     -54092.706      6.6180503      5.4725884      7.6499209      7.3349295      5.783026       5.7215377      6.4606533      6.9501241      7.0069642      5.8128975      20.072186     -1.4525205      0.92137281     3390670.4    
    860000   299.71597     -77856.957      23343.554     -54513.403      6.9363067      5.2595773      6.5946669      6.8597386      6.7782058      6.3849346      6.2652896      6.4993164      6.7729314      5.4173466      19.171615      6.6955339      0.92118126     3391375.5    
    870000   299.83342     -77615.241      23352.701     -54262.539      6.9165555      4.9891724      7.0213583      7.2111111      6.2921379      6.5313853      6.2584568      6.1472564      6.2923559      5.6548013      17.300848     -52.431923      0.918596       3400920      
    880000   301.58241     -77647.984      23488.923     -54159.061      6.3838111      5.0389105      7.2386112      7.4410289      5.6515796      6.1056158      6.1747789      6.5578532      6.8156078      6.0884868      14.981676      11.976477      0.91931753     3398250.8    
    890000   300.83313     -77298.635      23430.564     -53868.071      6.8554913      4.9340572      6.9194035      7.3578433      5.3592643      5.8242318      5.6294937      6.8801809      6.4154994      6.0533802      17.890822      33.002755      0.92088562     3392464.2    
    900000   300.39078     -77684.408      23396.112     -54288.297      6.6453039      5.4041107      6.8579431      5.9528056      5.2206665      5.4451516      6.2161222      6.3481179      6.0728213      6.1749261      18.479327      12.574993      0.92251682     3386465.6    
    910000   299.88087     -78097.886      23356.397     -54741.489      6.758516       5.8838544      6.6280101      6.9035876      5.3752755      5.7448952      6.8375545      6.159848       6.0427922      5.5970862      16.930082     -15.618197      0.9229535      3384863.4    
    920000   298.52246     -77509.415      23250.597     -54258.818      7.2345942      5.5193769      6.6614842      5.5771182      5.5725985      6.5438541      6.7149168      6.4084463      6.2082199      5.8231915      18.500338     -6.6883334      0.92037024     3394363.9    
    930000   302.11906     -77829.479      23530.72      -54298.759      7.0284396      4.8466         7.0797073      5.9684743      5.614099       6.9822162      6.2288467      5.7324892      6.4395039      5.8390462      17.153229      24.725905      0.92297932     3384768.7    
    940000   300.3253      -77554.056      23391.012     -54163.044      8.0033832      5.4265767      6.838215       6.2295964      5.3066054      6.2187177      6.3000027      5.8482635      6.6970557      5.9541998      20.867855      4.1343023      0.92021263     3394945.2    
    950000   298.42144     -77467.397      23242.729     -54224.668      7.199316       5.1856815      5.9233551      6.0001878      5.3380663      5.9931893      6.7270838      5.0924947      6.3031426      6.8169198      18.757393      17.746259      0.92113266     3391554.4    
    960000   299.14489     -77448.718      23299.075     -54149.643      7.9858931      5.5360954      6.3991421      5.2993944      5.5316783      5.9800622      6.7476157      5.941849       5.9498247      6.4608554      22.675115      13.485416      0.92125245     3391113.4    
    970000   298.08192     -77648.091      23216.285     -54431.805      6.9169681      5.5722329      7.113647       5.3731905      4.8901072      5.7401898      6.1291347      5.9838747      6.590084       5.8300088      16.688465      29.206543      0.92124363     3391145.8    
    980000   299.77245     -77577.748      23347.953     -54229.795      6.9526758      5.8958061      7.4017232      5.5697609      5.4734615      5.0487715      6.5841709      6.170292       6.6143236      5.3673415      15.161448      21.139077      0.92122355     3391219.7    
    990000   298.66189     -77905.645      23261.456     -54644.189      5.7070608      5.6157578      6.217182       4.980405       5.1739631      5.9196689      6.8311476      5.9841951      7.022642       5.0169545      12.713688     -16.435047      0.92132503     3390846.2    
   1000000   301.86019     -77899.494      23510.558     -54388.936      6.4849863      5.0257891      7.104085       5.8944102      4.8202542      4.8497646      6.3520936      5.523048       6.930329       5.3317866      13.190367     -16.276343      0.92153771     3390063.7    
   1010000   302.54589     -77773.797      23563.964     -54209.833      6.1398415      5.1087489      6.9867063      5.4557347      5.2172359      4.7475886      5.7928509      6.0423077      6.674738       5.3769583      11.003472      18.064385      0.92009435     3395381.7    
   1020000   297.55401     -77574.465      23175.169     -54399.296      5.6083091      5.5064813      7.1817932      6.0110316      5.7771872      5.3099523      5.6870028      6.0534725      6.6213114      4.990434       10.098616     -0.64718477     0.92156418     3389966.3    
   1030000   299.03772     -77889.491      23290.728     -54598.763      6.4437714      6.1240403      6.8681029      5.4941295      5.5573972      5.5818524      5.908661       5.9607081      6.5486843      5.4255511      14.825513      17.620207      0.92213532     3387866.6    
   1040000   299.82101     -77578.882      23351.735     -54227.147      6.5343444      5.6450974      6.7794174      5.5721288      6.247941       6.3081076      5.646635       6.0157964      7.129498       5.2198913      16.976098     -6.9925593      0.9194341      3397819.9    
   1050000   299.87979     -77783.853      23356.313     -54427.54       5.8301534      6.7889346      6.9065945      6.4449574      6.6223762      6.0857947      5.0666916      6.1787255      7.1413129      5.2797129      13.025507     -13.004736      0.92097218     3392145.3    
   1060000   298.42849     -77612.493      23243.278     -54369.215      6.4372323      6.4688353      6.7115577      6.2225354      6.5081641      5.8561482      5.3987416      6.5194581      7.282493       5.1915947      19.461071      18.280748      0.92182837     3388994.7    
   1070000   302.84216     -77637.258      23587.039     -54050.219      7.4152069      6.5529031      6.6298032      6.2449734      7.2469978      5.8302769      5.8645806      5.6207405      6.1451658      5.6331716      22.068649      9.039292       0.9196689      3396952.4    
   1080000   302.09752     -77590.536      23529.042     -54061.493      7.1059655      6.5455307      7.2382212      5.8030547      7.5641476      5.9050601      5.8405744      5.669009       6.3264265      5.5085468      21.225937      24.806107      0.92190312     3388720      
   1090000   304.1074      -77672.582      23685.583     -53986.999      6.9471374      6.1398712      6.859584       6.2674653      6.342235       5.5308304      6.0087039      5.6724814      6.7614922      5.2391742      19.209443     -10.692514      0.92111414     3391622.6    
   1100000   300.70752     -77551.738      23420.781     -54130.957      6.6675875      5.7714804      6.1242644      6.314163       7.450643       6.1456716      5.6826077      5.6768956      7.5150574      5.5246394      16.982996     -13.982658      0.92023934     3394846.7    
   1110000   299.60059     -77489.95       23334.567     -54155.382      6.8866823      6.5380934      5.7806466      6.7628256      6.6204017      6.3564163      5.8340774      5.832864       6.858935       4.9517965      17.422943     -42.565087      0.91968926     3396877.2    
   1120000   298.46578     -77502.903      23246.182     -54256.721      7.2354887      6.8564724      5.8612085      6.8649415      6.3196871      6.1492989      5.7062495      6.5967791      6.5928534      6.1338688      20.44991      -21.093678      0.92012063     3395284.7    
   1130000   300.92296     -77542.227      23437.561     -54104.666      6.3017949      6.8342057      5.4230449      7.1124251      6.1191471      5.9249036      5.5040394      6.8414685      6.5384841      6.3455809      15.106615      13.554291      0.92120638     3391283      
   1140000   299.11412     -77556.227      23296.678     -54259.549      6.4636103      5.6324865      5.7994642      6.4504112      6.2456637      6.1703493      5.8406093      6.9973084      6.1296123      5.2931627      16.946221     -8.618666       0.92066178     3393289      
   1150000   298.59945     -77335.033      23256.593     -54078.44       6.3881133      5.6383807      5.9883163      6.5249175      6.2074804      6.0593778      5.4274951      6.358928       6.2993131      5.4704841      17.256082      33.442746      0.91950285     3397565.9    
   1160000   299.18938     -77589.989      23302.54      -54287.448      7.1547979      5.9366031      6.6216171      5.9157837      5.8930436      6.9038931      5.459502       6.5933152      5.8169417      5.5757469      20.9634        18.579078      0.9219899      3388401      
   1170000   301.52325     -77673.148      23484.315     -54188.833      7.3636541      6.1530538      7.6391926      5.4980609      5.9388039      6.5983845      5.3637275      6.3334315      6.2914807      5.8668863      18.958094     -31.510854      0.91909038     3399090.7    
   1180000   300.19189     -78286.518      23380.621     -54905.897      7.2135141      6.5490759      8.4667707      5.6298524      4.9937795      7.1165245      5.3176362      6.153931       6.5630439      6.182319       20.036156      29.564274      0.9241697      3380408.9    
   1190000   300.13858     -77882.02       23376.469     -54505.551      8.222861       6.1503407      7.3494488      6.0047288      5.3769687      6.8567492      5.2471253      5.7842377      6.8422898      5.7156484      21.8811       -10.561249      0.92292124     3384981.7    
   1200000   299.10507     -77833.707      23295.973     -54537.733      8.0783105      6.3257142      7.6671115      6.1106671      6.1519075      6.4036598      5.5995869      5.4558953      6.511122       5.7655712      22.213522      9.4409912      0.92118239     3391371.3    
   1210000   300.4231      -77915.621      23398.629     -54516.991      8.1620199      6.137554       7.6987169      5.3536562      5.9517346      6.1311933      6.2106995      5.6755987      5.664334       6.0159864      24.707505     -20.278011      0.92211215     3387951.8    
   1220000   300.18204     -77847.754      23379.854     -54467.9        7.432871       6.3095972      7.5420308      5.7082344      5.8628108      5.9706298      5.5778088      5.7970847      6.7521847      5.8328002      21.636697      16.505565      0.92300169     3384686.7    
   1230000   300.87387     -77955.24       23433.737     -54521.503      7.6938264      5.4558426      6.971147       5.832787       5.6143952      6.3715246      5.5143109      6.1711383      6.0018693      6.3882904      18.227887     -9.5540666      0.92181659     3389038.1    
   1240000   300.20013     -77958.257      23381.263     -54576.994      7.4940825      6.0211856      7.0137582      5.4116189      5.924953       6.6590089      6.1917573      5.6570732      5.5860461      5.8031232      20.348272     -5.6535474      0.92146707     3390323.5    
   1250000   297.33961     -77773.514      23158.469     -54615.045      7.8670119      5.3015906      6.483424       5.8127267      5.6404276      6.2398504      6.1756755      5.8658795      5.9592066      6.1543703      21.072042      26.053353      0.9224884      3386570      
   1260000   300.7572      -77618.961      23424.65      -54194.311      7.5084296      5.9294804      6.8772039      5.8466096      5.9384877      5.6795607      6.1531637      6.091713       4.9190588      6.4193282      21.407445      3.8570765      0.9199534      3395901.9    
   1270000   297.8003      -77769.762      23194.351     -54575.411      8.1943413      6.8675535      6.3097309      5.5137598      5.9520981      5.6586022      6.6944677      6.9389046      5.1021336      5.352246       22.643898      4.5145434      0.92144441     3390406.9    
   1280000   298.70664     -77986.256      23264.942     -54721.314      7.9486501      6.7991263      6.3652805      5.4255048      5.4485922      6.613257       6.7272657      6.9206486      5.1716155      5.9586417      23.761075      13.667724      0.9237697      3381872.7    
   1290000   300.97975     -77641.729      23441.984     -54199.745      7.2456885      6.6652174      6.0270312      5.6042452      5.6221629      5.8742605      6.6864325      6.811849       5.2841063      6.1284222      21.84594       22.305576      0.92184208     3388944.3    
   1300000   301.48692     -77786.801      23481.485     -54305.316      7.4759688      7.2060749      6.6802406      5.4278902      5.9785339      6.4134137      7.0111769      7.2652372      5.5873936      5.8135147      20.185289      3.9717484      0.92304705     3384520.3    
   1310000   297.49201     -77472.169      23170.34      -54301.829      6.2991063      6.8874646      7.6618724      5.4182122      5.5728158      6.5212714      7.0922948      6.626694       5.5587958      5.5518939      18.066362      8.2368934      0.92110579     3391653.3    
   1320000   300.06141     -77852.961      23370.459     -54482.503      7.0302422      6.2741351      7.9924589      5.4873339      6.1006676      6.6986866      6.7057911      7.0906696      5.7611826      5.1526648      20.29746       30.104847      0.92323906     3383816.4    
   1330000   299.60963     -77523.364      23335.272     -54188.093      7.4390659      7.5244993      7.1240498      5.7028498      5.7205046      6.0665791      6.3329259      6.7288894      5.3158902      5.1449414      21.959196     -13.752132      0.92063392     3393391.7    
   1340000   297.8486      -77791.093      23198.112     -54592.98       9.0920207      7.5822289      7.9650596      4.972256       5.4223487      5.870954       6.6715478      6.8307928      5.793727       5.9861223      28.134909     -17.448939      0.92183339     3388976.3    
   1350000   300.18534     -77833.646      23380.111     -54453.535      8.555997       7.4170054      7.3665754      5.2572051      5.5661892      6.3615255      6.2229729      7.0361956      5.8333048      5.3241345      26.283613      12.482005      0.92086423     3392543      
   1360000   300.00166     -78023.455      23365.805     -54657.65       7.5838931      6.9994969      7.8485084      5.3716696      5.6991918      6.1244964      6.486908       7.0201669      5.7555466      4.9796275      22.784872     -38.644804      0.921816       3389040.2    
   1370000   295.87689     -77787.662      23044.545     -54743.117      9.292859       6.0667178      9.160396       5.3785351      5.4018704      6.1503632      6.0250959      6.5715059      5.445039       5.0332231      27.557999     -10.04972       0.92049813     3393892.3    
   1380000   299.8684      -77936.601      23355.426     -54581.175      7.4661449      6.696222       8.6910375      5.1923796      4.9919197      6.3733941      5.5793081      6.7863727      5.7175138      5.9994264      18.429025     -0.28383972     0.92180118     3389094.7    
   1390000   299.80563     -77582.336      23350.537     -54231.798      6.990842       6.6065372      9.0178919      5.3990485      5.363705       6.15295        5.8772858      6.5454318      5.6403435      5.5701377      19.503906      22.96262       0.92241334     3386845.5    
   1400000   298.97693     -77775.157      23285.994     -54489.163      7.8686485      6.9232338      8.1104376      5.2790455      5.168943       6.1652104      5.8713964      6.1354241      5.7049112      7.0731161      22.491079     -21.611307      0.92031672     3394561.3    
   1410000   297.38895     -77832.67       23162.312     -54670.358      7.0240996      6.8664041      8.0344131      5.214364       5.772941       6.5864514      6.7297084      6.6359128      5.7580582      6.0288824      21.240713     -15.326015      0.92216671     3387751.3    
   1420000   305.22518     -77657.042      23772.642     -53884.4        7.6636516      6.3808359      7.4851086      5.7566125      6.1409394      6.2258124      5.6794275      6.6766011      5.4148951      6.6773582      22.624208     -4.7811249      0.92157478     3389927.3    
   1430000   298.72067     -77623.309      23266.034     -54357.274      7.095496       6.0687392      7.3435749      5.3211422      5.7749247      6.8095336      5.8331728      5.7555647      5.6263788      7.0649133      22.075662     -4.7423655      0.92042863     3394148.5    
   1440000   300.56924     -77675.929      23410.011     -54265.918      7.7850398      5.6006782      8.1109455      5.3665794      5.7907456      6.6179036      7.6080555      5.5658623      4.9811175      7.2454969      24.277666      28.572365      0.92173628     3389333.3    
   1450000   298.06024     -77592.916      23214.597     -54378.319      7.5835255      5.5857636      7.8081692      6.0259107      6.4417193      7.0312649      7.1244585      5.4782599      5.8228275      7.482375       23.356737      26.454648      0.9206138      3393465.8    
   1460000   301.72784     -77949.741      23500.25      -54449.491      7.8529867      6.081378       7.6412442      5.4751102      7.3684955      7.6090348      7.4570711      5.5675725      5.7561035      7.5804737      25.441361      25.810323      0.92282019     3385352.4    
   1470000   301.10359     -77555.518      23451.629     -54103.889      6.8995528      6.010115       8.272859       6.0779372      7.0014337      7.9996393      7.4256402      5.7675645      5.9688593      7.0146866      18.80825       16.047836      0.92075943     3392929.2    
   1480000   299.39232     -77907.994      23318.346     -54589.648      6.8410124      5.6841762      7.9795529      5.4844948      7.0423202      7.0821037      7.0810361      6.5153229      6.751071       7.1107132      16.403114      31.048157      0.92438481     3379622.3    
   1490000   303.0821      -77697.713      23605.727     -54091.986      6.9731424      5.9548442      7.8877267      5.6682413      6.4588416      7.2140367      6.9065716      6.2965098      5.8173893      7.2163587      19.998322     -36.669777      0.91991819     3396031.9    
   1500000   300.13806     -77290.88       23376.429     -53914.451      6.7982192      7.1403621      7.6354835      5.2940628      6.9100646      7.4074112      6.8441132      5.7865036      6.0246972      7.5228299      17.939432     -38.134153      0.91924498     3398519      
   1500854   297.82402     -77542.187      23196.198     -54345.989      6.4876518      7.2346374      7.5315625      5.7033424      7.1999474      7.2180795      6.7627454      5.8441974      6.0995268      7.3214272      17.321389      19.438584      0.92291748     3384995.5    
Loop time of 947.298 on 16 procs for 1000000 steps with 26130 atoms

Performance: 91.207 ns/day, 0.263 hours/ns, 1055.634 timesteps/s, 27.584 Matom-step/s
98.6% CPU use with 16 MPI tasks x no OpenMP threads

MPI task timing breakdown:
Section |  min time  |  avg time  |  max time  |%varavg| %total
---------------------------------------------------------------
Pair    | 459.75     | 464.85     | 470.94     |  18.4 | 49.07
Bond    | 134.63     | 135.87     | 137.28     |   6.2 | 14.34
Neigh   | 46.27      | 46.387     | 46.448     |   0.7 |  4.90
Comm    | 203.55     | 210.98     | 217.33     |  30.4 | 22.27
Output  | 1.827      | 2.352      | 2.8912     |  21.2 |  0.25
Modify  | 72.567     | 73.35      | 73.993     |   5.3 |  7.74
Other   |            | 13.51      |            |       |  1.43

Nlocal:        1633.12 ave        1649 max        1623 min
Histogram: 1 5 2 1 1 2 2 1 0 1
Nghost:         3372.5 ave        3390 max        3340 min
Histogram: 1 0 0 0 0 4 5 2 2 2
Neighs:        53912.1 ave       54705 max       52638 min
Histogram: 1 0 1 1 0 1 7 3 0 2

Total # of neighbors = 862594
Ave neighs/atom = 33.011634
Ave special neighs/atom = 4.8
Neighbor list builds = 18637
Dangerous builds = 0
unfix           equil
# -----------------------------------------------------
# 6. 数据输出
# -----------------------------------------------------


# # 写出最终体系数据文件
# write_data      pdms_out.data
Total wall time: 0:23:41
