LAMMPS (29 Aug 2024)
package gpu 1
# LAMMPS输入文件示例：使用Martini 3粗粒化力场计算PDMS的均方回转半径
# -----------------------------------------------------
# 1. 初始化设置
# -----------------------------------------------------
units               real
dimension           3
boundary            p p p
atom_style          full

# 读取包含PDMS分子结构的data文件
read_data           martini_water_box.data
Reading data file ...
  orthogonal box = (0 0 0) to (131.2 131.2 131.2)
  1 by 1 by 1 MPI processor grid
  reading atoms ...
  18928 atoms
Finding 1-2 1-3 1-4 neighbors ...
  special bond factors lj:    0        0        0       
  special bond factors coul:  0        0        0       
     0 = max # of 1-2 neighbors
     0 = max # of 1-3 neighbors
     0 = max # of 1-4 neighbors
     1 = max # of special neighbors
  special bonds CPU = 0.003 seconds
  read_data CPU = 0.031 seconds

# -----------------------------------------------------
# 2. 力场参数设置（Martini 3参数）
# -----------------------------------------------------
# 定义非键相互作用（示例：Lennard-Jones势，截断距离可参考Martini 3常用取值）
# pair_style          lj/spica   12.0
# pair_coeff          1 1 lj12_4 0.8917 4.37
pair_style          lj/cut   12.0
pair_modify         shift yes
pair_coeff          1 1 1.1071 4.7
# pair_coeff          1 2 0.8929 4.7
# pair_coeff          1 3 0.8095 4.1
# pair_coeff          2 2 0.7619 4.1
# pair_coeff          2 3 0.7024 3.8
# pair_coeff          3 3 0.6667 3.5
# # 定义键、角、二面角势（示例参数，实际参数请参考相关文献）
# bond_style          harmonic
# bond_coeff          1 13.243 4.48
# angle_style         harmonic
# angle_coeff         1 5.48 86.0
# dihedral_style      harmonic
# dihedral_coeff      1 0.3346  1  1
# -----------------------------------------------------
# 3. 邻域列表设置
# -----------------------------------------------------
neigh_modify    one 2000
neighbor        1 bin
neigh_modify    delay 0 every 1 check yes

# -----------------------------------------------------
# 4. 能量最小化与预平衡
# -----------------------------------------------------
minimize        1.0e-4 1.0e-6 1000 10000

CITE-CITE-CITE-CITE-CITE-CITE-CITE-CITE-CITE-CITE-CITE-CITE-CITE

Your simulation uses code contributions which should be cited:

- GPU package (short-range, long-range and three-body potentials): doi:10.1016/j.cpc.2010.12.021, doi:10.1016/j.cpc.2011.10.012, doi:10.1016/j.cpc.2013.08.002, doi:10.1016/j.commatsci.2014.10.068, doi:10.1016/j.cpc.2016.10.020, doi:10.3233/APC200086

@Article{Brown11,
 author = {W. M. Brown and P. Wang and S. J. Plimpton and A. N. Tharrington},
 title = {Implementing Molecular Dynamics on Hybrid High Performance Computers---Short Range Forces},
 journal = {Comput.\ Phys.\ Commun.},
 year =    2011,
 volume =  182,
 pages =   {898--911},
 doi =     {10.1016/j.cpc.2010.12.021}
}

@Article{Brown12,
 author = {W. M. Brown and A. Kohlmeyer and S. J. Plimpton and A. N. Tharrington},
 title = {Implementing Molecular Dynamics on Hybrid High Performance Computers - Particle-Particle Particle-Mesh},
 journal = {Comput.\ Phys.\ Commun.},
 year =    2012,
 volume =  183,
 doi =     {10.1016/j.cpc.2011.10.012},
 pages =   {449--459}
}

@Article{Brown13,
 author = {W. M. Brown and Y. Masako},
 title = {Implementing Molecular Dynamics on Hybrid High Performance Computers---Three-Body Potentials},
 journal = {Comput.\ Phys.\ Commun.},
 year =    2013,
 volume =  184,
 pages =   {2785--2793},
 doi =     {10.1016/j.cpc.2013.08.002},
}

@Article{Trung15,
 author = {T. D. Nguyen and S. J. Plimpton},
 title = {Accelerating Dissipative Particle Dynamics Simulations for Soft Matter Systems},
 journal = {Comput.\ Mater.\ Sci.},
 year =    2015,
 doi =     {10.1016/j.commatsci.2014.10.068},
 volume =  100,
 pages =   {173--180}
}

@Article{Trung17,
 author = {T. D. Nguyen},
 title = {{GPU}-Accelerated {T}ersoff Potentials for Massively Parallel
    Molecular Dynamics Simulations},
 journal = {Comput.\ Phys.\ Commun.},
 year =    2017,
 doi =     {10.1016/j.cpc.2016.10.020},
 volume =  212,
 pages =   {113--122}
}

@inproceedings{Nikolskiy19,
 author = {V. Nikolskiy and V. Stegailov},
 title = {{GPU} Acceleration of Four-Site Water Models in {LAMMPS}},
 booktitle = {Proceedings of the International Conference on Parallel
    Computing (ParCo 2019), Prague, Czech Republic},
 doi =     {10.3233/APC200086},
 year =    2019
}

- Type Label Framework: https://doi.org/10.1021/acs.jpcb.3c08419

@Article{Gissinger24,
 author = {Jacob R. Gissinger, Ilia Nikiforov, Yaser Afshar, Brendon Waters, Moon-ki Choi, Daniel S. Karls, Alexander Stukowski, Wonpil Im, Hendrik Heinz, Axel Kohlmeyer, and Ellad B. Tadmor},
 title = {Type Label Framework for Bonded Force Fields in LAMMPS},
 journal = {J. Phys. Chem. B},
 year =    2024,
 volume =  128,
 number =  13,
 pages =   {3282–-3297}
}

CITE-CITE-CITE-CITE-CITE-CITE-CITE-CITE-CITE-CITE-CITE-CITE-CITE

Generated 0 of 0 mixed pair_coeff terms from geometric mixing rule
Per MPI rank memory allocation (min/avg/max) = 14.13 | 14.13 | 14.13 Mbytes
   Step          Temp          E_pair         E_mol          TotEng         Press     
         0   0              63405377       0              63405377       7812084.3    
       243   0             -130629.13      0             -130629.13     -2111.3395    
Loop time of 0.147098 on 1 procs for 243 steps with 18928 atoms

99.9% CPU use with 1 MPI tasks x no OpenMP threads

Minimization stats:
  Stopping criterion = energy tolerance
  Energy initial, next-to-last, final = 
      63405377.2840038  -130616.120784838  -130629.130880474
  Force two-norm initial, final = 8698639.7 20.005229
  Force max component initial, final = 1872773.3 1.2035389
  Final line search alpha, max atom move = 0.024930079 0.03000432
  Iterations, force evaluations = 243 243

MPI task timing breakdown:
Section |  min time  |  avg time  |  max time  |%varavg| %total
---------------------------------------------------------------
Pair    | 0.067857   | 0.067857   | 0.067857   |   0.0 | 46.13
Bond    | 1.3012e-05 | 1.3012e-05 | 1.3012e-05 |   0.0 |  0.01
Neigh   | 0.0012703  | 0.0012703  | 0.0012703  |   0.0 |  0.86
Comm    | 0.025081   | 0.025081   | 0.025081   |   0.0 | 17.05
Output  | 0          | 0          | 0          |   0.0 |  0.00
Modify  | 1.6089e-05 | 1.6089e-05 | 1.6089e-05 |   0.0 |  0.01
Other   |            | 0.05286    |            |       | 35.94

Nlocal:          18928 ave       18928 max       18928 min
Histogram: 1 0 0 0 0 0 0 0 0 0
Nghost:          13346 ave       13346 max       13346 min
Histogram: 1 0 0 0 0 0 0 0 0 0
Neighs:              0 ave           0 max           0 min
Histogram: 1 0 0 0 0 0 0 0 0 0

Total # of neighbors = 0
Ave neighs/atom = 0
Ave special neighs/atom = 0
Neighbor list builds = 35
Dangerous builds = 0
fix             1 all npt temp 300.0 300.0 100.0 iso 1.0 1.0 1000
timestep        1
thermo_style    custom step temp press density vol
thermo          1000
run             10000
Generated 0 of 0 mixed pair_coeff terms from geometric mixing rule
Per MPI rank memory allocation (min/avg/max) = 12.4 | 12.4 | 12.4 Mbytes
   Step          Temp          Press         Density         Volume    
       243   0             -2111.3395      1.0020394      2258403.3    
      1000   79.167206      25.36649       1.1002222      2056865.4    
      2000   298.41286      179.19111      1.0312072      2194524      
      3000   299.98986      15.273959      0.99224437     2280697.3    
      4000   299.39473      1.2130394      0.99106678     2283407.2    
      5000   299.80007     -6.040768       0.99559711     2273016.9    
      6000   296.78478      35.000036      0.99695798     2269914.1    
      7000   298.15575      7.3100023      0.99938286     2264406.5    
      8000   299.24213     -1.2488941      0.99647687     2271010.1    
      9000   300.02573      20.588485      0.99773164     2268154      
     10000   301.87506     -36.634979      0.99896464     2265354.5    
     10243   299.43769      21.282771      1.0012892      2260095.3    
Loop time of 5.12075 on 1 procs for 10000 steps with 18928 atoms

Performance: 168.725 ns/day, 0.142 hours/ns, 1952.839 timesteps/s, 36.963 Matom-step/s
92.6% CPU use with 1 MPI tasks x no OpenMP threads

MPI task timing breakdown:
Section |  min time  |  avg time  |  max time  |%varavg| %total
---------------------------------------------------------------
Pair    | 2.3577     | 2.3577     | 2.3577     |   0.0 | 46.04
Bond    | 0.00060348 | 0.00060348 | 0.00060348 |   0.0 |  0.01
Neigh   | 0.007344   | 0.007344   | 0.007344   |   0.0 |  0.14
Comm    | 0.67413    | 0.67413    | 0.67413    |   0.0 | 13.16
Output  | 0.0012065  | 0.0012065  | 0.0012065  |   0.0 |  0.02
Modify  | 1.8575     | 1.8575     | 1.8575     |   0.0 | 36.27
Other   |            | 0.2223     |            |       |  4.34

Nlocal:          18928 ave       18928 max       18928 min
Histogram: 1 0 0 0 0 0 0 0 0 0
Nghost:          13568 ave       13568 max       13568 min
Histogram: 1 0 0 0 0 0 0 0 0 0
Neighs:              0 ave           0 max           0 min
Histogram: 1 0 0 0 0 0 0 0 0 0

Total # of neighbors = 0
Ave neighs/atom = 0
Ave special neighs/atom = 0
Neighbor list builds = 200
Dangerous builds = 0
unfix           1
fix             2 all nvt temp 300.0 300.0 100.0
dump            traj all custom 1000 dump.water.lammpstrj id type xu yu zu
compute         msd_all all msd
fix             msdout all ave/time 100 10 1000 c_msd_all[*] file msd_water.txt
run             500000
Generated 0 of 0 mixed pair_coeff terms from geometric mixing rule
Per MPI rank memory allocation (min/avg/max) = 18.71 | 18.71 | 18.71 Mbytes
   Step          Temp          Press         Density         Volume    
     10243   299.43769      21.28276       1.0012892      2260095.3    
     11000   297.93352      6.9217263      1.0012892      2260095.3    
     12000   300.18715      29.110258      1.0012892      2260095.3    
     13000   299.85112     -8.1065546      1.0012892      2260095.3    
     14000   302.61298      13.19126       1.0012892      2260095.3    
     15000   299.68507     -11.606007      1.0012892      2260095.3    
     16000   303.02749      22.97896       1.0012892      2260095.3    
     17000   301.24578      15.909656      1.0012892      2260095.3    
     18000   299.2558      -3.5880047      1.0012892      2260095.3    
     19000   301.93538      35.380901      1.0012892      2260095.3    
     20000   298.13411      3.9350519      1.0012892      2260095.3    
     21000   302.55307     -10.505038      1.0012892      2260095.3    
     22000   301.08984      16.763936      1.0012892      2260095.3    
     23000   298.45886      3.4195044      1.0012892      2260095.3    
     24000   296.95782      17.028631      1.0012892      2260095.3    
     25000   302.90848      7.7500731      1.0012892      2260095.3    
     26000   297.87023      13.38197       1.0012892      2260095.3    
     27000   302.14772      8.0344234      1.0012892      2260095.3    
     28000   301.99182      32.969724      1.0012892      2260095.3    
     29000   300.31365      18.786589      1.0012892      2260095.3    
     30000   299.23002      7.7832154      1.0012892      2260095.3    
     31000   300.69367     -0.31658326     1.0012892      2260095.3    
     32000   298.38505      25.961295      1.0012892      2260095.3    
     33000   297.15726     -6.2436313      1.0012892      2260095.3    
     34000   300.50272      21.437291      1.0012892      2260095.3    
     35000   299.06761     -13.50665       1.0012892      2260095.3    
     36000   302.16262      22.317252      1.0012892      2260095.3    
     37000   298.49045     -12.430846      1.0012892      2260095.3    
     38000   301.35374     -1.5720105      1.0012892      2260095.3    
     39000   298.62302     -7.5780424      1.0012892      2260095.3    
     40000   299.35715      22.026495      1.0012892      2260095.3    
     41000   300.4795      -27.451544      1.0012892      2260095.3    
     42000   301.10285     -13.821154      1.0012892      2260095.3    
     43000   298.32188      4.9421882      1.0012892      2260095.3    
     44000   302.07714      2.8955328      1.0012892      2260095.3    
     45000   300.02857      21.587244      1.0012892      2260095.3    
     46000   301.53326      16.276311      1.0012892      2260095.3    
     47000   300.01969      3.5374308      1.0012892      2260095.3    
     48000   298.80125     -7.7116442      1.0012892      2260095.3    
     49000   300.11687      9.7332134      1.0012892      2260095.3    
     50000   301.00384     -5.7594817      1.0012892      2260095.3    
     51000   296.5351       1.2425464      1.0012892      2260095.3    
     52000   297.78743     -9.3631884      1.0012892      2260095.3    
     53000   300.69991     -4.6610487      1.0012892      2260095.3    
     54000   300.76871      17.420323      1.0012892      2260095.3    
     55000   299.10238      30.715932      1.0012892      2260095.3    
     56000   298.85537     -31.648815      1.0012892      2260095.3    
     57000   300.36504     -0.78594166     1.0012892      2260095.3    
     58000   299.35312     -16.215311      1.0012892      2260095.3    
     59000   298.27928     -14.457593      1.0012892      2260095.3    
     60000   297.27649      14.106191      1.0012892      2260095.3    
     61000   300.152        0.58501075     1.0012892      2260095.3    
     62000   300.64189      32.702001      1.0012892      2260095.3    
     63000   301.69301     -2.8990603      1.0012892      2260095.3    
     64000   300.54577     -45.701053      1.0012892      2260095.3    
     65000   297.14143      28.759472      1.0012892      2260095.3    
     66000   300.82592      3.4598774      1.0012892      2260095.3    
     67000   300.47286      25.953204      1.0012892      2260095.3    
     68000   300.30402     -5.1676762      1.0012892      2260095.3    
     69000   300.36582     -1.7997601      1.0012892      2260095.3    
     70000   299.41621      13.490516      1.0012892      2260095.3    
     71000   299.58377      1.0622607      1.0012892      2260095.3    
     72000   297.14926      3.4473737      1.0012892      2260095.3    
     73000   300.38077      12.194872      1.0012892      2260095.3    
     74000   299.32244     -0.95646995     1.0012892      2260095.3    
     75000   298.92575     -15.60558       1.0012892      2260095.3    
     76000   297.67768      3.4324129      1.0012892      2260095.3    
     77000   300.27323      33.179533      1.0012892      2260095.3    
     78000   298.56006      1.6902094      1.0012892      2260095.3    
     79000   300.2842       0.97763876     1.0012892      2260095.3    
     80000   301.16525      10.453688      1.0012892      2260095.3    
     81000   297.85992     -10.312947      1.0012892      2260095.3    
     82000   298.35651      22.900424      1.0012892      2260095.3    
     83000   300.22705      21.049455      1.0012892      2260095.3    
     84000   300.78513      4.3176614      1.0012892      2260095.3    
     85000   301.61115      1.7365807      1.0012892      2260095.3    
     86000   300.04094      6.7491033      1.0012892      2260095.3    
     87000   303.07972      7.5556679      1.0012892      2260095.3    
     88000   298.68007      24.019701      1.0012892      2260095.3    
     89000   299.22791      8.365065       1.0012892      2260095.3    
     90000   296.14759     -6.1783245      1.0012892      2260095.3    
     91000   300.79539     -3.0923007      1.0012892      2260095.3    
     92000   298.42755      9.2447871      1.0012892      2260095.3    
     93000   299.29422      15.050996      1.0012892      2260095.3    
     94000   299.52676      16.471935      1.0012892      2260095.3    
     95000   298.80532     -0.77004967     1.0012892      2260095.3    
     96000   299.22688      36.579455      1.0012892      2260095.3    
     97000   300.17524      30.68312       1.0012892      2260095.3    
     98000   297.07487      0.99430049     1.0012892      2260095.3    
     99000   300.01341      14.92073       1.0012892      2260095.3    
    100000   298.12235      6.8832507      1.0012892      2260095.3    
    101000   297.30398     -6.3223786      1.0012892      2260095.3    
    102000   296.82871      7.487821       1.0012892      2260095.3    
    103000   299.41721      1.19353        1.0012892      2260095.3    
    104000   299.11294     -4.1019143      1.0012892      2260095.3    
    105000   303.07426      36.203514      1.0012892      2260095.3    
    106000   301.99426      50.880345      1.0012892      2260095.3    
    107000   302.64214      4.5056405      1.0012892      2260095.3    
    108000   299.48426     -0.9870929      1.0012892      2260095.3    
    109000   299.67903      1.5841563      1.0012892      2260095.3    
    110000   299.92833      2.7661616      1.0012892      2260095.3    
    111000   299.9971       14.006445      1.0012892      2260095.3    
    112000   298.06559      5.8514989      1.0012892      2260095.3    
    113000   300.08056      15.359175      1.0012892      2260095.3    
    114000   301.07785      9.9150222      1.0012892      2260095.3    
    115000   300.67344      21.796313      1.0012892      2260095.3    
    116000   300.0149       15.970802      1.0012892      2260095.3    
    117000   299.23126      7.6808539      1.0012892      2260095.3    
    118000   298.17826      0.9444762      1.0012892      2260095.3    
    119000   300.49867      42.829984      1.0012892      2260095.3    
    120000   298.70555      56.582526      1.0012892      2260095.3    
    121000   299.69627     -13.387686      1.0012892      2260095.3    
    122000   299.33625      30.165005      1.0012892      2260095.3    
    123000   299.41162      36.878977      1.0012892      2260095.3    
    124000   298.95778      29.015015      1.0012892      2260095.3    
    125000   299.65441      9.7004296      1.0012892      2260095.3    
    126000   300.53457      2.0496176      1.0012892      2260095.3    
    127000   298.52399      13.003001      1.0012892      2260095.3    
    128000   295.98243      2.3070876      1.0012892      2260095.3    
    129000   299.84873      20.28756       1.0012892      2260095.3    
    130000   298.41301      23.781416      1.0012892      2260095.3    
    131000   300.18947     -25.153697      1.0012892      2260095.3    
    132000   301.86812     -2.6964011      1.0012892      2260095.3    
    133000   300.24301      9.2917522      1.0012892      2260095.3    
    134000   304.89711     -4.2424062      1.0012892      2260095.3    
    135000   302.5114       34.957392      1.0012892      2260095.3    
    136000   298.04978      10.451698      1.0012892      2260095.3    
    137000   300.58783      5.5080938      1.0012892      2260095.3    
    138000   299.36387     -6.8725163      1.0012892      2260095.3    
    139000   299.49216      34.969294      1.0012892      2260095.3    
    140000   300.48354     -2.701992       1.0012892      2260095.3    
    141000   300.47607      29.535543      1.0012892      2260095.3    
    142000   297.57679      14.808508      1.0012892      2260095.3    
    143000   301.22548      3.5652875      1.0012892      2260095.3    
    144000   296.44406      20.842374      1.0012892      2260095.3    
    145000   301.21125      31.755923      1.0012892      2260095.3    
    146000   302.60419      1.9025498      1.0012892      2260095.3    
    147000   299.91487      23.395391      1.0012892      2260095.3    
    148000   296.36435      30.008402      1.0012892      2260095.3    
    149000   300.20061      15.860023      1.0012892      2260095.3    
    150000   299.29791     -0.72876096     1.0012892      2260095.3    
    151000   298.83103      19.22175       1.0012892      2260095.3    
    152000   297.82183     -0.76843709     1.0012892      2260095.3    
    153000   297.73009      19.80415       1.0012892      2260095.3    
    154000   301.05845      6.7243109      1.0012892      2260095.3    
    155000   300.4352       32.489574      1.0012892      2260095.3    
    156000   301.1099       34.425401      1.0012892      2260095.3    
    157000   297.45164      25.780082      1.0012892      2260095.3    
    158000   297.75547      4.9717578      1.0012892      2260095.3    
    159000   299.36689      1.2247594      1.0012892      2260095.3    
    160000   297.14406      18.397992      1.0012892      2260095.3    
    161000   299.56241     -7.9128286      1.0012892      2260095.3    
    162000   301.13926      30.575709      1.0012892      2260095.3    
    163000   298.08529      27.741229      1.0012892      2260095.3    
    164000   301.15881      7.7966778      1.0012892      2260095.3    
    165000   301.73003     -10.191292      1.0012892      2260095.3    
    166000   294.23976      3.6601118      1.0012892      2260095.3    
    167000   298.69222     -8.4191253      1.0012892      2260095.3    
    168000   299.9763       21.023857      1.0012892      2260095.3    
    169000   300.45272     -0.80556918     1.0012892      2260095.3    
    170000   300.23193      2.5752645      1.0012892      2260095.3    
    171000   301.73747     -13.298813      1.0012892      2260095.3    
    172000   301.01973      1.7094631      1.0012892      2260095.3    
    173000   302.2066      -15.953153      1.0012892      2260095.3    
    174000   299.29325      15.084469      1.0012892      2260095.3    
    175000   302.82408      22.385056      1.0012892      2260095.3    
    176000   297.73273      21.33682       1.0012892      2260095.3    
    177000   300.79038      14.914646      1.0012892      2260095.3    
    178000   297.845        11.510893      1.0012892      2260095.3    
    179000   302.01092      14.874566      1.0012892      2260095.3    
    180000   302.70335      21.307808      1.0012892      2260095.3    
    181000   301.48532      13.677606      1.0012892      2260095.3    
    182000   299.49309      46.161073      1.0012892      2260095.3    
    183000   298.40974      18.868788      1.0012892      2260095.3    
    184000   299.83438     -11.117368      1.0012892      2260095.3    
    185000   303.14759      37.42814       1.0012892      2260095.3    
    186000   297.07916      17.245792      1.0012892      2260095.3    
    187000   295.81573      16.934138      1.0012892      2260095.3    
    188000   299.36968      28.382447      1.0012892      2260095.3    
    189000   300.47847     -7.440334       1.0012892      2260095.3    
    190000   299.46102      5.0015705      1.0012892      2260095.3    
    191000   301.20641      0.68839317     1.0012892      2260095.3    
    192000   301.97955      12.878366      1.0012892      2260095.3    
    193000   298.55564     -2.7304071      1.0012892      2260095.3    
    194000   298.38673     -12.670866      1.0012892      2260095.3    
    195000   298.72886     -2.276962       1.0012892      2260095.3    
    196000   299.03488      8.3568555      1.0012892      2260095.3    
    197000   299.13798      1.3386614      1.0012892      2260095.3    
    198000   300.54204      4.3127391      1.0012892      2260095.3    
    199000   296.62627      21.384797      1.0012892      2260095.3    
    200000   302.54246      2.7413713      1.0012892      2260095.3    
    201000   299.05742      21.727764      1.0012892      2260095.3    
    202000   300.29375      35.961376      1.0012892      2260095.3    
    203000   299.87299      27.926203      1.0012892      2260095.3    
    204000   299.07938     -1.3598748      1.0012892      2260095.3    
    205000   302.30547     -2.82749        1.0012892      2260095.3    
    206000   298.25616      12.596242      1.0012892      2260095.3    
    207000   299.83895      7.7333664      1.0012892      2260095.3    
    208000   298.02438      15.536685      1.0012892      2260095.3    
    209000   302.47341      22.299772      1.0012892      2260095.3    
    210000   302.40615      15.509732      1.0012892      2260095.3    
    211000   299.67325      1.3415579      1.0012892      2260095.3    
    212000   298.97932      23.817886      1.0012892      2260095.3    
    213000   297.45788     -7.8311498      1.0012892      2260095.3    
    214000   298.74051      13.327704      1.0012892      2260095.3    
    215000   301.97754      13.08911       1.0012892      2260095.3    
    216000   301.76396      20.830503      1.0012892      2260095.3    
    217000   298.41137      32.747929      1.0012892      2260095.3    
    218000   299.50896     -6.6304681      1.0012892      2260095.3    
    219000   296.07523      26.755885      1.0012892      2260095.3    
    220000   299.52297     -15.355037      1.0012892      2260095.3    
    221000   301.96701      23.165421      1.0012892      2260095.3    
    222000   301.61434      28.489791      1.0012892      2260095.3    
    223000   300.40307      3.0692415      1.0012892      2260095.3    
    224000   297.44547     -5.4352628      1.0012892      2260095.3    
    225000   299.04271      7.9621376      1.0012892      2260095.3    
    226000   298.81019      7.17063        1.0012892      2260095.3    
    227000   300.57057     -15.050967      1.0012892      2260095.3    
    228000   303.53952      12.819657      1.0012892      2260095.3    
    229000   303.24764     -1.2748414      1.0012892      2260095.3    
    230000   299.47175      28.134888      1.0012892      2260095.3    
    231000   297.3849      -1.95185        1.0012892      2260095.3    
    232000   299.89693      18.32396       1.0012892      2260095.3    
    233000   299.86439     -11.292853      1.0012892      2260095.3    
    234000   300.47102      24.516543      1.0012892      2260095.3    
    235000   299.49679     -15.739675      1.0012892      2260095.3    
    236000   297.90827     -1.690795       1.0012892      2260095.3    
    237000   300.43177     -21.919529      1.0012892      2260095.3    
    238000   299.41654      26.135464      1.0012892      2260095.3    
    239000   301.79634      11.434309      1.0012892      2260095.3    
    240000   301.68766     -11.961663      1.0012892      2260095.3    
    241000   298.84943      27.851296      1.0012892      2260095.3    
    242000   294.94987      4.3533815      1.0012892      2260095.3    
    243000   302.31942     -0.80121166     1.0012892      2260095.3    
    244000   301.55089      22.236824      1.0012892      2260095.3    
    245000   303.37481      13.541057      1.0012892      2260095.3    
    246000   300.31785     -21.872182      1.0012892      2260095.3    
    247000   298.51133     -27.732456      1.0012892      2260095.3    
    248000   301.269       -10.383429      1.0012892      2260095.3    
    249000   299.73736      3.8618445      1.0012892      2260095.3    
    250000   300.05645     -2.7004527      1.0012892      2260095.3    
    251000   301.97201      44.561182      1.0012892      2260095.3    
    252000   298.60644     -9.1952183      1.0012892      2260095.3    
    253000   299.93851      52.469726      1.0012892      2260095.3    
    254000   297.80413      17.995513      1.0012892      2260095.3    
    255000   298.10865      4.3542364      1.0012892      2260095.3    
    256000   299.27157     -20.96199       1.0012892      2260095.3    
    257000   299.85351      33.604935      1.0012892      2260095.3    
    258000   300.95192      28.298844      1.0012892      2260095.3    
    259000   298.13853      24.634048      1.0012892      2260095.3    
    260000   300.35682      21.608073      1.0012892      2260095.3    
    261000   300.89159      26.801156      1.0012892      2260095.3    
    262000   301.97411     -4.9679553      1.0012892      2260095.3    
    263000   300.59411      30.796371      1.0012892      2260095.3    
    264000   300.13813     -6.4509072      1.0012892      2260095.3    
    265000   298.9906       14.837684      1.0012892      2260095.3    
    266000   301.68309     -19.35277       1.0012892      2260095.3    
    267000   297.71376     -33.843046      1.0012892      2260095.3    
    268000   297.62835      3.9402708      1.0012892      2260095.3    
    269000   301.43493      30.516504      1.0012892      2260095.3    
    270000   299.03018      23.09915       1.0012892      2260095.3    
    271000   301.32607      12.23884       1.0012892      2260095.3    
    272000   300.07768      21.815664      1.0012892      2260095.3    
    273000   298.19325     -41.307051      1.0012892      2260095.3    
    274000   298.89388     -13.455419      1.0012892      2260095.3    
    275000   300.64399     -8.8580561      1.0012892      2260095.3    
    276000   302.49008      0.76705541     1.0012892      2260095.3    
    277000   300.4698       16.815866      1.0012892      2260095.3    
    278000   299.34727      22.144671      1.0012892      2260095.3    
    279000   301.00948      13.150197      1.0012892      2260095.3    
    280000   300.31896      13.918353      1.0012892      2260095.3    
    281000   297.92537      14.527561      1.0012892      2260095.3    
    282000   299.36117      39.159721      1.0012892      2260095.3    
    283000   301.34508     -4.3092587      1.0012892      2260095.3    
    284000   299.44186     -0.37661543     1.0012892      2260095.3    
    285000   303.05141     -15.058641      1.0012892      2260095.3    
    286000   301.07532      9.2499847      1.0012892      2260095.3    
    287000   303.69759      30.517452      1.0012892      2260095.3    
    288000   297.38469     -15.416877      1.0012892      2260095.3    
    289000   296.53274     -7.8866789      1.0012892      2260095.3    
    290000   299.20931     -1.2587148      1.0012892      2260095.3    
    291000   298.93524      16.849125      1.0012892      2260095.3    
    292000   301.90768     -12.609256      1.0012892      2260095.3    
    293000   304.14223     -23.91536       1.0012892      2260095.3    
    294000   299.24372      11.389474      1.0012892      2260095.3    
    295000   298.01909      6.4554541      1.0012892      2260095.3    
    296000   300.11646      8.5278103      1.0012892      2260095.3    
    297000   298.57125     -10.113545      1.0012892      2260095.3    
    298000   301.96758      5.4133702      1.0012892      2260095.3    
    299000   299.81956     -6.5423493      1.0012892      2260095.3    
    300000   300.14473      20.362551      1.0012892      2260095.3    
    301000   298.02579     -7.2618958      1.0012892      2260095.3    
    302000   297.15388      6.2379291      1.0012892      2260095.3    
    303000   299.39533      7.434986       1.0012892      2260095.3    
    304000   300.71115      34.578172      1.0012892      2260095.3    
    305000   300.66635     -30.318974      1.0012892      2260095.3    
    306000   299.55719     -19.177308      1.0012892      2260095.3    
    307000   299.38424      9.1303428      1.0012892      2260095.3    
    308000   296.85853      16.449536      1.0012892      2260095.3    
    309000   302.44908      17.063105      1.0012892      2260095.3    
    310000   298.27459     -13.751219      1.0012892      2260095.3    
    311000   302.37186      0.61158229     1.0012892      2260095.3    
    312000   296.86614     -12.671382      1.0012892      2260095.3    
    313000   298.97481      14.183266      1.0012892      2260095.3    
    314000   298.46435      25.901593      1.0012892      2260095.3    
    315000   297.24178     -15.163904      1.0012892      2260095.3    
    316000   302.77371      3.4265298      1.0012892      2260095.3    
    317000   300.72345      18.355846      1.0012892      2260095.3    
    318000   300.54331      2.0522577      1.0012892      2260095.3    
    319000   299.20475      0.22344934     1.0012892      2260095.3    
    320000   298.82335      8.3520366      1.0012892      2260095.3    
    321000   298.22311      0.79609128     1.0012892      2260095.3    
    322000   299.15796      4.2771156      1.0012892      2260095.3    
    323000   302.59723      21.369655      1.0012892      2260095.3    
    324000   304.14482      6.5785432      1.0012892      2260095.3    
    325000   299.61748      7.7996696      1.0012892      2260095.3    
    326000   298.62677     -19.06898       1.0012892      2260095.3    
    327000   298.58053     -25.944003      1.0012892      2260095.3    
    328000   301.96306     -4.1705665      1.0012892      2260095.3    
    329000   298.77977      13.51436       1.0012892      2260095.3    
    330000   298.60021      17.086056      1.0012892      2260095.3    
    331000   298.9209       16.243462      1.0012892      2260095.3    
    332000   300.21617     -8.3991651      1.0012892      2260095.3    
    333000   298.79832      19.09712       1.0012892      2260095.3    
    334000   298.18483      2.1478521      1.0012892      2260095.3    
    335000   298.84605      8.5794999      1.0012892      2260095.3    
    336000   298.0722      -0.68367553     1.0012892      2260095.3    
    337000   296.96685      9.5929937      1.0012892      2260095.3    
    338000   299.2381      -2.4159879      1.0012892      2260095.3    
    339000   302.32929     -5.6732638      1.0012892      2260095.3    
    340000   299.07595      23.583172      1.0012892      2260095.3    
    341000   297.58317     -10.389843      1.0012892      2260095.3    
    342000   297.43517      3.6088665      1.0012892      2260095.3    
    343000   296.93403      9.0740634      1.0012892      2260095.3    
    344000   297.49333     -1.0201748      1.0012892      2260095.3    
    345000   303.33154     -7.2157489      1.0012892      2260095.3    
    346000   300.30335      0.87487362     1.0012892      2260095.3    
    347000   301.03546      26.504762      1.0012892      2260095.3    
    348000   298.12987     -2.0048202      1.0012892      2260095.3    
    349000   298.71835     -1.4705281      1.0012892      2260095.3    
    350000   299.61776      26.353397      1.0012892      2260095.3    
    351000   299.85576      12.859454      1.0012892      2260095.3    
    352000   300.21944      5.6537324      1.0012892      2260095.3    
    353000   298.15408     -12.456763      1.0012892      2260095.3    
    354000   301.815        23.754625      1.0012892      2260095.3    
    355000   301.988        7.9875945      1.0012892      2260095.3    
    356000   296.6223      -2.2602492      1.0012892      2260095.3    
    357000   297.56708      24.568484      1.0012892      2260095.3    
    358000   300.87634     -7.1288371      1.0012892      2260095.3    
    359000   296.0835       5.1679787      1.0012892      2260095.3    
    360000   302.73775      4.8429946      1.0012892      2260095.3    
    361000   297.39851     -21.48069       1.0012892      2260095.3    
    362000   300.70175      9.3746736      1.0012892      2260095.3    
    363000   299.9519       13.250264      1.0012892      2260095.3    
    364000   299.72258     -3.2783683      1.0012892      2260095.3    
    365000   301.4289       24.319395      1.0012892      2260095.3    
    366000   300.70793     -3.9163726      1.0012892      2260095.3    
    367000   301.24837     -2.1605789      1.0012892      2260095.3    
    368000   302.21359      3.7852528      1.0012892      2260095.3    
    369000   301.63804     -3.9093507      1.0012892      2260095.3    
    370000   297.95329     -12.150315      1.0012892      2260095.3    
    371000   300.16044      3.0549263      1.0012892      2260095.3    
    372000   296.21215      13.766775      1.0012892      2260095.3    
    373000   297.3155      -3.4415746      1.0012892      2260095.3    
    374000   301.67813      23.650292      1.0012892      2260095.3    
    375000   302.7611       22.143764      1.0012892      2260095.3    
    376000   300.75238      13.87319       1.0012892      2260095.3    
    377000   299.01944      12.824857      1.0012892      2260095.3    
    378000   298.34394      6.490944       1.0012892      2260095.3    
    379000   298.97664     -25.710051      1.0012892      2260095.3    
    380000   298.65914     -35.845702      1.0012892      2260095.3    
    381000   299.12971     -12.861273      1.0012892      2260095.3    
    382000   298.82209     -21.316173      1.0012892      2260095.3    
    383000   299.66836     -32.735832      1.0012892      2260095.3    
    384000   298.45028      0.85793007     1.0012892      2260095.3    
    385000   299.21725     -30.136761      1.0012892      2260095.3    
    386000   299.83446      12.648688      1.0012892      2260095.3    
    387000   300.65123     -3.3845876      1.0012892      2260095.3    
    388000   301.32212      8.91901        1.0012892      2260095.3    
    389000   301.48234     -9.3499586      1.0012892      2260095.3    
    390000   300.5888      -36.64874       1.0012892      2260095.3    
    391000   300.41187     -46.396359      1.0012892      2260095.3    
    392000   300.90471      4.5444442      1.0012892      2260095.3    
    393000   300.19612      5.8486824      1.0012892      2260095.3    
    394000   298.75007      14.677378      1.0012892      2260095.3    
    395000   299.74167      21.057782      1.0012892      2260095.3    
    396000   297.21384      32.437394      1.0012892      2260095.3    
    397000   300.17392      17.574736      1.0012892      2260095.3    
    398000   301.03608      11.778954      1.0012892      2260095.3    
    399000   301.9186       15.030502      1.0012892      2260095.3    
    400000   297.37144      26.259321      1.0012892      2260095.3    
    401000   300.89021      24.970384      1.0012892      2260095.3    
    402000   302.38317      5.9851569      1.0012892      2260095.3    
    403000   299.71376      10.850319      1.0012892      2260095.3    
    404000   297.83437      16.553817      1.0012892      2260095.3    
    405000   297.33602      11.425815      1.0012892      2260095.3    
    406000   301.42203      19.335759      1.0012892      2260095.3    
    407000   299.44773      38.270932      1.0012892      2260095.3    
    408000   296.70682      7.4810712      1.0012892      2260095.3    
    409000   297.0918       5.9397436      1.0012892      2260095.3    
    410000   299.56483      45.113774      1.0012892      2260095.3    
    411000   298.32871      21.268229      1.0012892      2260095.3    
    412000   295.51949      2.7429578      1.0012892      2260095.3    
    413000   299.73627      33.978291      1.0012892      2260095.3    
    414000   299.66404      24.924444      1.0012892      2260095.3    
    415000   301.19865      4.7748195      1.0012892      2260095.3    
    416000   298.11685      0.81618136     1.0012892      2260095.3    
    417000   302.1243       17.49909       1.0012892      2260095.3    
    418000   300.97283      15.652762      1.0012892      2260095.3    
    419000   297.28202     -7.4166166      1.0012892      2260095.3    
    420000   299.75271      11.782496      1.0012892      2260095.3    
    421000   299.24803      11.063252      1.0012892      2260095.3    
    422000   303.46313      24.836681      1.0012892      2260095.3    
    423000   301.95855      8.3080378      1.0012892      2260095.3    
    424000   300.60256      5.707763       1.0012892      2260095.3    
    425000   298.73165      4.7539422      1.0012892      2260095.3    
    426000   298.34254      10.372951      1.0012892      2260095.3    
    427000   300.51218      18.425778      1.0012892      2260095.3    
    428000   302.45532     -9.146205       1.0012892      2260095.3    
    429000   299.01828     -15.407041      1.0012892      2260095.3    
    430000   298.32152      0.5606646      1.0012892      2260095.3    
    431000   301.90928      23.85377       1.0012892      2260095.3    
    432000   296.67662      4.6052941      1.0012892      2260095.3    
    433000   300.80097     -14.318117      1.0012892      2260095.3    
    434000   297.81238      20.73504       1.0012892      2260095.3    
    435000   299.95177      5.5406433      1.0012892      2260095.3    
    436000   300.44505     -24.521583      1.0012892      2260095.3    
    437000   300.15431      13.767791      1.0012892      2260095.3    
    438000   300.10034      12.724403      1.0012892      2260095.3    
    439000   300.75337      8.0509008      1.0012892      2260095.3    
    440000   300.65202      14.269734      1.0012892      2260095.3    
    441000   299.9273       5.142458       1.0012892      2260095.3    
    442000   299.29257      1.3099849      1.0012892      2260095.3    
    443000   299.02687     -17.687946      1.0012892      2260095.3    
    444000   297.49591     -14.457997      1.0012892      2260095.3    
    445000   298.97125      7.0463415      1.0012892      2260095.3    
    446000   300.49104      36.372098      1.0012892      2260095.3    
    447000   298.12955      11.432878      1.0012892      2260095.3    
    448000   300.45119      46.336116      1.0012892      2260095.3    
    449000   299.29478      30.185358      1.0012892      2260095.3    
    450000   300.45906      31.244681      1.0012892      2260095.3    
    451000   302.62246      6.0880313      1.0012892      2260095.3    
    452000   303.2881       37.064256      1.0012892      2260095.3    
    453000   298.49609     -7.3354838      1.0012892      2260095.3    
    454000   300.4835      -1.8331982      1.0012892      2260095.3    
    455000   298.1867       38.666661      1.0012892      2260095.3    
    456000   298.64465     -4.8278646      1.0012892      2260095.3    
    457000   298.61287      15.822311      1.0012892      2260095.3    
    458000   300.07909      3.932298       1.0012892      2260095.3    
    459000   299.89043      30.33498       1.0012892      2260095.3    
    460000   299.03707     -17.693738      1.0012892      2260095.3    
    461000   298.74365     -0.86726489     1.0012892      2260095.3    
    462000   299.85751      27.99987       1.0012892      2260095.3    
    463000   297.3029       29.148779      1.0012892      2260095.3    
    464000   304.57711      23.092379      1.0012892      2260095.3    
    465000   301.58848     -2.7825788      1.0012892      2260095.3    
    466000   300.5479       6.58633        1.0012892      2260095.3    
    467000   300.63939      29.732347      1.0012892      2260095.3    
    468000   298.69641      9.0393342      1.0012892      2260095.3    
    469000   299.40543      18.608621      1.0012892      2260095.3    
    470000   303.15784      20.667757      1.0012892      2260095.3    
    471000   297.61611      24.821626      1.0012892      2260095.3    
    472000   305.40731      42.148802      1.0012892      2260095.3    
    473000   297.23268      13.683473      1.0012892      2260095.3    
    474000   298.43697      40.619692      1.0012892      2260095.3    
    475000   300.71747      10.007087      1.0012892      2260095.3    
    476000   299.36515      33.379109      1.0012892      2260095.3    
    477000   300.45082      20.541732      1.0012892      2260095.3    
    478000   300.94471      5.4753844      1.0012892      2260095.3    
    479000   301.89379      1.3715105      1.0012892      2260095.3    
    480000   299.80896      4.4875502      1.0012892      2260095.3    
    481000   302.71786      6.4621005      1.0012892      2260095.3    
    482000   301.01181     -8.2240446      1.0012892      2260095.3    
    483000   299.85865      9.7344681      1.0012892      2260095.3    
    484000   298.24892     -5.6211655      1.0012892      2260095.3    
    485000   298.36967      0.6718251      1.0012892      2260095.3    
    486000   299.37777      40.26288       1.0012892      2260095.3    
    487000   298.98312      27.40321       1.0012892      2260095.3    
    488000   297.63131      3.5118532      1.0012892      2260095.3    
    489000   303.04216      6.9138211      1.0012892      2260095.3    
    490000   299.63604      10.391363      1.0012892      2260095.3    
    491000   300.30812      15.030164      1.0012892      2260095.3    
    492000   297.6899       8.0477143      1.0012892      2260095.3    
    493000   300.30856      12.793438      1.0012892      2260095.3    
    494000   300.88793      30.006145      1.0012892      2260095.3    
    495000   301.86498      13.036498      1.0012892      2260095.3    
    496000   297.07856      8.355597       1.0012892      2260095.3    
    497000   303.3658      -17.731721      1.0012892      2260095.3    
    498000   299.30992     -7.4462579      1.0012892      2260095.3    
    499000   301.21169      18.023986      1.0012892      2260095.3    
    500000   298.09834      3.9727044      1.0012892      2260095.3    
    501000   299.68048      2.1293565      1.0012892      2260095.3    
    502000   300.47871      3.2578776      1.0012892      2260095.3    
    503000   300.25464     -15.133516      1.0012892      2260095.3    
    504000   301.99613      3.3837791      1.0012892      2260095.3    
    505000   298.9491      -20.920453      1.0012892      2260095.3    
    506000   301.14928     -21.751627      1.0012892      2260095.3    
    507000   302.65103     -17.453071      1.0012892      2260095.3    
    508000   295.24133      9.219818       1.0012892      2260095.3    
    509000   300.62627      25.523533      1.0012892      2260095.3    
    510000   298.63396      14.179971      1.0012892      2260095.3    
    510243   299.79671      14.921126      1.0012892      2260095.3    
Loop time of 181.577 on 1 procs for 500000 steps with 18928 atoms

Performance: 237.916 ns/day, 0.101 hours/ns, 2753.655 timesteps/s, 52.121 Matom-step/s
89.8% CPU use with 1 MPI tasks x no OpenMP threads

MPI task timing breakdown:
Section |  min time  |  avg time  |  max time  |%varavg| %total
---------------------------------------------------------------
Pair    | 87.037     | 87.037     | 87.037     |   0.0 | 47.93
Bond    | 0.02653    | 0.02653    | 0.02653    |   0.0 |  0.01
Neigh   | 0.31515    | 0.31515    | 0.31515    |   0.0 |  0.17
Comm    | 33.788     | 33.788     | 33.788     |   0.0 | 18.61
Output  | 6.7417     | 6.7417     | 6.7417     |   0.0 |  3.71
Modify  | 42.388     | 42.388     | 42.388     |   0.0 | 23.34
Other   |            | 11.28      |            |       |  6.21

Nlocal:          18928 ave       18928 max       18928 min
Histogram: 1 0 0 0 0 0 0 0 0 0
Nghost:          13649 ave       13649 max       13649 min
Histogram: 1 0 0 0 0 0 0 0 0 0
Neighs:              0 ave           0 max           0 min
Histogram: 1 0 0 0 0 0 0 0 0 0

Total # of neighbors = 0
Ave neighs/atom = 0
Ave special neighs/atom = 0
Neighbor list builds = 8849
Dangerous builds = 0
unfix           2
write_data      water_out.data
System init for write_data ...
Generated 0 of 0 mixed pair_coeff terms from geometric mixing rule

# variable        lambda equal ramp(0.8,1.0)
# fix             2 all adapt 1 pair lj/cut/soft lambda * * v_lambda

# fix             3 all npt temp 300.0 300.0 100.0 iso 1.0 1.0 1000
# timestep        1
# thermo_style    custom step temp press density vol
# thermo          10000
# run             50000
# unfix           3

# -----------------------------------------------------
# 5. 计算均方回转半径
# -----------------------------------------------------
# 使用compute gyration命令计算整个体系的回转半径
# fix             equil all nvt temp 350.0 350.0 100.0
# variable        d_end equal "sqrt((x[1]-x[150])^2 + (y[1]-y[150])^2 + (z[1]-z[150])^2)"
# compute         rg all gyration
# fix             avg all ave/time 1000 800 1000000 c_rg v_d_end file avg.txt
# # 输出热力学信息及回转半径数据，每隔1000步输出一次
# thermo_style    custom step temp pe ke etotal c_rg v_d_end
# thermo          10000
# # 输出轨迹文件，便于后续可视化与分析
# dump            traj all custom 1000 dump.pdms.lammpstrj id type x y z
# # 运行模拟，记录回转半径数据（后续可统计分析均值与波动）
# run             1000000
# unfix           equil
# -----------------------------------------------------
# 6. 数据输出
# -----------------------------------------------------


# # 写出最终体系数据文件
# write_data      pdms_out.data
Total wall time: 0:03:07
